# vtk DataFile Version 3.0
"** Job name: Sat Model name: back
** Generated by: Abaqus/CAE 2016"
ASCII
DATASET UNSTRUCTURED_GRID

POINTS     938 double
6.247503e-01 1.950842e-01 0.000000e+00
6.599929e-01 2.064080e-01 0.000000e+00
5.893130e-01 1.843834e-01 0.000000e+00
6.173611e-01 8.839742e-02 0.000000e+00
6.602595e-01 1.014154e-01 0.000000e+00
7.028790e-01 1.153032e-01 0.000000e+00
7.451970e-01 1.300530e-01 0.000000e+00
7.871996e-01 1.456591e-01 0.000000e+00
8.288727e-01 1.621160e-01 0.000000e+00
8.702022e-01 1.794182e-01 0.000000e+00
9.111743e-01 1.975601e-01 0.000000e+00
9.517749e-01 2.165363e-01 0.000000e+00
9.919900e-01 2.363411e-01 0.000000e+00
1.028419e+00 2.572530e-01 0.000000e+00
1.055820e+00 2.914630e-01 0.000000e+00
4.646966e-02 6.727121e-02 0.000000e+00
4.728021e-02 3.396484e-02 0.000000e+00
9.315087e-02 6.887607e-02 0.000000e+00
9.467819e-02 3.553515e-02 0.000000e+00
1.874550e-01 7.507940e-02 0.000000e+00
1.900966e-01 4.185073e-02 0.000000e+00
2.346617e-01 7.977458e-02 0.000000e+00
2.378364e-01 4.659000e-02 0.000000e+00
1.402279e-01 7.144585e-02 0.000000e+00
1.423509e-01 3.817123e-02 0.000000e+00
3.286941e-01 9.230603e-02 0.000000e+00
3.329138e-01 5.922856e-02 0.000000e+00
3.754770e-01 1.001359e-01 0.000000e+00
3.802130e-01 6.712113e-02 0.000000e+00
4.684500e-01 1.188990e-01 0.000000e+00
4.742275e-01 8.603364e-02 0.000000e+00
5.146039e-01 1.298185e-01 0.000000e+00
5.209027e-01 9.703927e-02 0.000000e+00
4.220712e-01 1.090018e-01 0.000000e+00
4.273250e-01 7.605749e-02 0.000000e+00
2.817472e-01 8.551747e-02 0.000000e+00
2.854473e-01 5.238356e-02 0.000000e+00
5.083510e-01 1.624574e-01 0.000000e+00
4.627437e-01 1.516181e-01 0.000000e+00
4.168844e-01 1.417951e-01 0.000000e+00
3.707901e-01 1.329938e-01 0.000000e+00
3.245088e-01 1.252245e-01 0.000000e+00
2.780776e-01 1.184928e-01 0.000000e+00
2.315154e-01 1.128008e-01 0.000000e+00
1.848412e-01 1.081503e-01 0.000000e+00
1.380737e-01 1.045433e-01 0.000000e+00
9.123177e-02 1.019817e-01 0.000000e+00
4.433436e-02 1.004675e-01 0.000000e+00
-5.616103e-10 1.000000e-01 0.000000e+00
-4.052744e-10 6.666667e-02 0.000000e+00
-2.489386e-10 3.333334e-02 0.000000e+00
-9.260281e-11 4.690078e-10 0.000000e+00
4.731517e-02 5.083367e-04 0.000000e+00
9.590395e-02 2.091274e-03 0.000000e+00
1.443942e-01 4.743743e-03 0.000000e+00
1.927824e-01 8.463030e-03 0.000000e+00
2.410540e-01 1.324616e-02 0.000000e+00
2.891914e-01 1.909013e-02 0.000000e+00
3.371774e-01 2.599190e-02 0.000000e+00
3.849946e-01 3.394846e-02 0.000000e+00
4.326257e-01 4.295680e-02 0.000000e+00
4.800532e-01 5.301389e-02 0.000000e+00
5.272599e-01 6.411672e-02 0.000000e+00
5.742285e-01 7.626226e-02 0.000000e+00
5.673821e-01 1.089441e-01 0.000000e+00
5.605358e-01 1.416260e-01 0.000000e+00
5.536894e-01 1.743079e-01 0.000000e+00
6.950328e-01 2.183519e-01 0.000000e+00
7.298617e-01 2.309135e-01 0.000000e+00
7.644713e-01 2.440902e-01 0.000000e+00
7.988535e-01 2.578794e-01 0.000000e+00
8.330001e-01 2.722784e-01 0.000000e+00
8.669029e-01 2.872848e-01 0.000000e+00
9.005638e-01 3.029009e-01 0.000000e+00
9.339610e-01 3.191172e-01 0.000000e+00
9.659660e-01 3.353527e-01 0.000000e+00
9.959172e-01 3.207228e-01 0.000000e+00
1.025868e+00 3.060929e-01 0.000000e+00
7.862377e-01 2.165263e-01 0.000000e+00
8.076982e-01 1.892287e-01 0.000000e+00
6.744549e-01 1.757516e-01 0.000000e+00
6.887421e-01 1.454088e-01 0.000000e+00
5.987623e-01 1.520945e-01 0.000000e+00
6.080905e-01 1.201213e-01 0.000000e+00
6.367124e-01 1.635600e-01 0.000000e+00
6.485423e-01 1.323625e-01 0.000000e+00
7.119638e-01 1.886458e-01 0.000000e+00
7.286776e-01 1.592388e-01 0.000000e+00
7.492286e-01 2.022387e-01 0.000000e+00
7.683342e-01 1.738470e-01 0.000000e+00
8.954464e-01 2.634740e-01 0.000000e+00
9.237204e-01 2.398722e-01 0.000000e+00
8.229806e-01 2.315049e-01 0.000000e+00
8.467575e-01 2.053789e-01 0.000000e+00
8.594505e-01 2.471721e-01 0.000000e+00
8.855022e-01 2.222945e-01 0.000000e+00
9.309608e-01 2.805977e-01 0.000000e+00
9.614295e-01 2.584921e-01 0.000000e+00
9.647551e-01 2.990854e-01 0.000000e+00
9.966211e-01 2.795249e-01 0.000000e+00
9.832746e-01 5.003747e-01 0.000000e+00
1.017554e+00 4.925055e-01 0.000000e+00
9.607424e-01 7.256970e-01 0.000000e+00
9.941173e-01 7.268708e-01 0.000000e+00
9.517295e-01 8.158259e-01 0.000000e+00
9.847427e-01 8.206169e-01 0.000000e+00
9.562360e-01 7.707614e-01 0.000000e+00
9.894300e-01 7.737439e-01 0.000000e+00
9.427167e-01 9.059548e-01 0.000000e+00
9.753681e-01 9.143630e-01 0.000000e+00
9.381970e-01 9.510018e-01 0.000000e+00
9.706655e-01 9.612392e-01 0.000000e+00
9.472231e-01 8.608903e-01 0.000000e+00
9.800554e-01 8.674900e-01 0.000000e+00
9.652489e-01 6.806325e-01 0.000000e+00
9.988046e-01 6.799977e-01 0.000000e+00
9.054308e-01 9.407044e-01 0.000000e+00
9.097548e-01 8.974650e-01 0.000000e+00
9.140787e-01 8.542256e-01 0.000000e+00
9.184026e-01 8.109862e-01 0.000000e+00
9.227266e-01 7.677467e-01 0.000000e+00
9.270505e-01 7.245073e-01 0.000000e+00
9.313744e-01 6.812679e-01 0.000000e+00
9.356984e-01 6.380286e-01 0.000000e+00
9.400223e-01 5.947891e-01 0.000000e+00
9.443462e-01 5.515497e-01 0.000000e+00
9.486702e-01 5.083103e-01 0.000000e+00
9.529942e-01 4.650709e-01 0.000000e+00
9.573181e-01 4.218315e-01 0.000000e+00
9.616420e-01 3.785921e-01 0.000000e+00
1.065894e+00 3.391660e-01 0.000000e+00
1.061263e+00 3.873650e-01 0.000000e+00
1.056397e+00 4.360314e-01 0.000000e+00
1.051530e+00 4.846978e-01 0.000000e+00
1.046664e+00 5.333642e-01 0.000000e+00
1.041797e+00 5.820306e-01 0.000000e+00
1.036930e+00 6.306970e-01 0.000000e+00
1.032064e+00 6.793634e-01 0.000000e+00
1.027197e+00 7.280298e-01 0.000000e+00
1.022330e+00 7.766961e-01 0.000000e+00
1.017464e+00 8.253626e-01 0.000000e+00
1.012597e+00 8.740290e-01 0.000000e+00
1.007730e+00 9.226953e-01 0.000000e+00
1.002864e+00 9.713618e-01 0.000000e+00
9.979972e-01 1.020028e+00 0.000000e+00
9.657004e-01 1.008000e+00 0.000000e+00
9.334036e-01 9.959719e-01 0.000000e+00
9.011068e-01 9.839438e-01 0.000000e+00
1.008179e+00 5.862516e-01 0.000000e+00
9.742618e-01 5.905036e-01 0.000000e+00
1.003492e+00 6.331247e-01 0.000000e+00
9.697553e-01 6.355681e-01 0.000000e+00
1.012866e+00 5.393786e-01 0.000000e+00
9.787682e-01 5.454391e-01 0.000000e+00
1.026855e+00 3.985491e-01 0.000000e+00
9.921783e-01 4.102590e-01 0.000000e+00
1.022238e+00 4.456608e-01 0.000000e+00
9.877746e-01 4.553316e-01 0.000000e+00
1.029686e+00 3.517213e-01 0.000000e+00
9.955412e-01 3.654770e-01 0.000000e+00
8.254362e-01 1.698992e+00 0.000000e+00
8.567405e-01 1.710853e+00 0.000000e+00
8.880449e-01 1.722715e+00 0.000000e+00
9.193493e-01 1.734577e+00 0.000000e+00
9.306014e-01 1.684866e+00 0.000000e+00
9.366484e-01 1.633516e+00 0.000000e+00
9.417608e-01 1.582392e+00 0.000000e+00
9.468732e-01 1.531268e+00 0.000000e+00
9.519856e-01 1.480144e+00 0.000000e+00
9.570979e-01 1.429020e+00 0.000000e+00
9.622104e-01 1.377896e+00 0.000000e+00
9.673228e-01 1.326772e+00 0.000000e+00
9.724352e-01 1.275648e+00 0.000000e+00
9.775476e-01 1.224524e+00 0.000000e+00
9.826600e-01 1.173400e+00 0.000000e+00
9.877724e-01 1.122276e+00 0.000000e+00
9.928848e-01 1.071152e+00 0.000000e+00
8.959947e-01 1.035066e+00 0.000000e+00
8.908824e-01 1.086188e+00 0.000000e+00
8.857702e-01 1.137310e+00 0.000000e+00
8.806580e-01 1.188432e+00 0.000000e+00
8.755458e-01 1.239554e+00 0.000000e+00
8.704336e-01 1.290677e+00 0.000000e+00
8.653214e-01 1.341799e+00 0.000000e+00
8.602092e-01 1.392921e+00 0.000000e+00
8.550969e-01 1.444043e+00 0.000000e+00
8.499848e-01 1.495165e+00 0.000000e+00
8.448725e-01 1.546287e+00 0.000000e+00
8.397603e-01 1.597409e+00 0.000000e+00
8.346480e-01 1.648485e+00 0.000000e+00
9.299141e-01 1.365864e+00 0.000000e+00
8.976178e-01 1.353831e+00 0.000000e+00
9.094570e-01 1.570399e+00 0.000000e+00
8.771641e-01 1.558336e+00 0.000000e+00
8.976178e-01 1.672536e+00 0.000000e+00
8.656615e-01 1.660516e+00 0.000000e+00
9.041761e-01 1.621652e+00 0.000000e+00
8.719357e-01 1.609471e+00 0.000000e+00
9.196894e-01 1.468110e+00 0.000000e+00
8.873932e-01 1.456077e+00 0.000000e+00
9.145771e-01 1.519234e+00 0.000000e+00
8.822809e-01 1.507200e+00 0.000000e+00
9.248018e-01 1.416987e+00 0.000000e+00
8.925055e-01 1.404954e+00 0.000000e+00
9.452511e-01 1.212494e+00 0.000000e+00
9.129546e-01 1.200463e+00 0.000000e+00
9.350265e-01 1.314740e+00 0.000000e+00
9.027300e-01 1.302709e+00 0.000000e+00
9.401388e-01 1.263617e+00 0.000000e+00
9.078423e-01 1.251586e+00 0.000000e+00
9.554758e-01 1.110247e+00 0.000000e+00
9.231791e-01 1.098217e+00 0.000000e+00
9.503635e-01 1.161370e+00 0.000000e+00
9.180669e-01 1.149340e+00 0.000000e+00
9.605882e-01 1.059123e+00 0.000000e+00
9.282914e-01 1.047095e+00 0.000000e+00
-5.616034e-10 2.061187e+00 0.000000e+00
5.000000e-02 2.060068e+00 0.000000e+00
1.000000e-01 2.058949e+00 0.000000e+00
1.500000e-01 2.057831e+00 0.000000e+00
2.000000e-01 2.056712e+00 0.000000e+00
2.500000e-01 2.055593e+00 0.000000e+00
3.000000e-01 2.054475e+00 0.000000e+00
3.500000e-01 2.053356e+00 0.000000e+00
4.000000e-01 2.052237e+00 0.000000e+00
4.500000e-01 2.051119e+00 0.000000e+00
5.000000e-01 2.050000e+00 0.000000e+00
5.000000e-01 2.016667e+00 0.000000e+00
5.000000e-01 1.983333e+00 0.000000e+00
5.000000e-01 1.950000e+00 0.000000e+00
4.500000e-01 1.950000e+00 0.000000e+00
4.000000e-01 1.950000e+00 0.000000e+00
3.500000e-01 1.950000e+00 0.000000e+00
3.000000e-01 1.950000e+00 0.000000e+00
2.500000e-01 1.950000e+00 0.000000e+00
2.000000e-01 1.950000e+00 0.000000e+00
1.500000e-01 1.950000e+00 0.000000e+00
1.000000e-01 1.950000e+00 0.000000e+00
5.000000e-02 1.950000e+00 0.000000e+00
-5.616038e-10 1.950000e+00 0.000000e+00
-5.616037e-10 1.987062e+00 0.000000e+00
-5.616035e-10 2.024124e+00 0.000000e+00
2.498524e-01 1.985199e+00 0.000000e+00
2.498524e-01 2.020397e+00 0.000000e+00
3.998476e-01 1.984080e+00 0.000000e+00
3.998476e-01 2.018160e+00 0.000000e+00
4.498775e-01 1.983709e+00 0.000000e+00
4.498775e-01 2.017412e+00 0.000000e+00
3.498493e-01 1.984453e+00 0.000000e+00
3.498493e-01 2.018906e+00 0.000000e+00
2.998509e-01 1.984826e+00 0.000000e+00
2.998509e-01 2.019652e+00 0.000000e+00
1.498555e-01 1.985945e+00 0.000000e+00
1.498555e-01 2.021889e+00 0.000000e+00
1.998540e-01 1.985572e+00 0.000000e+00
1.998540e-01 2.021143e+00 0.000000e+00
9.985699e-02 1.986318e+00 0.000000e+00
9.985699e-02 2.022635e+00 0.000000e+00
4.988706e-02 1.986688e+00 0.000000e+00
4.988706e-02 2.023382e+00 0.000000e+00
5.551861e-01 2.046497e+00 0.000000e+00
6.104687e-01 2.035789e+00 0.000000e+00
6.640111e-01 2.018013e+00 0.000000e+00
7.147805e-01 1.993498e+00 0.000000e+00
7.618424e-01 1.962736e+00 0.000000e+00
8.046145e-01 1.926126e+00 0.000000e+00
8.424240e-01 1.884181e+00 0.000000e+00
8.744302e-01 1.837824e+00 0.000000e+00
9.002134e-01 1.787701e+00 0.000000e+00
8.114194e-01 1.740927e+00 0.000000e+00
7.919742e-01 1.780751e+00 0.000000e+00
7.675048e-01 1.817621e+00 0.000000e+00
7.384300e-01 1.850940e+00 0.000000e+00
7.051687e-01 1.880209e+00 0.000000e+00
6.685843e-01 1.904720e+00 0.000000e+00
6.292809e-01 1.924172e+00 0.000000e+00
5.877801e-01 1.938348e+00 0.000000e+00
5.446038e-01 1.947031e+00 0.000000e+00
7.423620e-01 1.934515e+00 0.000000e+00
7.235246e-01 1.907031e+00 0.000000e+00
6.026842e-01 2.002418e+00 0.000000e+00
5.950383e-01 1.970017e+00 0.000000e+00
5.517648e-01 2.012405e+00 0.000000e+00
5.478947e-01 1.979354e+00 0.000000e+00
6.520330e-01 1.985920e+00 0.000000e+00
6.404793e-01 1.954692e+00 0.000000e+00
6.988543e-01 1.963156e+00 0.000000e+00
6.835344e-01 1.933588e+00 0.000000e+00
8.166031e-01 1.861571e+00 0.000000e+00
7.916772e-01 1.839413e+00 0.000000e+00
7.818446e-01 1.900461e+00 0.000000e+00
7.597878e-01 1.875462e+00 0.000000e+00
8.460537e-01 1.818480e+00 0.000000e+00
8.186091e-01 1.799492e+00 0.000000e+00
8.697351e-01 1.771890e+00 0.000000e+00
8.402115e-01 1.756312e+00 0.000000e+00
-5.616029e-10 2.200000e+00 0.000000e+00
4.500000e-02 2.200000e+00 0.000000e+00
9.000000e-02 2.200000e+00 0.000000e+00
1.350000e-01 2.200000e+00 0.000000e+00
1.800000e-01 2.200000e+00 0.000000e+00
2.250000e-01 2.200000e+00 0.000000e+00
2.700000e-01 2.200000e+00 0.000000e+00
3.150000e-01 2.200000e+00 0.000000e+00
3.600000e-01 2.200000e+00 0.000000e+00
4.050000e-01 2.200000e+00 0.000000e+00
4.500000e-01 2.200000e+00 0.000000e+00
4.625000e-01 2.162500e+00 0.000000e+00
4.750000e-01 2.125000e+00 0.000000e+00
4.875000e-01 2.087500e+00 0.000000e+00
-5.616033e-10 2.095890e+00 0.000000e+00
-5.616032e-10 2.130593e+00 0.000000e+00
-5.616030e-10 2.165297e+00 0.000000e+00
2.438836e-01 2.091484e+00 0.000000e+00
2.376529e-01 2.127520e+00 0.000000e+00
2.313849e-01 2.163680e+00 0.000000e+00
3.901520e-01 2.088967e+00 0.000000e+00
3.801777e-01 2.125841e+00 0.000000e+00
3.701541e-01 2.162841e+00 0.000000e+00
4.276551e-01 2.125303e+00 0.000000e+00
4.388918e-01 2.088137e+00 0.000000e+00
4.163798e-01 2.162573e+00 0.000000e+00
2.851613e-01 2.126960e+00 0.000000e+00
3.326696e-01 2.126401e+00 0.000000e+00
2.926399e-01 2.090645e+00 0.000000e+00
3.413960e-01 2.089806e+00 0.000000e+00
2.776414e-01 2.163400e+00 0.000000e+00
3.238977e-01 2.163120e+00 0.000000e+00
1.463709e-01 2.093162e+00 0.000000e+00
1.426359e-01 2.128639e+00 0.000000e+00
1.388716e-01 2.164239e+00 0.000000e+00
1.901445e-01 2.128079e+00 0.000000e+00
1.951273e-01 2.092323e+00 0.000000e+00
1.851283e-01 2.163959e+00 0.000000e+00
4.759435e-02 2.129778e+00 0.000000e+00
9.512711e-02 2.129198e+00 0.000000e+00
4.883093e-02 2.094853e+00 0.000000e+00
9.761435e-02 2.094002e+00 0.000000e+00
4.634541e-02 2.164808e+00 0.000000e+00
9.261485e-02 2.164519e+00 0.000000e+00
5.571126e-01 1.579670e-01 0.000000e+00
5.310202e-01 1.683827e-01 0.000000e+00
5.715013e-01 1.793456e-01 0.000000e+00
5.639589e-01 1.252851e-01 0.000000e+00
5.375698e-01 1.357222e-01 0.000000e+00
5.796491e-01 1.468603e-01 0.000000e+00
5.708053e-01 9.260320e-02 0.000000e+00
5.441424e-01 1.029917e-01 0.000000e+00
5.877363e-01 1.145327e-01 0.000000e+00
5.507442e-01 7.018948e-02 0.000000e+00
5.957947e-01 8.232984e-02 0.000000e+00
5.036566e-01 5.856530e-02 0.000000e+00
5.240813e-01 8.057799e-02 0.000000e+00
4.563394e-01 4.798535e-02 0.000000e+00
4.771404e-01 6.952377e-02 0.000000e+00
4.088101e-01 3.845263e-02 0.000000e+00
4.299753e-01 5.950715e-02 0.000000e+00
3.610860e-01 2.997018e-02 0.000000e+00
3.826038e-01 5.053480e-02 0.000000e+00
3.131844e-01 2.254101e-02 0.000000e+00
3.350456e-01 4.261023e-02 0.000000e+00
2.651227e-01 1.616815e-02 0.000000e+00
2.873194e-01 3.573684e-02 0.000000e+00
2.169182e-01 1.085460e-02 0.000000e+00
2.394452e-01 2.991808e-02 0.000000e+00
1.685883e-01 6.603386e-03 0.000000e+00
1.914395e-01 2.515688e-02 0.000000e+00
1.201491e-01 3.417508e-03 0.000000e+00
1.433726e-01 2.145749e-02 0.000000e+00
7.160956e-02 1.299805e-03 0.000000e+00
9.529106e-02 1.881321e-02 0.000000e+00
2.365758e-02 2.541686e-04 0.000000e+00
4.729769e-02 1.723659e-02 0.000000e+00
-1.707707e-10 1.666667e-02 0.000000e+00
-3.271065e-10 5.000000e-02 0.000000e+00
2.364011e-02 3.364909e-02 0.000000e+00
-4.834423e-10 8.333334e-02 0.000000e+00
2.323483e-02 6.696894e-02 0.000000e+00
2.216718e-02 1.002337e-01 0.000000e+00
6.778307e-02 1.012246e-01 0.000000e+00
4.540201e-02 8.386933e-02 0.000000e+00
1.146527e-01 1.032625e-01 0.000000e+00
9.219132e-02 8.542890e-02 0.000000e+00
1.614574e-01 1.063468e-01 0.000000e+00
1.391508e-01 8.799460e-02 0.000000e+00
2.081783e-01 1.104756e-01 0.000000e+00
1.861481e-01 9.161486e-02 0.000000e+00
2.547965e-01 1.156468e-01 0.000000e+00
2.330885e-01 9.628769e-02 0.000000e+00
3.012932e-01 1.218586e-01 0.000000e+00
2.799124e-01 1.020051e-01 0.000000e+00
3.476495e-01 1.291091e-01 0.000000e+00
3.266014e-01 1.087652e-01 0.000000e+00
3.938373e-01 1.373944e-01 0.000000e+00
3.731336e-01 1.165648e-01 0.000000e+00
4.398141e-01 1.467066e-01 0.000000e+00
4.194778e-01 1.253984e-01 0.000000e+00
4.855473e-01 1.570377e-01 0.000000e+00
4.655969e-01 1.352585e-01 0.000000e+00
5.114774e-01 1.461379e-01 0.000000e+00
2.835972e-01 6.895051e-02 0.000000e+00
3.091806e-01 5.580606e-02 0.000000e+00
2.616419e-01 4.948678e-02 0.000000e+00
3.052207e-01 8.891175e-02 0.000000e+00
2.582044e-01 8.264603e-02 0.000000e+00
4.246981e-01 9.252962e-02 0.000000e+00
4.507763e-01 8.104557e-02 0.000000e+00
4.037690e-01 7.158931e-02 0.000000e+00
4.452606e-01 1.139504e-01 0.000000e+00
3.987741e-01 1.045688e-01 0.000000e+00
5.177532e-01 1.134289e-01 0.000000e+00
4.975651e-01 9.153645e-02 0.000000e+00
4.915269e-01 1.243587e-01 0.000000e+00
4.713388e-01 1.024663e-01 0.000000e+00
3.778450e-01 8.362850e-02 0.000000e+00
3.565634e-01 6.317484e-02 0.000000e+00
3.520856e-01 9.622095e-02 0.000000e+00
3.308040e-01 7.576729e-02 0.000000e+00
1.412894e-01 5.480854e-02 0.000000e+00
1.662238e-01 4.001098e-02 0.000000e+00
1.185146e-01 3.685319e-02 0.000000e+00
1.638414e-01 7.326262e-02 0.000000e+00
1.166894e-01 7.016096e-02 0.000000e+00
2.362490e-01 6.318229e-02 0.000000e+00
2.139665e-01 4.422036e-02 0.000000e+00
2.110583e-01 7.742699e-02 0.000000e+00
1.887758e-01 5.846506e-02 0.000000e+00
9.391453e-02 5.220561e-02 0.000000e+00
7.097920e-02 3.474999e-02 0.000000e+00
6.981026e-02 6.807364e-02 0.000000e+00
4.687494e-02 5.061802e-02 0.000000e+00
1.042120e+00 2.743580e-01 0.000000e+00
1.040844e+00 2.987780e-01 0.000000e+00
1.060857e+00 3.153145e-01 0.000000e+00
1.010205e+00 2.467970e-01 0.000000e+00
1.012520e+00 2.683889e-01 0.000000e+00
9.718824e-01 2.264387e-01 0.000000e+00
9.767097e-01 2.474166e-01 0.000000e+00
9.314746e-01 2.070482e-01 0.000000e+00
9.377477e-01 2.282042e-01 0.000000e+00
8.906882e-01 1.884892e-01 0.000000e+00
8.983383e-01 2.099273e-01 0.000000e+00
8.495374e-01 1.707671e-01 0.000000e+00
8.584799e-01 1.923985e-01 0.000000e+00
8.080361e-01 1.538875e-01 0.000000e+00
8.182855e-01 1.756723e-01 0.000000e+00
7.661983e-01 1.378560e-01 0.000000e+00
7.777669e-01 1.597531e-01 0.000000e+00
7.240380e-01 1.226781e-01 0.000000e+00
7.369373e-01 1.446459e-01 0.000000e+00
6.815692e-01 1.083593e-01 0.000000e+00
6.958106e-01 1.303560e-01 0.000000e+00
6.388103e-01 9.490641e-02 0.000000e+00
6.544009e-01 1.168890e-01 0.000000e+00
6.127257e-01 1.042593e-01 0.000000e+00
6.070316e-01 1.897338e-01 0.000000e+00
5.940377e-01 1.682390e-01 0.000000e+00
6.423716e-01 2.007461e-01 0.000000e+00
6.307313e-01 1.793221e-01 0.000000e+00
6.775129e-01 2.123799e-01 0.000000e+00
6.672239e-01 1.910798e-01 0.000000e+00
7.124472e-01 2.246327e-01 0.000000e+00
7.034983e-01 2.034989e-01 0.000000e+00
7.471665e-01 2.375019e-01 0.000000e+00
7.395451e-01 2.165761e-01 0.000000e+00
7.816624e-01 2.509848e-01 0.000000e+00
7.753545e-01 2.303082e-01 0.000000e+00
8.159268e-01 2.650789e-01 0.000000e+00
8.109171e-01 2.446921e-01 0.000000e+00
8.499515e-01 2.797816e-01 0.000000e+00
8.462253e-01 2.597253e-01 0.000000e+00
8.837333e-01 2.950928e-01 0.000000e+00
8.811747e-01 2.753794e-01 0.000000e+00
9.172624e-01 3.110090e-01 0.000000e+00
9.157623e-01 2.917493e-01 0.000000e+00
9.499635e-01 3.272350e-01 0.000000e+00
9.493580e-01 3.091013e-01 0.000000e+00
9.809416e-01 3.280377e-01 0.000000e+00
9.638040e-01 3.569724e-01 0.000000e+00
1.010893e+00 3.134078e-01 0.000000e+00
9.803362e-01 3.099041e-01 0.000000e+00
9.957292e-01 3.430999e-01 0.000000e+00
1.011245e+00 2.928089e-01 0.000000e+00
1.027777e+00 3.289071e-01 0.000000e+00
7.969680e-01 2.028775e-01 0.000000e+00
7.677332e-01 2.093825e-01 0.000000e+00
8.046092e-01 2.240155e-01 0.000000e+00
7.880162e-01 1.815379e-01 0.000000e+00
8.272279e-01 1.973038e-01 0.000000e+00
6.815985e-01 1.605802e-01 0.000000e+00
6.555836e-01 1.696558e-01 0.000000e+00
6.932093e-01 1.821987e-01 0.000000e+00
6.686422e-01 1.388857e-01 0.000000e+00
7.087098e-01 1.523238e-01 0.000000e+00
6.034264e-01 1.361079e-01 0.000000e+00
6.177374e-01 1.578273e-01 0.000000e+00
6.283164e-01 1.262419e-01 0.000000e+00
6.426274e-01 1.479613e-01 0.000000e+00
7.203208e-01 1.739423e-01 0.000000e+00
7.305962e-01 1.954423e-01 0.000000e+00
7.485059e-01 1.665429e-01 0.000000e+00
7.587814e-01 1.880429e-01 0.000000e+00
9.095834e-01 2.516731e-01 0.000000e+00
8.774484e-01 2.553231e-01 0.000000e+00
9.132036e-01 2.720359e-01 0.000000e+00
9.046113e-01 2.310833e-01 0.000000e+00
9.425749e-01 2.491821e-01 0.000000e+00
8.348691e-01 2.184419e-01 0.000000e+00
8.412156e-01 2.393385e-01 0.000000e+00
8.661298e-01 2.138367e-01 0.000000e+00
8.724763e-01 2.347333e-01 0.000000e+00
9.461951e-01 2.695449e-01 0.000000e+00
9.478580e-01 2.898416e-01 0.000000e+00
9.790253e-01 2.690085e-01 0.000000e+00
9.806881e-01 2.893052e-01 0.000000e+00
9.172552e-01 9.899579e-01 0.000000e+00
9.032688e-01 9.623241e-01 0.000000e+00
8.985507e-01 1.009505e+00 0.000000e+00
9.495520e-01 1.001986e+00 0.000000e+00
9.358003e-01 9.734868e-01 0.000000e+00
9.308475e-01 1.021533e+00 0.000000e+00
9.818488e-01 1.014014e+00 0.000000e+00
9.681829e-01 9.846196e-01 0.000000e+00
9.631442e-01 1.033562e+00 0.000000e+00
1.000430e+00 9.956949e-01 0.000000e+00
9.954410e-01 1.045590e+00 0.000000e+00
1.005297e+00 9.470285e-01 0.000000e+00
9.867647e-01 9.663005e-01 0.000000e+00
1.010164e+00 8.983622e-01 0.000000e+00
9.915493e-01 9.185292e-01 0.000000e+00
1.015030e+00 8.496957e-01 0.000000e+00
9.963262e-01 8.707595e-01 0.000000e+00
1.019897e+00 8.010294e-01 0.000000e+00
1.001103e+00 8.229898e-01 0.000000e+00
1.024764e+00 7.523630e-01 0.000000e+00
1.005880e+00 7.752200e-01 0.000000e+00
1.029630e+00 7.036965e-01 0.000000e+00
1.010657e+00 7.274503e-01 0.000000e+00
1.034497e+00 6.550302e-01 0.000000e+00
1.015434e+00 6.796806e-01 0.000000e+00
1.039364e+00 6.063638e-01 0.000000e+00
1.020211e+00 6.319109e-01 0.000000e+00
1.044230e+00 5.576974e-01 0.000000e+00
1.024988e+00 5.841411e-01 0.000000e+00
1.049097e+00 5.090310e-01 0.000000e+00
1.029765e+00 5.363714e-01 0.000000e+00
1.053964e+00 4.603646e-01 0.000000e+00
1.034542e+00 4.886017e-01 0.000000e+00
1.058830e+00 4.116982e-01 0.000000e+00
1.039318e+00 4.408461e-01 0.000000e+00
1.063579e+00 3.632655e-01 0.000000e+00
1.044060e+00 3.929570e-01 0.000000e+00
1.047790e+00 3.454436e-01 0.000000e+00
9.594800e-01 4.002118e-01 0.000000e+00
9.785916e-01 3.720346e-01 0.000000e+00
9.551561e-01 4.434512e-01 0.000000e+00
9.747482e-01 4.160452e-01 0.000000e+00
9.508322e-01 4.866906e-01 0.000000e+00
9.703844e-01 4.602013e-01 0.000000e+00
9.465082e-01 5.299300e-01 0.000000e+00
9.659724e-01 5.043425e-01 0.000000e+00
9.421843e-01 5.731694e-01 0.000000e+00
9.615572e-01 5.484944e-01 0.000000e+00
9.378604e-01 6.164088e-01 0.000000e+00
9.571421e-01 5.926464e-01 0.000000e+00
9.335364e-01 6.596482e-01 0.000000e+00
9.527268e-01 6.367983e-01 0.000000e+00
9.292125e-01 7.028877e-01 0.000000e+00
9.483117e-01 6.809502e-01 0.000000e+00
9.248886e-01 7.461271e-01 0.000000e+00
9.438965e-01 7.251022e-01 0.000000e+00
9.205646e-01 7.893665e-01 0.000000e+00
9.394813e-01 7.692541e-01 0.000000e+00
9.162406e-01 8.326059e-01 0.000000e+00
9.350661e-01 8.134060e-01 0.000000e+00
9.119167e-01 8.758453e-01 0.000000e+00
9.306509e-01 8.575580e-01 0.000000e+00
9.075928e-01 9.190847e-01 0.000000e+00
9.262357e-01 9.017099e-01 0.000000e+00
9.218139e-01 9.458531e-01 0.000000e+00
9.820268e-01 6.803151e-01 0.000000e+00
9.964609e-01 7.034343e-01 0.000000e+00
1.001148e+00 6.565612e-01 0.000000e+00
9.629956e-01 7.031648e-01 0.000000e+00
9.675021e-01 6.581003e-01 0.000000e+00
9.636392e-01 8.641902e-01 0.000000e+00
9.777117e-01 8.909265e-01 0.000000e+00
9.823990e-01 8.440534e-01 0.000000e+00
9.449699e-01 8.834226e-01 0.000000e+00
9.494763e-01 8.383581e-01 0.000000e+00
9.544312e-01 9.561205e-01 0.000000e+00
9.730167e-01 9.378011e-01 0.000000e+00
9.404568e-01 9.284782e-01 0.000000e+00
9.590424e-01 9.101589e-01 0.000000e+00
9.728330e-01 7.722526e-01 0.000000e+00
9.870864e-01 7.971804e-01 0.000000e+00
9.917736e-01 7.503073e-01 0.000000e+00
9.539828e-01 7.932937e-01 0.000000e+00
9.584892e-01 7.482292e-01 0.000000e+00
9.682361e-01 8.182214e-01 0.000000e+00
9.774299e-01 7.262839e-01 0.000000e+00
1.000414e+00 4.964401e-01 0.000000e+00
1.015210e+00 5.159420e-01 0.000000e+00
1.019896e+00 4.690832e-01 0.000000e+00
9.810214e-01 5.229069e-01 0.000000e+00
9.855246e-01 4.778531e-01 0.000000e+00
9.912205e-01 5.883776e-01 0.000000e+00
1.005836e+00 6.096882e-01 0.000000e+00
1.010523e+00 5.628151e-01 0.000000e+00
9.720085e-01 6.130358e-01 0.000000e+00
9.765150e-01 5.679713e-01 0.000000e+00
9.866236e-01 6.343464e-01 0.000000e+00
9.958174e-01 5.424088e-01 0.000000e+00
1.009517e+00 4.044040e-01 0.000000e+00
1.024547e+00 4.221049e-01 0.000000e+00
1.028271e+00 3.751352e-01 0.000000e+00
9.899764e-01 4.327953e-01 0.000000e+00
9.938598e-01 3.878680e-01 0.000000e+00
1.005006e+00 4.504962e-01 0.000000e+00
1.012614e+00 3.585992e-01 0.000000e+00
8.410884e-01 1.704922e+00 0.000000e+00
8.300421e-01 1.673738e+00 0.000000e+00
8.184277e-01 1.719959e+00 0.000000e+00
8.723927e-01 1.716784e+00 0.000000e+00
8.612010e-01 1.685685e+00 0.000000e+00
8.484760e-01 1.733583e+00 0.000000e+00
9.036971e-01 1.728646e+00 0.000000e+00
8.928313e-01 1.697625e+00 0.000000e+00
8.788900e-01 1.747303e+00 0.000000e+00
9.249753e-01 1.709721e+00 0.000000e+00
9.097813e-01 1.761139e+00 0.000000e+00
9.336249e-01 1.659191e+00 0.000000e+00
9.141096e-01 1.678701e+00 0.000000e+00
9.392046e-01 1.607954e+00 0.000000e+00
9.204122e-01 1.627584e+00 0.000000e+00
9.443170e-01 1.556830e+00 0.000000e+00
9.256089e-01 1.576395e+00 0.000000e+00
9.494294e-01 1.505706e+00 0.000000e+00
9.307252e-01 1.525251e+00 0.000000e+00
9.545418e-01 1.454582e+00 0.000000e+00
9.358375e-01 1.474127e+00 0.000000e+00
9.596542e-01 1.403458e+00 0.000000e+00
9.409499e-01 1.423004e+00 0.000000e+00
9.647666e-01 1.352334e+00 0.000000e+00
9.460623e-01 1.371880e+00 0.000000e+00
9.698790e-01 1.301210e+00 0.000000e+00
9.511746e-01 1.320756e+00 0.000000e+00
9.749914e-01 1.250086e+00 0.000000e+00
9.562870e-01 1.269633e+00 0.000000e+00
9.801038e-01 1.198962e+00 0.000000e+00
9.613994e-01 1.218509e+00 0.000000e+00
9.852162e-01 1.147838e+00 0.000000e+00
9.665117e-01 1.167385e+00 0.000000e+00
9.903286e-01 1.096714e+00 0.000000e+00
9.716241e-01 1.116261e+00 0.000000e+00
9.767365e-01 1.065138e+00 0.000000e+00
8.934385e-01 1.060627e+00 0.000000e+00
9.121431e-01 1.041080e+00 0.000000e+00
8.883263e-01 1.111749e+00 0.000000e+00
9.070308e-01 1.092203e+00 0.000000e+00
8.832141e-01 1.162871e+00 0.000000e+00
9.019185e-01 1.143325e+00 0.000000e+00
8.781019e-01 1.213993e+00 0.000000e+00
8.968063e-01 1.194448e+00 0.000000e+00
8.729897e-01 1.265116e+00 0.000000e+00
8.916941e-01 1.245570e+00 0.000000e+00
8.678775e-01 1.316238e+00 0.000000e+00
8.865818e-01 1.296692e+00 0.000000e+00
8.627653e-01 1.367360e+00 0.000000e+00
8.814695e-01 1.347815e+00 0.000000e+00
8.576531e-01 1.418482e+00 0.000000e+00
8.763573e-01 1.398937e+00 0.000000e+00
8.525409e-01 1.469604e+00 0.000000e+00
8.712451e-01 1.450060e+00 0.000000e+00
8.474286e-01 1.520726e+00 0.000000e+00
8.661329e-01 1.501182e+00 0.000000e+00
8.423164e-01 1.571848e+00 0.000000e+00
8.610183e-01 1.552312e+00 0.000000e+00
8.372042e-01 1.622947e+00 0.000000e+00
8.558480e-01 1.603440e+00 0.000000e+00
8.501548e-01 1.654500e+00 0.000000e+00
9.137659e-01 1.359847e+00 0.000000e+00
9.273579e-01 1.391425e+00 0.000000e+00
9.324703e-01 1.340302e+00 0.000000e+00
8.950616e-01 1.379393e+00 0.000000e+00
9.001739e-01 1.328270e+00 0.000000e+00
8.933105e-01 1.564368e+00 0.000000e+00
9.068165e-01 1.596025e+00 0.000000e+00
9.120170e-01 1.544816e+00 0.000000e+00
8.745499e-01 1.583904e+00 0.000000e+00
8.797225e-01 1.532768e+00 0.000000e+00
8.816397e-01 1.666526e+00 0.000000e+00
9.008969e-01 1.647094e+00 0.000000e+00
8.687986e-01 1.634994e+00 0.000000e+00
8.880559e-01 1.615561e+00 0.000000e+00
9.035413e-01 1.462094e+00 0.000000e+00
9.171333e-01 1.493672e+00 0.000000e+00
9.222456e-01 1.442549e+00 0.000000e+00
8.848371e-01 1.481638e+00 0.000000e+00
8.899494e-01 1.430515e+00 0.000000e+00
8.984290e-01 1.513217e+00 0.000000e+00
9.086536e-01 1.410971e+00 0.000000e+00
9.291028e-01 1.206478e+00 0.000000e+00
9.426950e-01 1.238055e+00 0.000000e+00
9.478073e-01 1.186932e+00 0.000000e+00
9.103985e-01 1.226024e+00 0.000000e+00
9.155107e-01 1.174902e+00 0.000000e+00
9.188783e-01 1.308724e+00 0.000000e+00
9.375826e-01 1.289179e+00 0.000000e+00
9.052862e-01 1.277147e+00 0.000000e+00
9.239905e-01 1.257601e+00 0.000000e+00
9.393275e-01 1.104232e+00 0.000000e+00
9.529196e-01 1.135808e+00 0.000000e+00
9.580320e-01 1.084685e+00 0.000000e+00
9.206230e-01 1.123779e+00 0.000000e+00
9.257353e-01 1.072656e+00 0.000000e+00
9.342152e-01 1.155355e+00 0.000000e+00
9.444398e-01 1.053109e+00 0.000000e+00
2.500000e-02 2.060627e+00 0.000000e+00
-5.616035e-10 2.042655e+00 0.000000e+00
-5.616033e-10 2.078538e+00 0.000000e+00
7.500000e-02 2.059509e+00 0.000000e+00
4.994353e-02 2.041725e+00 0.000000e+00
4.941547e-02 2.077460e+00 0.000000e+00
1.250000e-01 2.058390e+00 0.000000e+00
9.992849e-02 2.040792e+00 0.000000e+00
9.880718e-02 2.076475e+00 0.000000e+00
1.750000e-01 2.057271e+00 0.000000e+00
1.499277e-01 2.039860e+00 0.000000e+00
1.481854e-01 2.075496e+00 0.000000e+00
2.250000e-01 2.056153e+00 0.000000e+00
1.999270e-01 2.038928e+00 0.000000e+00
1.975636e-01 2.074518e+00 0.000000e+00
2.750000e-01 2.055034e+00 0.000000e+00
2.499262e-01 2.037995e+00 0.000000e+00
2.469418e-01 2.073539e+00 0.000000e+00
3.250000e-01 2.053915e+00 0.000000e+00
2.999254e-01 2.037063e+00 0.000000e+00
2.963199e-01 2.072560e+00 0.000000e+00
3.750000e-01 2.052797e+00 0.000000e+00
3.499246e-01 2.036131e+00 0.000000e+00
3.456980e-01 2.071581e+00 0.000000e+00
4.250000e-01 2.051678e+00 0.000000e+00
3.999238e-01 2.035199e+00 0.000000e+00
3.950760e-01 2.070602e+00 0.000000e+00
4.750000e-01 2.050559e+00 0.000000e+00
4.499388e-01 2.034265e+00 0.000000e+00
4.444459e-01 2.069628e+00 0.000000e+00
5.000000e-01 2.033333e+00 0.000000e+00
5.275931e-01 2.048249e+00 0.000000e+00
4.937500e-01 2.068750e+00 0.000000e+00
5.000000e-01 2.000000e+00 0.000000e+00
4.749388e-01 2.017039e+00 0.000000e+00
5.258824e-01 2.014536e+00 0.000000e+00
5.000000e-01 1.966667e+00 0.000000e+00
4.749388e-01 1.983521e+00 0.000000e+00
5.239474e-01 1.981344e+00 0.000000e+00
4.750000e-01 1.950000e+00 0.000000e+00
5.223019e-01 1.948515e+00 0.000000e+00
4.250000e-01 1.950000e+00 0.000000e+00
4.499388e-01 1.966855e+00 0.000000e+00
3.750000e-01 1.950000e+00 0.000000e+00
3.999238e-01 1.967040e+00 0.000000e+00
3.250000e-01 1.950000e+00 0.000000e+00
3.499246e-01 1.967227e+00 0.000000e+00
2.750000e-01 1.950000e+00 0.000000e+00
2.999254e-01 1.967413e+00 0.000000e+00
2.250000e-01 1.950000e+00 0.000000e+00
2.499262e-01 1.967600e+00 0.000000e+00
1.750000e-01 1.950000e+00 0.000000e+00
1.999270e-01 1.967786e+00 0.000000e+00
1.250000e-01 1.950000e+00 0.000000e+00
1.499277e-01 1.967972e+00 0.000000e+00
7.500000e-02 1.950000e+00 0.000000e+00
9.992849e-02 1.968159e+00 0.000000e+00
2.500000e-02 1.950000e+00 0.000000e+00
4.994353e-02 1.968344e+00 0.000000e+00
-5.616037e-10 1.968531e+00 0.000000e+00
-5.616036e-10 2.005593e+00 0.000000e+00
2.494353e-02 1.986875e+00 0.000000e+00
2.494353e-02 2.023753e+00 0.000000e+00
2.498524e-01 2.002798e+00 0.000000e+00
2.748517e-01 1.985013e+00 0.000000e+00
2.248532e-01 1.985385e+00 0.000000e+00
2.748517e-01 2.020025e+00 0.000000e+00
2.248532e-01 2.020770e+00 0.000000e+00
3.998476e-01 2.001120e+00 0.000000e+00
4.248626e-01 1.983895e+00 0.000000e+00
3.748484e-01 1.984267e+00 0.000000e+00
4.248626e-01 2.017786e+00 0.000000e+00
3.748484e-01 2.018533e+00 0.000000e+00
4.498775e-01 2.000561e+00 0.000000e+00
3.498493e-01 2.001680e+00 0.000000e+00
3.248501e-01 1.984640e+00 0.000000e+00
3.248501e-01 2.019279e+00 0.000000e+00
2.998509e-01 2.002239e+00 0.000000e+00
1.498555e-01 2.003917e+00 0.000000e+00
1.748547e-01 1.985758e+00 0.000000e+00
1.248562e-01 1.986131e+00 0.000000e+00
1.748547e-01 2.021516e+00 0.000000e+00
1.248562e-01 2.022262e+00 0.000000e+00
1.998540e-01 2.003358e+00 0.000000e+00
9.985699e-02 2.004476e+00 0.000000e+00
7.487202e-02 1.986503e+00 0.000000e+00
7.487202e-02 2.023009e+00 0.000000e+00
4.988706e-02 2.005035e+00 0.000000e+00
5.828274e-01 2.041143e+00 0.000000e+00
5.534755e-01 2.029451e+00 0.000000e+00
6.372399e-01 2.026901e+00 0.000000e+00
6.065765e-01 2.019104e+00 0.000000e+00
6.893958e-01 2.005756e+00 0.000000e+00
6.580220e-01 2.001966e+00 0.000000e+00
7.383114e-01 1.978117e+00 0.000000e+00
7.068173e-01 1.978327e+00 0.000000e+00
7.832285e-01 1.944431e+00 0.000000e+00
7.521022e-01 1.948625e+00 0.000000e+00
8.235192e-01 1.905153e+00 0.000000e+00
7.932295e-01 1.913293e+00 0.000000e+00
8.584271e-01 1.861003e+00 0.000000e+00
8.295136e-01 1.872876e+00 0.000000e+00
8.873218e-01 1.812763e+00 0.000000e+00
8.602419e-01 1.828152e+00 0.000000e+00
8.849743e-01 1.779796e+00 0.000000e+00
8.016968e-01 1.760839e+00 0.000000e+00
8.258154e-01 1.748619e+00 0.000000e+00
7.797395e-01 1.799186e+00 0.000000e+00
8.052917e-01 1.790122e+00 0.000000e+00
7.529674e-01 1.834280e+00 0.000000e+00
7.795910e-01 1.828517e+00 0.000000e+00
7.217993e-01 1.865574e+00 0.000000e+00
7.491089e-01 1.863201e+00 0.000000e+00
6.868765e-01 1.892465e+00 0.000000e+00
7.143466e-01 1.893620e+00 0.000000e+00
6.489326e-01 1.914446e+00 0.000000e+00
6.760594e-01 1.919154e+00 0.000000e+00
6.085305e-01 1.931260e+00 0.000000e+00
6.348801e-01 1.939432e+00 0.000000e+00
5.661920e-01 1.942689e+00 0.000000e+00
5.914092e-01 1.954183e+00 0.000000e+00
5.462493e-01 1.963192e+00 0.000000e+00
7.329433e-01 1.920773e+00 0.000000e+00
7.206081e-01 1.948835e+00 0.000000e+00
7.621033e-01 1.917488e+00 0.000000e+00
7.035295e-01 1.920309e+00 0.000000e+00
7.416562e-01 1.891246e+00 0.000000e+00
5.988613e-01 1.986218e+00 0.000000e+00
5.772246e-01 2.007412e+00 0.000000e+00
6.273586e-01 1.994169e+00 0.000000e+00
5.714665e-01 1.974685e+00 0.000000e+00
6.177588e-01 1.962355e+00 0.000000e+00
5.498298e-01 1.995879e+00 0.000000e+00
6.462561e-01 1.970306e+00 0.000000e+00
6.754436e-01 1.974538e+00 0.000000e+00
6.620068e-01 1.944140e+00 0.000000e+00
6.911943e-01 1.948372e+00 0.000000e+00
8.041402e-01 1.850492e+00 0.000000e+00
7.992238e-01 1.881016e+00 0.000000e+00
8.313284e-01 1.840026e+00 0.000000e+00
7.757325e-01 1.857438e+00 0.000000e+00
8.051431e-01 1.819453e+00 0.000000e+00
7.708162e-01 1.887962e+00 0.000000e+00
8.323314e-01 1.808986e+00 0.000000e+00
8.578944e-01 1.795185e+00 0.000000e+00
8.294103e-01 1.777902e+00 0.000000e+00
8.549733e-01 1.764101e+00 0.000000e+00
2.250000e-02 2.200000e+00 0.000000e+00
-5.616030e-10 2.182648e+00 0.000000e+00
6.750000e-02 2.200000e+00 0.000000e+00
4.567270e-02 2.182404e+00 0.000000e+00
1.125000e-01 2.200000e+00 0.000000e+00
9.130742e-02 2.182260e+00 0.000000e+00
1.575000e-01 2.200000e+00 0.000000e+00
1.369358e-01 2.182120e+00 0.000000e+00
2.025000e-01 2.200000e+00 0.000000e+00
1.825642e-01 2.181980e+00 0.000000e+00
2.475000e-01 2.200000e+00 0.000000e+00
2.281924e-01 2.181840e+00 0.000000e+00
2.925000e-01 2.200000e+00 0.000000e+00
2.738207e-01 2.181700e+00 0.000000e+00
3.375000e-01 2.200000e+00 0.000000e+00
3.194489e-01 2.181560e+00 0.000000e+00
3.825000e-01 2.200000e+00 0.000000e+00
3.650770e-01 2.181420e+00 0.000000e+00
4.275000e-01 2.200000e+00 0.000000e+00
4.106899e-01 2.181287e+00 0.000000e+00
4.562500e-01 2.181250e+00 0.000000e+00
4.687500e-01 2.143750e+00 0.000000e+00
4.394399e-01 2.162537e+00 0.000000e+00
4.812500e-01 2.106250e+00 0.000000e+00
4.513276e-01 2.125152e+00 0.000000e+00
4.631959e-01 2.087818e+00 0.000000e+00
-5.616032e-10 2.113242e+00 0.000000e+00
2.441546e-02 2.095371e+00 0.000000e+00
-5.616031e-10 2.147945e+00 0.000000e+00
2.379718e-02 2.130186e+00 0.000000e+00
2.317270e-02 2.165052e+00 0.000000e+00
2.407683e-01 2.109502e+00 0.000000e+00
2.682617e-01 2.091065e+00 0.000000e+00
2.195054e-01 2.091904e+00 0.000000e+00
2.345189e-01 2.145600e+00 0.000000e+00
2.614071e-01 2.127240e+00 0.000000e+00
2.138987e-01 2.127800e+00 0.000000e+00
2.545131e-01 2.163540e+00 0.000000e+00
2.082566e-01 2.163820e+00 0.000000e+00
3.851649e-01 2.107404e+00 0.000000e+00
4.145219e-01 2.088552e+00 0.000000e+00
3.657740e-01 2.089386e+00 0.000000e+00
3.751659e-01 2.144341e+00 0.000000e+00
4.039164e-01 2.125572e+00 0.000000e+00
3.564236e-01 2.126121e+00 0.000000e+00
3.932669e-01 2.162707e+00 0.000000e+00
3.470259e-01 2.162981e+00 0.000000e+00
4.332734e-01 2.106720e+00 0.000000e+00
4.220175e-01 2.143938e+00 0.000000e+00
3.089154e-01 2.126681e+00 0.000000e+00
2.889006e-01 2.108803e+00 0.000000e+00
2.814013e-01 2.145180e+00 0.000000e+00
3.370328e-01 2.108104e+00 0.000000e+00
3.282837e-01 2.144761e+00 0.000000e+00
3.170179e-01 2.090226e+00 0.000000e+00
3.007696e-01 2.163260e+00 0.000000e+00
1.445034e-01 2.110900e+00 0.000000e+00
1.707491e-01 2.092743e+00 0.000000e+00
1.219926e-01 2.093582e+00 0.000000e+00
1.407537e-01 2.146439e+00 0.000000e+00
1.663902e-01 2.128359e+00 0.000000e+00
1.188815e-01 2.128918e+00 0.000000e+00
1.620000e-01 2.164099e+00 0.000000e+00
1.157432e-01 2.164379e+00 0.000000e+00
1.926359e-01 2.110201e+00 0.000000e+00
1.876364e-01 2.146019e+00 0.000000e+00
7.136073e-02 2.129488e+00 0.000000e+00
4.821264e-02 2.112316e+00 0.000000e+00
4.696988e-02 2.147293e+00 0.000000e+00
9.637073e-02 2.111600e+00 0.000000e+00
9.387098e-02 2.146858e+00 0.000000e+00
7.322264e-02 2.094427e+00 0.000000e+00
6.948013e-02 2.164663e+00 0.000000e+00
CELLS     259    2331
8      85      84      82      83     497     495     494     496
8       4      85      83       3     453     496     454     452
8      81      80      84      85     489     490     497     492
8       5      81      85       4     451     492     453     450
8      84       0       2      82     458     455     456     495
8      80       1       0      84     460     457     458     490
8      64      63       3      83     346     350     454     348
8      65      64      83      82     343     348     494     345
8      66      65      82       2     340     345     456     342
8      17      15      16      18     429     430     428     427
8      46      47      15      17     379     380     429     382
8      15      49      50      16     377     374     375     430
8      47      48      49      15     378     376     377     380
8      52      53      18      16     369     370     428     372
8      51      52      16      50     371     372     375     373
8      17      23      45      46     422     384     381     382
8      18      24      23      17     420     418     422     427
8      53      54      24      18     367     368     420     370
8      21      19      20      22     425     426     424     423
8      43      44      19      21     385     386     425     388
8      19      23      24      20     421     418     419     426
8      44      45      23      19     383     384     421     386
8      55      56      22      20     363     364     424     366
8      54      55      20      24     365     366     419     368
8      21      35      42      43     404     390     387     388
8      22      36      35      21     402     400     404     423
8      56      57      36      22     361     362     402     364
8      27      25      26      28     416     417     415     414
8      40      41      25      27     391     392     416     394
8      25      35      36      26     403     400     401     417
8      41      42      35      25     389     390     403     392
8      58      59      28      26     357     358     415     360
8      57      58      26      36     359     360     401     362
8      27      33      39      40     409     396     393     394
8      28      34      33      27     407     405     409     414
8      59      60      34      28     355     356     407     358
8      31      29      30      32     412     413     411     410
8      37      38      29      31     397     398     412     399
8      29      33      34      30     408     405     406     413
8      38      39      33      29     395     396     408     398
8      61      62      32      30     351     352     411     354
8      60      61      30      34     353     354     406     356
8      31      65      66      37     344     340     341     399
8      32      64      65      31     347     343     344     410
8      62      63      64      32     349     346     347     352
8       1      80      86      67     460     491     462     459
8      80      81      87      86     489     493     498     491
8      81       5       6      87     451     448     449     493
8      78      69      68      88     466     463     464     485
8      88      68      67      86     464     461     462     499
8       8      79      89       7     445     487     447     444
8      79      78      88      89     484     485     501     487
8       7      89      87       6     447     500     449     446
8      89      88      86      87     501     499     498     500
8      69      78      92      70     466     486     468     465
8      78      79      93      92     484     488     507     486
8      79       8       9      93     445     442     443     488
8      90      72      71      94     472     469     470     503
8      94      71      70      92     470     467     468     508
8      11      91      95      10     439     505     441     438
8      91      90      94      95     502     503     510     505
8      10      95      93       9     441     509     443     440
8      95      94      92      93     510     508     507     509
8      72      90      96      73     472     504     474     471
8      90      91      97      96     502     506     511     504
8      91      11      12      97     439     436     437     506
8      76      75      74      98     477     475     476     480
8      98      74      73      96     476     473     474     512
8      14      77      99      13     432     482     435     431
8      77      76      98      99     479     480     514     482
8      13      99      97      12     435     513     437     434
8      99      98      96      97     514     512     511     513
8     127     128     155     157     555     556     616     558
8     132     133     101     156     546     547     603     549
8     131     132     156     154     548     549     614     551
8     149     153     152     148     610     612     608     606
8     124     125     153     149     561     562     610     564
8     153     100     101     152     604     601     602     612
8     125     126     100     153     559     560     604     562
8     134     135     148     152     542     543     608     545
8     133     134     152     101     544     545     602     547
8     114     151     150     115     584     611     582     580
8     122     123     151     114     565     566     584     568
8     151     149     148     150     609     606     607     611
8     123     124     149     151     563     564     609     566
8     136     137     115     150     538     539     582     541
8     135     136     150     148     540     541     607     543
8     106     102     103     107     598     600     596     594
8     120     121     102     106     569     570     598     572
8     102     114     115     103     583     580     581     600
8     121     122     114     102     567     568     583     570
8     138     139     107     103     534     535     596     537
8     137     138     103     115     536     537     581     539
8     112     104     105     113     589     599     587     585
8     118     119     104     112     573     574     589     576
8     104     106     107     105     597     594     595     599
8     119     120     106     104     571     572     597     574
8     140     141     113     105     530     531     587     533
8     139     140     105     107     532     533     595     535
8     110     108     109     111     592     593     591     590
8     116     117     108     110     577     578     592     579
8     108     112     113     109     588     585     586     593
8     117     118     112     108     575     576     588     578
8     142     143     111     109     526     527     591     529
8     141     142     109     113     528     529     586     531
8     110     146     147     116     519     515     516     579
8     111     145     146     110     522     518     519     590
8     143     144     145     111     524     521     522     527
8     157     155     154     156     616     613     614     618
8     126     127     157     100     557     558     605     560
8     100     157     156     101     605     618     603     601
8      14     130     158      77     433     552     483     432
8     130     131     154     158     550     551     615     552
8     129      75      76     159     478     477     481     554
8     159      76      77     158     481     479     483     619
8     128     129     159     155     553     554     617     556
8     155     159     158     154     617     619     615     613
8     164     163     162     194     629     626     627     632
8     194     162     161     195     627     623     624     691
8     195     161     160     189     624     620     621     680
8     165     164     194     196     631     632     692     634
8     196     194     195     197     692     691     693     694
8     197     195     189     188     693     680     678     679
8     166     165     196     192     633     634     687     636
8     192     196     197     193     687     694     689     686
8     193     197     188     187     689     679     676     677
8     168     167     200     198     637     638     696     640
8     167     166     192     200     635     636     688     638
8     186     185     199     201     672     673     698     675
8     201     199     198     200     698     695     696     700
8     187     186     201     193     674     675     690     677
8     193     201     200     192     690     700     688     686
8     170     169     202     190     641     642     682     644
8     169     168     198     202     639     640     697     642
8     184     183     191     203     668     669     684     671
8     203     191     190     202     684     681     682     701
8     185     184     203     199     670     671     699     673
8     199     203     202     198     699     701     697     695
8     171     170     190     206     643     644     683     646
8     206     190     191     207     683     681     685     707
8     207     191     183     182     685     669     666     667
8     173     172     208     204     647     648     703     650
8     172     171     206     208     645     646     708     648
8     181     180     205     209     662     663     705     665
8     209     205     204     208     705     702     703     710
8     182     181     209     207     664     665     709     667
8     207     209     208     206     709     710     708     707
8     175     174     212     210     651     652     712     654
8     174     173     204     212     649     650     704     652
8     179     178     211     213     658     659     714     661
8     213     211     210     212     714     711     712     716
8     180     179     213     205     660     661     706     663
8     205     213     212     204     706     716     704     702
8     144     176     214     145     525     655     523     521
8     176     175     210     214     653     654     713     655
8     177     147     146     215     517     515     520     657
8     215     146     145     214     520     518     523     717
8     178     177     215     211     656     657     715     659
8     211     215     214     210     715     717     713     711
8     244     231     230     246     762     759     760     787
8     246     230     229     228     760     757     754     755
8     224     245     247     225     743     789     746     742
8     245     244     246     247     786     787     791     789
8     225     247     227     226     746     752     748     745
8     247     246     228     227     791     755     751     752
8     231     244     248     232     762     788     764     761
8     244     245     249     248     786     790     792     788
8     245     224     223     249     743     739     740     790
8     242     234     233     250     768     765     766     782
8     250     233     232     248     766     763     764     793
8     221     243     251     222     734     784     737     733
8     243     242     250     251     781     782     795     784
8     222     251     249     223     737     794     740     736
8     251     250     248     249     795     793     792     794
8     252     236     235     254     772     769     770     797
8     254     235     234     242     770     767     768     783
8     219     253     255     220     728     799     731     727
8     253     252     254     255     796     797     801     799
8     220     255     243     221     731     785     734     730
8     255     254     242     243     801     783     781     785
8     236     252     256     237     772     798     774     771
8     252     253     257     256     796     800     802     798
8     253     219     218     257     728     724     725     800
8     240     239     238     258     777     775     776     779
8     258     238     237     256     776     773     774     803
8     216     241     259     217     719     780     722     718
8     241     240     258     259     778     779     805     780
8     217     259     257     218     722     804     725     721
8     259     258     256     257     805     803     802     804
8     261     260     282     280     806     807     846     809
8     260     226     227     282     749     748     753     807
8     277     276     281     283     837     838     848     839
8     283     281     280     282     848     845     846     850
8     229     277     283     228     758     839     756     754
8     228     283     282     227     756     850     753     751
8     262     261     280     284     808     809     847     811
8     284     280     281     285     847     845     849     851
8     285     281     276     275     849     838     835     836
8     264     263     286     278     812     813     841     815
8     263     262     284     286     810     811     852     813
8     274     273     279     287     831     832     843     834
8     287     279     278     286     843     840     841     854
8     275     274     287     285     833     834     853     836
8     285     287     286     284     853     854     852     851
8     266     265     290     288     816     817     856     819
8     265     264     278     290     814     815     842     817
8     272     271     289     291     827     828     858     830
8     291     289     288     290     858     855     856     860
8     273     272     291     279     829     830     844     832
8     279     291     290     278     844     860     842     840
8     267     266     288     292     818     819     857     821
8     292     288     289     293     857     855     859     861
8     293     289     271     270     859     828     825     826
8     163     268     294     162     630     822     628     626
8     268     267     292     294     820     821     862     822
8     269     160     161     295     622     620     625     824
8     295     161     162     294     625     623     628     864
8     270     269     295     293     823     824     863     826
8     293     295     294     292     863     864     862     861
8     319     317     316     320     908     904     905     912
8     320     316     224     225     905     744     742     747
8     308     319     320     309     889     912     890     888
8     309     320     225     226     890     747     745     750
8     305     304     318     321     881     882     910     884
8     321     318     317     319     910     907     908     913
8     306     305     321     307     883     884     887     885
8     307     321     319     308     887     913     889     886
8     322     314     313     324     900     896     897     915
8     324     313     221     222     897     735     733     738
8     323     322     324     325     914     915     919     917
8     325     324     222     223     919     738     736     741
8     317     323     325     316     909     917     906     904
8     316     325     223     224     906     741     739     744
8     302     301     315     326     875     876     902     878
8     326     315     314     322     902     899     900     916
8     303     302     326     327     877     878     920     880
8     327     326     322     323     920     916     914     918
8     304     303     327     318     879     880     911     882
8     318     327     323     317     911     918     909     907
8     331     329     328     332     925     921     922     929
8     332     328     219     220     922     729     727     732
8     314     331     332     313     901     929     898     896
8     313     332     220     221     898     732     730     735
8     300     299     330     333     871     872     927     874
8     333     330     329     331     927     924     925     930
8     301     300     333     315     873     874     903     876
8     315     333     331     314     903     930     901     899
8     334     311     310     336     894     891     892     932
8     336     310     216     217     892     720     718     723
8     335     334     336     337     931     932     936     934
8     337     336     217     218     936     723     721     726
8     329     335     337     328     926     934     923     921
8     328     337     218     219     923     726     724     729
8     297     296     312     338     865     866     895     868
8     338     312     311     334     895     893     894     933
8     298     297     338     339     867     868     937     870
8     339     338     334     335     937     933     931     935
8     299     298     339     330     869     870     928     872
8     330     339     335     329     928     935     926     924
CELL_TYPES     259
23
23
23
23
23
23
23
23
23
23
23
23
23
23
23
23
23
23
23
23
23
23
23
23
23
23
23
23
23
23
23
23
23
23
23
23
23
23
23
23
23
23
23
23
23
23
23
23
23
23
23
23
23
23
23
23
23
23
23
23
23
23
23
23
23
23
23
23
23
23
23
23
23
23
23
23
23
23
23
23
23
23
23
23
23
23
23
23
23
23
23
23
23
23
23
23
23
23
23
23
23
23
23
23
23
23
23
23
23
23
23
23
23
23
23
23
23
23
23
23
23
23
23
23
23
23
23
23
23
23
23
23
23
23
23
23
23
23
23
23
23
23
23
23
23
23
23
23
23
23
23
23
23
23
23
23
23
23
23
23
23
23
23
23
23
23
23
23
23
23
23
23
23
23
23
23
23
23
23
23
23
23
23
23
23
23
23
23
23
23
23
23
23
23
23
23
23
23
23
23
23
23
23
23
23
23
23
23
23
23
23
23
23
23
23
23
23
23
23
23
23
23
23
23
23
23
23
23
23
23
23
23
23
23
23
23
23
23
23
23
23
23
23
23
23
23
23
23
23
23
23
23
23
23
23
23
23
23
23
POINT_DATA     938
VECTORS DISPLACEMENT_2.000000e-01 double
7.260916e-09    6.077309e-08    0.000000e+00
7.893871e-09    5.730599e-08    0.000000e+00
6.644374e-09    6.432159e-08    0.000000e+00
-2.435237e-09    6.144474e-08    0.000000e+00
-1.457252e-09    5.728608e-08    0.000000e+00
-3.848838e-10    5.327432e-08    0.000000e+00
7.705927e-10    4.944826e-08    0.000000e+00
1.995339e-09    4.585212e-08    0.000000e+00
3.271383e-09    4.253735e-08    0.000000e+00
4.576228e-09    3.956459e-08    0.000000e+00
5.880362e-09    3.700338e-08    0.000000e+00
7.148069e-09    3.494343e-08    0.000000e+00
8.297336e-09    3.352399e-08    0.000000e+00
9.101073e-09    3.277635e-08    0.000000e+00
9.813130e-09    3.248755e-08    0.000000e+00
-3.659484e-11    1.115322e-07    0.000000e+00
-7.302044e-10    1.112956e-07    0.000000e+00
-1.377025e-10    1.095513e-07    0.000000e+00
-1.509465e-09    1.092151e-07    0.000000e+00
-2.540429e-10    1.033280e-07    0.000000e+00
-2.545344e-09    1.028929e-07    0.000000e+00
-2.075820e-10    9.943761e-08    0.000000e+00
-2.802445e-09    9.895309e-08    0.000000e+00
-2.233005e-10    1.067502e-07    0.000000e+00
-2.113483e-09    1.063621e-07    0.000000e+00
1.692036e-10    9.073962e-08    0.000000e+00
-2.803168e-09    9.016265e-08    0.000000e+00
5.129778e-10    8.611641e-08    0.000000e+00
-2.560512e-09    8.549842e-08    0.000000e+00
1.515083e-09    7.666215e-08    0.000000e+00
-1.635146e-09    7.597393e-08    0.000000e+00
2.165758e-09    7.192981e-08    0.000000e+00
-9.733814e-10    7.121384e-08    0.000000e+00
9.623589e-10    8.140558e-08    0.000000e+00
-2.167845e-09    8.075048e-08    0.000000e+00
-6.955070e-11    9.520776e-08    0.000000e+00
-2.886485e-09    9.467552e-08    0.000000e+00
5.357928e-09    7.257458e-08    0.000000e+00
4.725593e-09    7.725877e-08    0.000000e+00
4.161559e-09    8.194944e-08    0.000000e+00
3.665172e-09    8.660167e-08    0.000000e+00
3.231117e-09    9.115775e-08    0.000000e+00
2.848435e-09    9.554873e-08    0.000000e+00
2.499799e-09    9.969208e-08    0.000000e+00
2.160500e-09    1.034868e-07    0.000000e+00
1.796264e-09    1.068107e-07    0.000000e+00
1.356799e-09    1.095141e-07    0.000000e+00
7.635207e-10    1.113847e-07    0.000000e+00
9.398301e-12    1.120750e-07    0.000000e+00
-1.642287e-11    1.124071e-07    0.000000e+00
2.603588e-11    1.126157e-07    0.000000e+00
-6.064086e-10    1.141094e-07    0.000000e+00
-1.665237e-09    1.108680e-07    0.000000e+00
-3.024816e-09    1.086258e-07    0.000000e+00
-4.100898e-09    1.057230e-07    0.000000e+00
-4.910490e-09    1.022276e-07    0.000000e+00
-5.451762e-09    9.826979e-08    0.000000e+00
-5.744001e-09    9.397374e-08    0.000000e+00
-5.805874e-09    8.944231e-08    0.000000e+00
-5.657108e-09    8.475979e-08    0.000000e+00
-5.316504e-09    7.999448e-08    0.000000e+00
-4.801460e-09    7.520190e-08    0.000000e+00
-4.127666e-09    7.042812e-08    0.000000e+00
-3.308781e-09    6.571359e-08    0.000000e+00
-2.053372e-10    6.650391e-08    0.000000e+00
2.894778e-09    6.724420e-08    0.000000e+00
6.054903e-09    6.793470e-08    0.000000e+00
8.530221e-09    5.393905e-08    0.000000e+00
9.153860e-09    5.069319e-08    0.000000e+00
9.745258e-09    4.759203e-08    0.000000e+00
1.028096e-08    4.466255e-08    0.000000e+00
1.073322e-08    4.193537e-08    0.000000e+00
1.107125e-08    3.944595e-08    0.000000e+00
1.125430e-08    3.722895e-08    0.000000e+00
1.132512e-08    3.528687e-08    0.000000e+00
1.092431e-08    3.348754e-08    0.000000e+00
1.063982e-08    3.308536e-08    0.000000e+00
1.020532e-08    3.279337e-08    0.000000e+00
7.464414e-09    4.578370e-08    0.000000e+00
5.340675e-09    4.410627e-08    0.000000e+00
5.055906e-09    5.594203e-08    0.000000e+00
2.322547e-09    5.460162e-08    0.000000e+00
3.550300e-09    6.338650e-08    0.000000e+00
5.473593e-10    6.243033e-08    0.000000e+00
4.282726e-09    5.961475e-08    0.000000e+00
1.401361e-09    5.845464e-08    0.000000e+00
5.855261e-09    5.239381e-08    0.000000e+00
3.297090e-09    5.090157e-08    0.000000e+00
6.664719e-09    4.899729e-08    0.000000e+00
4.309566e-09    4.738961e-08    0.000000e+00
9.538380e-09    3.763922e-08    0.000000e+00
8.267755e-09    3.614523e-08    0.000000e+00
8.230478e-09    4.278919e-08    0.000000e+00
6.366379e-09    4.109855e-08    0.000000e+00
8.932171e-09    4.005372e-08    0.000000e+00
7.356048e-09    3.841931e-08    0.000000e+00
1.000036e-08    3.556780e-08    0.000000e+00
9.072659e-09    3.435427e-08    0.000000e+00
1.040134e-08    3.399452e-08    0.000000e+00
9.732369e-09    3.324458e-08    0.000000e+00
8.093282e-09    3.139681e-08    0.000000e+00
8.262619e-09    3.219534e-08    0.000000e+00
2.949983e-09    2.989657e-08    0.000000e+00
2.944662e-09    3.047806e-08    0.000000e+00
1.681123e-09    2.950760e-08    0.000000e+00
1.654508e-09    2.989269e-08    0.000000e+00
2.250851e-09    2.969204e-08    0.000000e+00
2.230351e-09    3.017394e-08    0.000000e+00
8.930204e-10    2.918242e-08    0.000000e+00
8.755755e-10    2.939463e-08    0.000000e+00
6.509681e-10    2.903522e-08    0.000000e+00
6.457093e-10    2.917309e-08    0.000000e+00
1.232328e-09    2.933893e-08    0.000000e+00
1.207261e-09    2.963357e-08    0.000000e+00
3.781362e-09    3.012607e-08    0.000000e+00
3.801011e-09    3.080396e-08    0.000000e+00
6.819649e-10    2.888140e-08    0.000000e+00
9.379592e-10    2.895714e-08    0.000000e+00
1.286448e-09    2.903437e-08    0.000000e+00
1.738023e-09    2.911595e-08    0.000000e+00
2.302211e-09    2.920664e-08    0.000000e+00
2.985670e-09    2.931328e-08    0.000000e+00
3.789972e-09    2.944507e-08    0.000000e+00
4.708932e-09    2.961365e-08    0.000000e+00
5.725522e-09    2.983323e-08    0.000000e+00
6.808364e-09    3.012031e-08    0.000000e+00
7.907564e-09    3.049405e-08    0.000000e+00
8.952290e-09    3.097193e-08    0.000000e+00
9.839958e-09    3.158329e-08    0.000000e+00
1.052226e-08    3.228425e-08    0.000000e+00
1.030164e-08    3.266261e-08    0.000000e+00
1.018288e-08    3.297249e-08    0.000000e+00
9.446425e-09    3.309967e-08    0.000000e+00
8.386572e-09    3.298051e-08    0.000000e+00
7.197924e-09    3.271127e-08    0.000000e+00
5.996957e-09    3.234607e-08    0.000000e+00
4.862795e-09    3.192944e-08    0.000000e+00
3.844278e-09    3.149384e-08    0.000000e+00
2.966838e-09    3.106218e-08    0.000000e+00
2.238759e-09    3.064936e-08    0.000000e+00
1.656576e-09    3.026379e-08    0.000000e+00
1.209652e-09    2.990886e-08    0.000000e+00
8.838817e-10    2.958425e-08    0.000000e+00
6.645710e-10    2.928704e-08    0.000000e+00
5.385822e-10    2.901266e-08    0.000000e+00
5.050417e-10    2.896572e-08    0.000000e+00
4.944725e-10    2.889458e-08    0.000000e+00
5.082234e-10    2.880584e-08    0.000000e+00
5.898747e-09    3.150299e-08    0.000000e+00
5.804223e-09    3.068105e-08    0.000000e+00
4.792801e-09    3.114795e-08    0.000000e+00
4.738986e-09    3.038578e-08    0.000000e+00
7.077514e-09    3.185751e-08    0.000000e+00
6.941488e-09    3.101633e-08    0.000000e+00
1.021542e-08    3.272061e-08    0.000000e+00
1.007391e-08    3.230307e-08    0.000000e+00
9.353399e-09    3.249265e-08    0.000000e+00
9.175356e-09    3.181921e-08    0.000000e+00
1.057920e-08    3.279927e-08    0.000000e+00
1.066558e-08    3.275958e-08    0.000000e+00
7.255338e-09    2.693996e-08    0.000000e+00
7.381130e-09    2.670512e-08    0.000000e+00
7.402554e-09    2.652993e-08    0.000000e+00
7.371181e-09    2.632477e-08    0.000000e+00
6.894975e-09    2.621343e-08    0.000000e+00
6.143369e-09    2.621703e-08    0.000000e+00
5.257948e-09    2.632120e-08    0.000000e+00
4.352889e-09    2.649692e-08    0.000000e+00
3.503125e-09    2.671750e-08    0.000000e+00
2.749467e-09    2.696307e-08    0.000000e+00
2.110256e-09    2.721961e-08    0.000000e+00
1.588946e-09    2.747816e-08    0.000000e+00
1.180218e-09    2.773400e-08    0.000000e+00
8.747996e-10    2.798589e-08    0.000000e+00
6.631033e-10    2.823534e-08    0.000000e+00
5.378385e-10    2.848598e-08    0.000000e+00
4.957506e-10    2.874303e-08    0.000000e+00
3.969577e-10    2.871677e-08    0.000000e+00
3.777743e-10    2.862962e-08    0.000000e+00
4.451759e-10    2.854721e-08    0.000000e+00
5.990848e-10    2.847271e-08    0.000000e+00
8.443698e-10    2.840872e-08    0.000000e+00
1.189646e-09    2.835634e-08    0.000000e+00
1.645229e-09    2.831392e-08    0.000000e+00
2.220148e-09    2.827578e-08    0.000000e+00
2.918021e-09    2.823067e-08    0.000000e+00
3.731712e-09    2.816017e-08    0.000000e+00
4.636482e-09    2.803672e-08    0.000000e+00
5.583228e-09    2.782380e-08    0.000000e+00
6.495043e-09    2.746417e-08    0.000000e+00
1.931803e-09    2.760376e-08    0.000000e+00
1.776472e-09    2.796861e-08    0.000000e+00
5.058368e-09    2.689381e-08    0.000000e+00
4.849602e-09    2.744833e-08    0.000000e+00
6.818883e-09    2.661519e-08    0.000000e+00
6.691759e-09    2.699894e-08    0.000000e+00
5.990986e-09    2.673807e-08    0.000000e+00
5.800877e-09    2.724749e-08    0.000000e+00
3.290336e-09    2.723861e-08    0.000000e+00
3.094690e-09    2.773741e-08    0.000000e+00
4.137095e-09    2.706250e-08    0.000000e+00
3.929219e-09    2.760627e-08    0.000000e+00
2.550884e-09    2.741970e-08    0.000000e+00
2.374000e-09    2.785517e-08    0.000000e+00
7.625671e-10    2.816501e-08    0.000000e+00
6.704738e-10    2.832856e-08    0.000000e+00
1.432906e-09    2.778954e-08    0.000000e+00
1.299569e-09    2.808348e-08    0.000000e+00
1.046627e-09    2.797653e-08    0.000000e+00
9.344838e-10    2.820298e-08    0.000000e+00
4.647676e-10    2.855137e-08    0.000000e+00
4.111385e-10    2.859895e-08    0.000000e+00
5.708996e-10    2.835603e-08    0.000000e+00
4.980405e-10    2.846059e-08    0.000000e+00
4.418289e-10    2.875356e-08    0.000000e+00
4.085434e-10    2.874352e-08    0.000000e+00
-1.120430e-13    -9.328200e-11    0.000000e+00
-1.254305e-11    -1.002691e-10    0.000000e+00
-2.769981e-11    -1.195728e-10    0.000000e+00
-4.865267e-11    -1.492016e-10    0.000000e+00
-7.953276e-11    -1.830678e-10    0.000000e+00
-1.266558e-10    -2.064341e-10    0.000000e+00
-2.016921e-10    -1.870908e-10    0.000000e+00
-3.260052e-10    -6.383199e-11    0.000000e+00
-5.520348e-10    2.815679e-10    0.000000e+00
-9.004921e-10    1.016331e-09    0.000000e+00
-1.739252e-09    2.526925e-09    0.000000e+00
-6.101963e-10    2.740493e-09    0.000000e+00
9.453135e-10    2.888545e-09    0.000000e+00
2.717428e-09    3.135963e-09    0.000000e+00
1.672834e-09    1.142767e-09    0.000000e+00
9.372970e-10    2.826456e-10    0.000000e+00
5.013619e-10    -6.549666e-11    0.000000e+00
2.499368e-10    -1.930664e-10    0.000000e+00
1.066033e-10    -2.209140e-10    0.000000e+00
3.047215e-11    -2.056763e-10    0.000000e+00
-4.155263e-12    -1.768769e-10    0.000000e+00
-1.390615e-11    -1.497299e-10    0.000000e+00
-9.942448e-12    -1.314914e-10    0.000000e+00
3.759643e-13    -1.253699e-10    0.000000e+00
1.961828e-13    -1.194752e-10    0.000000e+00
5.176646e-14    -1.104900e-10    0.000000e+00
6.430143e-11    -2.493507e-10    0.000000e+00
-2.961802e-11    -2.460607e-10    0.000000e+00
4.297332e-10    1.515355e-10    0.000000e+00
-1.513612e-10    1.652207e-10    0.000000e+00
6.540030e-10    9.278317e-10    0.000000e+00
-3.490097e-10    9.096917e-10    0.000000e+00
2.600884e-10    -1.473938e-10    0.000000e+00
-6.343215e-11    -1.419631e-10    0.000000e+00
1.403503e-10    -2.433751e-10    0.000000e+00
-3.734610e-11    -2.410399e-10    0.000000e+00
-4.493501e-13    -1.810193e-10    0.000000e+00
-2.112685e-11    -1.737942e-10    0.000000e+00
2.061054e-11    -2.193825e-10    0.000000e+00
-2.585847e-11    -2.138600e-10    0.000000e+00
-7.077815e-12    -1.480818e-10    0.000000e+00
-1.493398e-11    -1.398629e-10    0.000000e+00
-5.384810e-12    -1.267773e-10    0.000000e+00
-7.711078e-12    -1.180677e-10    0.000000e+00
-3.327582e-09    7.166159e-09    0.000000e+00
-3.072474e-09    1.197292e-08    0.000000e+00
-1.826156e-09    1.650474e-08    0.000000e+00
1.017263e-10    2.029455e-08    0.000000e+00
2.249965e-09    2.312014e-08    0.000000e+00
4.270389e-09    2.498689e-08    0.000000e+00
5.900067e-09    2.602634e-08    0.000000e+00
6.977398e-09    2.644095e-08    0.000000e+00
7.456614e-09    2.646676e-08    0.000000e+00
7.685347e-09    2.630365e-08    0.000000e+00
7.844176e-09    2.540818e-08    0.000000e+00
7.714867e-09    2.413952e-08    0.000000e+00
7.317573e-09    2.238633e-08    0.000000e+00
6.706656e-09    2.005870e-08    0.000000e+00
5.971192e-09    1.715209e-08    0.000000e+00
5.197845e-09    1.373397e-08    0.000000e+00
4.436021e-09    9.978688e-09    0.000000e+00
3.641859e-09    6.228438e-09    0.000000e+00
3.852201e-09    2.212297e-08    0.000000e+00
5.324288e-09    2.113025e-08    0.000000e+00
-4.649878e-10    1.121403e-08    0.000000e+00
1.909053e-09    1.055269e-08    0.000000e+00
-8.508553e-10    6.732116e-09    0.000000e+00
1.306691e-09    6.343138e-09    0.000000e+00
6.178719e-10    1.554019e-08    0.000000e+00
2.875916e-09    1.465129e-08    0.000000e+00
2.165250e-09    1.924642e-08    0.000000e+00
4.079494e-09    1.823777e-08    0.000000e+00
6.619621e-09    2.542022e-08    0.000000e+00
7.241933e-09    2.479044e-08    0.000000e+00
5.405777e-09    2.414739e-08    0.000000e+00
6.426641e-09    2.329203e-08    0.000000e+00
7.372893e-09    2.611291e-08    0.000000e+00
7.682776e-09    2.575548e-08    0.000000e+00
7.624797e-09    2.642153e-08    0.000000e+00
7.720803e-09    2.634462e-08    0.000000e+00
0.000000e+00    0.000000e+00    0.000000e+00
0.000000e+00    0.000000e+00    0.000000e+00
0.000000e+00    0.000000e+00    0.000000e+00
0.000000e+00    0.000000e+00    0.000000e+00
0.000000e+00    0.000000e+00    0.000000e+00
0.000000e+00    0.000000e+00    0.000000e+00
0.000000e+00    0.000000e+00    0.000000e+00
0.000000e+00    0.000000e+00    0.000000e+00
0.000000e+00    0.000000e+00    0.000000e+00
0.000000e+00    0.000000e+00    0.000000e+00
0.000000e+00    0.000000e+00    0.000000e+00
-1.978797e-10    3.749528e-10    0.000000e+00
-4.760686e-10    8.090800e-10    0.000000e+00
-8.046289e-10    1.308242e-09    0.000000e+00
-2.041036e-13    -6.989285e-11    0.000000e+00
-2.021625e-13    -4.316159e-11    0.000000e+00
-1.060623e-13    -1.829128e-11    0.000000e+00
-1.777863e-10    -1.419809e-10    0.000000e+00
-1.695694e-10    -7.433847e-11    0.000000e+00
-1.050947e-10    -2.192855e-11    0.000000e+00
-6.208964e-10    2.703805e-10    0.000000e+00
-5.040570e-10    2.106141e-10    0.000000e+00
-2.965837e-10    1.082473e-10    0.000000e+00
-5.717029e-10    5.225777e-10    0.000000e+00
-7.855564e-10    7.597170e-10    0.000000e+00
-2.983320e-10    2.373820e-10    0.000000e+00
-2.630428e-10    -5.013109e-11    0.000000e+00
-3.798814e-10    2.915238e-11    0.000000e+00
-2.802599e-10    -1.166591e-10    0.000000e+00
-4.215381e-10    -6.716676e-12    0.000000e+00
-1.629770e-10    -6.661239e-12    0.000000e+00
-2.334311e-10    3.187116e-11    0.000000e+00
-6.400901e-11    -1.087280e-10    0.000000e+00
-6.011369e-11    -6.347882e-11    0.000000e+00
-3.646439e-11    -2.411987e-11    0.000000e+00
-1.038440e-10    -7.315384e-11    0.000000e+00
-1.092077e-10    -1.305643e-10    0.000000e+00
-6.377854e-11    -2.546373e-11    0.000000e+00
-1.377138e-11    -4.611784e-11    0.000000e+00
-3.211521e-11    -5.327825e-11    0.000000e+00
-1.515633e-11    -7.504760e-11    0.000000e+00
-3.478441e-11    -8.852934e-11    0.000000e+00
-8.129817e-12    -1.933850e-11    0.000000e+00
-1.920154e-11    -2.148759e-11    0.000000e+00
4.463304e-09    6.759452e-08    0.000000e+00
5.711369e-09    7.025085e-08    0.000000e+00
6.353478e-09    6.612365e-08    0.000000e+00
1.341281e-09    6.688075e-08    0.000000e+00
2.531720e-09    6.958129e-08    0.000000e+00
3.224310e-09    6.530862e-08    0.000000e+00
-1.753365e-09    6.611700e-08    0.000000e+00
-5.917555e-10    6.885589e-08    0.000000e+00
1.698498e-10    6.446197e-08    0.000000e+00
-3.721472e-09    6.805452e-08    0.000000e+00
-2.873528e-09    6.356233e-08    0.000000e+00
-4.469359e-09    7.280254e-08    0.000000e+00
-2.546621e-09    7.083102e-08    0.000000e+00
-5.065570e-09    7.758973e-08    0.000000e+00
-3.213964e-09    7.559986e-08    0.000000e+00
-5.495523e-09    8.237340e-08    0.000000e+00
-3.736853e-09    8.038666e-08    0.000000e+00
-5.742666e-09    8.710300e-08    0.000000e+00
-4.102018e-09    8.514591e-08    0.000000e+00
-5.788857e-09    9.171685e-08    0.000000e+00
-4.295714e-09    8.982235e-08    0.000000e+00
-5.614771e-09    9.613876e-08    0.000000e+00
-4.303776e-09    9.434810e-08    0.000000e+00
-5.200932e-09    1.002745e-07    0.000000e+00
-4.112368e-09    9.863910e-08    0.000000e+00
-4.528394e-09    1.040100e-07    0.000000e+00
-3.708549e-09    1.025926e-07    0.000000e+00
-3.584623e-09    1.072067e-07    0.000000e+00
-3.083957e-09    1.060808e-07    0.000000e+00
-2.366436e-09    1.097325e-07    0.000000e+00
-2.230964e-09    1.089619e-07    0.000000e+00
-9.804610e-10    1.117168e-07    0.000000e+00
-1.166305e-09    1.111435e-07    0.000000e+00
1.317145e-10    1.133829e-07    0.000000e+00
2.210542e-11    1.125034e-07    0.000000e+00
-3.491155e-10    1.121136e-07    0.000000e+00
-1.111006e-11    1.122856e-07    0.000000e+00
2.261990e-12    1.121174e-07    0.000000e+00
4.026145e-10    1.118793e-07    0.000000e+00
1.088988e-09    1.105729e-07    0.000000e+00
3.314081e-10    1.115169e-07    0.000000e+00
1.598056e-09    1.082530e-07    0.000000e+00
5.729791e-10    1.095822e-07    0.000000e+00
1.993707e-09    1.052180e-07    0.000000e+00
7.533836e-10    1.068212e-07    0.000000e+00
2.341576e-09    1.016419e-07    0.000000e+00
9.235154e-10    1.034408e-07    0.000000e+00
2.682830e-09    9.765912e-08    0.000000e+00
1.119631e-09    9.959221e-08    0.000000e+00
3.046523e-09    9.338081e-08    0.000000e+00
1.366007e-09    9.540055e-08    0.000000e+00
3.453539e-09    8.889827e-08    0.000000e+00
1.679525e-09    9.096680e-08    0.000000e+00
3.917930e-09    8.428683e-08    0.000000e+00
2.070954e-09    8.637367e-08    0.000000e+00
4.447801e-09    7.960944e-08    0.000000e+00
2.546037e-09    8.168925e-08    0.000000e+00
5.046116e-09    7.491706e-08    0.000000e+00
3.106277e-09    7.696972e-08    0.000000e+00
3.749339e-09    7.225931e-08    0.000000e+00
-1.483485e-09    9.496458e-08    0.000000e+00
-2.854259e-09    9.245078e-08    0.000000e+00
-2.855490e-09    9.685841e-08    0.000000e+00
4.843798e-11    9.299853e-08    0.000000e+00
-1.399113e-10    9.735835e-08    0.000000e+00
-6.077826e-10    8.109115e-08    0.000000e+00
-1.906414e-09    7.836956e-08    0.000000e+00
-2.370508e-09    8.313827e-08    0.000000e+00
1.238545e-09    7.903707e-08    0.000000e+00
7.369075e-10    8.376996e-08    0.000000e+00
5.920505e-10    7.158045e-08    0.000000e+00
-1.307860e-09    7.359582e-08    0.000000e+00
1.841000e-09    7.429439e-08    0.000000e+00
-6.465632e-11    7.632876e-08    0.000000e+00
-1.029113e-09    8.582331e-08    0.000000e+00
-2.689683e-09    8.785231e-08    0.000000e+00
3.399142e-10    8.844407e-08    0.000000e+00
-1.322489e-09    9.047027e-08    0.000000e+00
-1.171411e-09    1.065941e-07    0.000000e+00
-2.343317e-09    1.047064e-07    0.000000e+00
-1.827608e-09    1.078913e-07    0.000000e+00
-2.389707e-10    1.051033e-07    0.000000e+00
-1.797560e-10    1.082331e-07    0.000000e+00
-1.510173e-09    9.922269e-08    0.000000e+00
-2.686494e-09    1.009826e-07    0.000000e+00
-2.317467e-10    1.014316e-07    0.000000e+00
-1.404090e-09    1.031429e-07    0.000000e+00
-8.217841e-10    1.094276e-07    0.000000e+00
-1.132728e-09    1.103886e-07    0.000000e+00
-8.354478e-11    1.106503e-07    0.000000e+00
-3.809414e-10    1.114620e-07    0.000000e+00
9.507395e-09    3.259997e-08    0.000000e+00
1.000455e-08    3.264574e-08    0.000000e+00
1.013166e-08    3.255065e-08    0.000000e+00
8.755869e-09    3.309075e-08    0.000000e+00
9.395930e-09    3.299160e-08    0.000000e+00
7.758791e-09    3.414142e-08    0.000000e+00
8.660996e-09    3.389070e-08    0.000000e+00
6.529646e-09    3.590311e-08    0.000000e+00
7.699029e-09    3.551124e-08    0.000000e+00
5.239280e-09    3.822681e-08    0.000000e+00
6.614252e-09    3.769088e-08    0.000000e+00
3.931683e-09    4.100301e-08    0.000000e+00
5.469582e-09    4.031772e-08    0.000000e+00
2.638810e-09    4.415467e-08    0.000000e+00
4.306428e-09    4.331385e-08    0.000000e+00
1.386481e-09    4.761656e-08    0.000000e+00
3.154127e-09    4.661708e-08    0.000000e+00
1.948433e-10    5.133306e-08    0.000000e+00
2.036432e-09    5.017450e-08    0.000000e+00
-9.203492e-10    5.525640e-08    0.000000e+00
9.719670e-10    5.394020e-08    0.000000e+00
-1.946665e-09    5.934529e-08    0.000000e+00
-2.448405e-11    5.787479e-08    0.000000e+00
-9.402457e-10    6.194391e-08    0.000000e+00
6.957413e-09    6.254090e-08    0.000000e+00
5.085672e-09    6.385720e-08    0.000000e+00
7.583422e-09    5.903088e-08    0.000000e+00
5.759273e-09    6.019476e-08    0.000000e+00
8.219635e-09    5.561141e-08    0.000000e+00
6.460907e-09    5.662213e-08    0.000000e+00
8.851552e-09    5.230225e-08    0.000000e+00
7.176632e-09    5.316124e-08    0.000000e+00
9.461373e-09    4.912557e-08    0.000000e+00
7.890302e-09    4.983594e-08    0.000000e+00
1.002772e-08    4.610670e-08    0.000000e+00
8.582170e-09    4.667355e-08    0.000000e+00
1.052479e-08    4.327377e-08    0.000000e+00
9.228367e-09    4.370490e-08    0.000000e+00
1.092378e-08    4.066242e-08    0.000000e+00
9.800329e-09    4.096702e-08    0.000000e+00
1.118843e-08    3.829707e-08    0.000000e+00
1.026454e-08    3.850079e-08    0.000000e+00
1.131177e-08    3.626060e-08    0.000000e+00
1.059134e-08    3.636685e-08    0.000000e+00
1.116253e-08    3.434446e-08    0.000000e+00
1.075726e-08    3.449664e-08    0.000000e+00
1.086833e-08    3.325396e-08    0.000000e+00
1.074778e-08    3.284335e-08    0.000000e+00
1.042020e-08    3.293675e-08    0.000000e+00
1.055423e-08    3.342531e-08    0.000000e+00
1.079801e-08    3.297950e-08    0.000000e+00
1.002639e-08    3.296965e-08    0.000000e+00
1.049210e-08    3.278631e-08    0.000000e+00
6.391850e-09    4.493308e-08    0.000000e+00
7.074242e-09    4.736785e-08    0.000000e+00
7.859870e-09    4.425887e-08    0.000000e+00
4.831190e-09    4.572068e-08    0.000000e+00
5.862391e-09    4.256856e-08    0.000000e+00
3.684412e-09    5.527172e-08    0.000000e+00
4.673350e-09    5.776665e-08    0.000000e+00
5.461117e-09    5.415306e-08    0.000000e+00
1.862857e-09    5.651584e-08    0.000000e+00
2.812047e-09    5.273503e-08    0.000000e+00
2.045398e-09    6.291308e-08    0.000000e+00
3.919339e-09    6.149160e-08    0.000000e+00
9.742077e-10    6.043395e-08    0.000000e+00
2.838121e-09    5.903716e-08    0.000000e+00
4.569986e-09    5.164447e-08    0.000000e+00
6.267373e-09    5.067708e-08    0.000000e+00
3.807256e-09    4.912407e-08    0.000000e+00
5.478996e-09    4.818637e-08    0.000000e+00
8.875516e-09    3.685467e-08    0.000000e+00
9.254562e-09    3.880681e-08    0.000000e+00
9.792098e-09    3.656573e-08    0.000000e+00
7.829008e-09    3.723234e-08    0.000000e+00
8.690862e-09    3.518156e-08    0.000000e+00
7.284078e-09    4.192573e-08    0.000000e+00
8.597298e-09    4.138855e-08    0.000000e+00
6.873440e-09    3.971742e-08    0.000000e+00
8.126266e-09    3.921100e-08    0.000000e+00
9.513891e-09    3.490844e-08    0.000000e+00
1.022114e-08    3.470878e-08    0.000000e+00
9.434601e-09    3.372094e-08    0.000000e+00
1.005268e-08    3.356395e-08    0.000000e+00
4.982840e-10    2.885190e-08    0.000000e+00
5.854091e-10    2.884362e-08    0.000000e+00
4.405285e-10    2.876118e-08    0.000000e+00
4.967835e-10    2.893280e-08    0.000000e+00
5.627122e-10    2.896396e-08    0.000000e+00
4.399622e-10    2.881818e-08    0.000000e+00
5.190883e-10    2.899255e-08    0.000000e+00
5.649531e-10    2.906766e-08    0.000000e+00
4.622650e-10    2.885816e-08    0.000000e+00
5.906299e-10    2.914734e-08    0.000000e+00
5.062383e-10    2.887586e-08    0.000000e+00
7.617997e-10    2.943250e-08    0.000000e+00
6.522742e-10    2.923343e-08    0.000000e+00
1.032561e-09    2.974294e-08    0.000000e+00
8.766145e-10    2.949266e-08    0.000000e+00
1.417049e-09    3.008249e-08    0.000000e+00
1.205082e-09    2.977396e-08    0.000000e+00
1.929980e-09    3.045290e-08    0.000000e+00
1.651960e-09    3.008010e-08    0.000000e+00
2.584135e-09    3.085280e-08    0.000000e+00
2.230892e-09    3.041217e-08    0.000000e+00
3.387078e-09    3.127646e-08    0.000000e+00
2.952226e-09    3.076887e-08    0.000000e+00
4.337030e-09    3.171240e-08    0.000000e+00
3.819599e-09    3.114559e-08    0.000000e+00
5.417863e-09    3.214190e-08    0.000000e+00
4.825748e-09    3.153332e-08    0.000000e+00
6.593213e-09    3.253748e-08    0.000000e+00
5.947479e-09    3.191751e-08    0.000000e+00
7.800362e-09    3.286098e-08    0.000000e+00
7.140118e-09    3.227679e-08    0.000000e+00
8.941132e-09    3.306294e-08    0.000000e+00
8.330971e-09    3.258202e-08    0.000000e+00
9.878068e-09    3.306999e-08    0.000000e+00
9.412472e-09    3.279312e-08    0.000000e+00
1.033843e-08    3.282347e-08    0.000000e+00
1.022256e-08    3.286378e-08    0.000000e+00
1.044961e-08    3.274989e-08    0.000000e+00
1.018799e-08    3.190477e-08    0.000000e+00
1.062604e-08    3.265125e-08    0.000000e+00
9.426633e-09    3.126374e-08    0.000000e+00
9.957522e-09    3.196689e-08    0.000000e+00
8.441148e-09    3.071747e-08    0.000000e+00
9.067851e-09    3.142567e-08    0.000000e+00
7.360093e-09    3.029520e-08    0.000000e+00
7.999439e-09    3.096064e-08    0.000000e+00
6.261250e-09    2.996696e-08    0.000000e+00
6.872821e-09    3.057762e-08    0.000000e+00
5.206635e-09    2.971597e-08    0.000000e+00
5.761536e-09    3.026154e-08    0.000000e+00
4.235901e-09    2.952383e-08    0.000000e+00
4.720105e-09    3.000142e-08    0.000000e+00
3.372897e-09    2.937530e-08    0.000000e+00
3.781555e-09    2.978579e-08    0.000000e+00
2.628793e-09    2.925740e-08    0.000000e+00
2.963676e-09    2.960456e-08    0.000000e+00
2.005539e-09    2.915975e-08    0.000000e+00
2.272464e-09    2.944892e-08    0.000000e+00
1.498714e-09    2.907435e-08    0.000000e+00
1.705667e-09    2.931161e-08    0.000000e+00
1.099976e-09    2.899542e-08    0.000000e+00
1.255682e-09    2.918688e-08    0.000000e+00
7.990671e-10    2.891919e-08    0.000000e+00
9.119985e-10    2.907049e-08    0.000000e+00
6.631817e-10    2.895952e-08    0.000000e+00
3.788059e-09    3.046370e-08    0.000000e+00
3.355207e-09    3.063845e-08    0.000000e+00
4.280912e-09    3.097402e-08    0.000000e+00
3.349273e-09    3.000782e-08    0.000000e+00
4.245223e-09    3.025174e-08    0.000000e+00
1.216309e-09    2.948778e-08    0.000000e+00
1.027835e-09    2.951175e-08    0.000000e+00
1.415579e-09    2.976049e-08    0.000000e+00
1.049758e-09    2.925935e-08    0.000000e+00
1.442282e-09    2.942153e-08    0.000000e+00
6.452128e-10    2.910656e-08    0.000000e+00
7.487352e-10    2.928186e-08    0.000000e+00
7.606086e-10    2.910779e-08    0.000000e+00
8.809909e-10    2.929055e-08    0.000000e+00
2.236959e-09    2.993309e-08    0.000000e+00
1.925628e-09    3.003049e-08    0.000000e+00
2.569785e-09    3.032318e-08    0.000000e+00
1.950245e-09    2.959758e-08    0.000000e+00
2.583900e-09    2.979147e-08    0.000000e+00
1.664202e-09    2.970102e-08    0.000000e+00
2.943813e-09    3.018661e-08    0.000000e+00
8.181847e-09    3.180197e-08    0.000000e+00
7.674603e-09    3.202967e-08    0.000000e+00
8.827216e-09    3.235014e-08    0.000000e+00
7.520099e-09    3.120046e-08    0.000000e+00
8.649937e-09    3.160249e-08    0.000000e+00
5.850363e-09    3.109138e-08    0.000000e+00
5.333561e-09    3.132464e-08    0.000000e+00
6.482549e-09    3.168109e-08    0.000000e+00
5.259937e-09    3.052854e-08    0.000000e+00
6.366907e-09    3.084328e-08    0.000000e+00
4.763508e-09    3.076545e-08    0.000000e+00
7.010362e-09    3.143884e-08    0.000000e+00
1.016069e-08    3.253841e-08    0.000000e+00
9.825650e-09    3.261879e-08    0.000000e+00
1.047669e-08    3.278558e-08    0.000000e+00
9.652821e-09    3.205220e-08    0.000000e+00
1.042788e-08    3.253813e-08    0.000000e+00
9.272383e-09    3.217234e-08    0.000000e+00
1.065968e-08    3.281572e-08    0.000000e+00
7.336374e-09    2.680558e-08    0.000000e+00
6.898838e-09    2.723440e-08    0.000000e+00
7.498102e-09    2.664996e-08    0.000000e+00
7.401369e-09    2.661624e-08    0.000000e+00
7.070815e-09    2.686019e-08    0.000000e+00
7.594829e-09    2.654637e-08    0.000000e+00
7.391272e-09    2.643500e-08    0.000000e+00
7.150224e-09    2.657288e-08    0.000000e+00
7.570353e-09    2.649192e-08    0.000000e+00
7.174051e-09    2.626728e-08    0.000000e+00
7.482073e-09    2.640739e-08    0.000000e+00
6.545991e-09    2.620535e-08    0.000000e+00
6.862559e-09    2.641979e-08    0.000000e+00
5.709826e-09    2.625865e-08    0.000000e+00
6.070641e-09    2.648397e-08    0.000000e+00
4.802216e-09    2.640192e-08    0.000000e+00
5.158705e-09    2.661371e-08    0.000000e+00
3.917926e-09    2.660296e-08    0.000000e+00
4.243664e-09    2.678482e-08    0.000000e+00
3.112708e-09    2.683814e-08    0.000000e+00
3.394350e-09    2.698218e-08    0.000000e+00
2.415072e-09    2.709061e-08    0.000000e+00
2.647310e-09    2.719460e-08    0.000000e+00
1.835055e-09    2.734898e-08    0.000000e+00
2.018058e-09    2.741418e-08    0.000000e+00
1.371044e-09    2.760654e-08    0.000000e+00
1.508067e-09    2.763583e-08    0.000000e+00
1.015222e-09    2.786037e-08    0.000000e+00
1.110769e-09    2.785696e-08    0.000000e+00
7.577705e-10    2.811071e-08    0.000000e+00
8.162343e-10    2.807710e-08    0.000000e+00
5.899804e-10    2.836019e-08    0.000000e+00
6.146843e-10    2.829750e-08    0.000000e+00
5.064126e-10    2.861332e-08    0.000000e+00
4.989981e-10    2.852086e-08    0.000000e+00
4.663529e-10    2.875101e-08    0.000000e+00
3.763306e-10    2.867278e-08    0.000000e+00
4.000489e-10    2.873188e-08    0.000000e+00
4.007849e-10    2.858762e-08    0.000000e+00
3.919504e-10    2.861625e-08    0.000000e+00
5.111226e-10    2.850879e-08    0.000000e+00
4.691363e-10    2.850619e-08    0.000000e+00
7.098407e-10    2.843930e-08    0.000000e+00
6.322002e-10    2.840327e-08    0.000000e+00
1.003881e-09    2.838114e-08    0.000000e+00
8.866426e-10    2.830876e-08    0.000000e+00
1.403021e-09    2.833418e-08    0.000000e+00
1.241587e-09    2.822288e-08    0.000000e+00
1.917373e-09    2.829495e-08    0.000000e+00
1.707657e-09    2.814392e-08    0.000000e+00
2.553853e-09    2.825517e-08    0.000000e+00
2.293896e-09    2.806724e-08    0.000000e+00
3.311439e-09    2.820022e-08    0.000000e+00
3.003537e-09    2.798413e-08    0.000000e+00
4.175207e-09    2.810730e-08    0.000000e+00
3.828561e-09    2.788050e-08    0.000000e+00
5.108613e-09    2.794450e-08    0.000000e+00
4.742785e-09    2.773592e-08    0.000000e+00
6.048631e-09    2.766807e-08    0.000000e+00
5.694573e-09    2.752259e-08    0.000000e+00
6.602385e-09    2.721149e-08    0.000000e+00
1.851225e-09    2.778857e-08    0.000000e+00
2.226077e-09    2.751145e-08    0.000000e+00
1.667691e-09    2.769648e-08    0.000000e+00
2.059790e-09    2.791205e-08    0.000000e+00
1.523398e-09    2.802565e-08    0.000000e+00
4.954917e-09    2.716991e-08    0.000000e+00
5.529119e-09    2.681433e-08    0.000000e+00
4.591651e-09    2.697706e-08    0.000000e+00
5.326042e-09    2.735489e-08    0.000000e+00
4.381409e-09    2.753179e-08    0.000000e+00
6.763415e-09    2.680162e-08    0.000000e+00
6.425960e-09    2.667457e-08    0.000000e+00
6.261844e-09    2.713120e-08    0.000000e+00
5.900089e-09    2.698884e-08    0.000000e+00
3.190352e-09    2.748965e-08    0.000000e+00
3.701834e-09    2.714980e-08    0.000000e+00
2.905997e-09    2.732868e-08    0.000000e+00
3.498955e-09    2.767433e-08    0.000000e+00
2.719175e-09    2.779737e-08    0.000000e+00
4.032151e-09    2.733497e-08    0.000000e+00
2.459713e-09    2.763961e-08    0.000000e+00
7.139577e-10    2.824898e-08    0.000000e+00
8.924778e-10    2.807052e-08    0.000000e+00
6.557022e-10    2.826009e-08    0.000000e+00
7.904936e-10    2.826498e-08    0.000000e+00
5.732851e-10    2.839377e-08    0.000000e+00
1.363372e-09    2.793889e-08    0.000000e+00
1.226317e-09    2.788287e-08    0.000000e+00
1.103712e-09    2.814255e-08    0.000000e+00
9.878394e-10    2.809205e-08    0.000000e+00
4.354509e-10    2.857736e-08    0.000000e+00
5.074039e-10    2.845300e-08    0.000000e+00
4.428401e-10    2.865141e-08    0.000000e+00
4.440950e-10    2.852898e-08    0.000000e+00
3.991667e-10    2.867044e-08    0.000000e+00
5.319942e-10    2.841046e-08    0.000000e+00
4.225205e-10    2.875090e-08    0.000000e+00
-6.103686e-12    -9.514403e-11    0.000000e+00
-3.322060e-14    -1.029775e-10    0.000000e+00
-1.603024e-13    -8.228192e-11    0.000000e+00
-1.957590e-11    -1.084135e-10    0.000000e+00
-1.009031e-11    -1.103706e-10    0.000000e+00
-1.422671e-11    -8.841376e-11    0.000000e+00
-3.716978e-11    -1.333264e-10    0.000000e+00
-2.130359e-11    -1.312762e-10    0.000000e+00
-3.219145e-11    -1.049796e-10    0.000000e+00
-6.244625e-11    -1.662838e-10    0.000000e+00
-3.507845e-11    -1.636707e-10    0.000000e+00
-5.831938e-11    -1.301388e-10    0.000000e+00
-1.003115e-10    -1.976638e-10    0.000000e+00
-5.343794e-11    -2.014670e-10    0.000000e+00
-9.811595e-11    -1.583471e-10    0.000000e+00
-1.594331e-10    -2.055657e-10    0.000000e+00
-8.035669e-11    -2.303241e-10    0.000000e+00
-1.592481e-10    -1.756815e-10    0.000000e+00
-2.543782e-10    -1.450552e-10    0.000000e+00
-1.245582e-10    -2.189966e-10    0.000000e+00
-2.522673e-10    -1.535956e-10    0.000000e+00
-4.228547e-10    6.689673e-11    0.000000e+00
-2.094522e-10    -1.087803e-10    0.000000e+00
-3.963764e-10    -3.181765e-11    0.000000e+00
-6.976725e-10    5.713536e-10    0.000000e+00
-3.751050e-10    2.191393e-10    0.000000e+00
-6.086322e-10    2.748579e-10    0.000000e+00
-1.261669e-09    1.565309e-09    0.000000e+00
-7.252209e-10    9.648685e-10    0.000000e+00
-9.445029e-10    9.289032e-10    0.000000e+00
-1.254450e-09    2.596340e-09    0.000000e+00
-2.741719e-09    4.930584e-09    0.000000e+00
-1.113305e-09    1.854020e-09    0.000000e+00
1.344854e-10    2.816810e-09    0.000000e+00
-4.978410e-10    1.591657e-09    0.000000e+00
-6.737660e-10    4.505790e-09    0.000000e+00
1.800521e-09    2.984284e-09    0.000000e+00
8.064035e-10    1.706344e-09    0.000000e+00
1.134410e-09    4.456195e-09    0.000000e+00
2.183119e-09    1.951751e-09    0.000000e+00
3.233997e-09    4.537764e-09    0.000000e+00
1.263016e-09    6.171602e-10    0.000000e+00
1.195854e-09    1.009200e-09    0.000000e+00
6.893557e-10    6.941423e-11    0.000000e+00
7.123663e-10    1.983289e-10    0.000000e+00
3.582414e-10    -1.464986e-10    0.000000e+00
4.012620e-10    -1.156536e-10    0.000000e+00
1.674878e-10    -2.150052e-10    0.000000e+00
2.089583e-10    -2.234326e-10    0.000000e+00
6.185886e-11    -2.163601e-10    0.000000e+00
9.489180e-11    -2.379179e-10    0.000000e+00
9.041542e-12    -1.917732e-10    0.000000e+00
3.184685e-11    -2.139861e-10    0.000000e+00
-1.143234e-11    -1.625028e-10    0.000000e+00
1.720966e-12    -1.796064e-10    0.000000e+00
-1.317315e-11    -1.392300e-10    0.000000e+00
-8.142152e-12    -1.490995e-10    0.000000e+00
-5.378598e-12    -1.267300e-10    0.000000e+00
-6.578460e-12    -1.290876e-10    0.000000e+00
2.477341e-13    -1.222961e-10    0.000000e+00
1.251732e-13    -1.157873e-10    0.000000e+00
-2.951766e-12    -1.212775e-10    0.000000e+00
-3.905874e-12    -1.123975e-10    0.000000e+00
2.067309e-11    -2.523186e-10    0.000000e+00
9.755995e-11    -2.534049e-10    0.000000e+00
3.898101e-11    -2.366926e-10    0.000000e+00
-3.210463e-11    -2.507633e-10    0.000000e+00
-2.762736e-11    -2.322648e-10    0.000000e+00
1.311922e-10    1.424693e-10    0.000000e+00
5.335364e-10    4.480655e-10    0.000000e+00
3.386086e-10    -3.626417e-11    0.000000e+00
-2.280255e-10    4.615625e-10    0.000000e+00
-9.463537e-11    -2.258176e-11    0.000000e+00
1.250569e-10    8.951552e-10    0.000000e+00
9.878525e-11    -1.558709e-10    0.000000e+00
1.940951e-10    -2.120014e-10    0.000000e+00
-4.566527e-11    -2.082862e-10    0.000000e+00
5.495128e-11    -2.491438e-10    0.000000e+00
-8.834128e-12    -1.793724e-10    0.000000e+00
7.761372e-12    -2.001087e-10    0.000000e+00
-5.193952e-12    -1.633196e-10    0.000000e+00
-2.364962e-11    -1.936425e-10    0.000000e+00
-1.818974e-11    -1.555120e-10    0.000000e+00
1.306958e-13    -2.196286e-10    0.000000e+00
-9.772212e-12    -1.452607e-10    0.000000e+00
-6.998805e-12    -1.357299e-10    0.000000e+00
-1.141914e-11    -1.272091e-10    0.000000e+00
-5.957626e-12    -1.233374e-10    0.000000e+00
-3.269329e-09    9.597583e-09    0.000000e+00
-1.972464e-09    6.904898e-09    0.000000e+00
-2.485863e-09    1.428017e-08    0.000000e+00
-1.745417e-09    1.158344e-08    0.000000e+00
-8.534347e-10    1.848276e-08    0.000000e+00
-5.731825e-10    1.601025e-08    0.000000e+00
1.220575e-09    2.180039e-08    0.000000e+00
1.151341e-09    1.976727e-08    0.000000e+00
3.331081e-09    2.414116e-08    0.000000e+00
3.064881e-09    2.262224e-08    0.000000e+00
5.170152e-09    2.557825e-08    0.000000e+00
4.848283e-09    2.457135e-08    0.000000e+00
6.525862e-09    2.628428e-08    0.000000e+00
6.267908e-09    2.572960e-08    0.000000e+00
7.297919e-09    2.648379e-08    0.000000e+00
7.181932e-09    2.628417e-08    0.000000e+00
7.546440e-09    2.645166e-08    0.000000e+00
7.798560e-09    2.588957e-08    0.000000e+00
7.724895e-09    2.631512e-08    0.000000e+00
7.818508e-09    2.481380e-08    0.000000e+00
7.787840e-09    2.557891e-08    0.000000e+00
7.558792e-09    2.330788e-08    0.000000e+00
7.501776e-09    2.447036e-08    0.000000e+00
7.057171e-09    2.126939e-08    0.000000e+00
6.889837e-09    2.285295e-08    0.000000e+00
6.385358e-09    1.864737e-08    0.000000e+00
6.021940e-09    2.061527e-08    0.000000e+00
5.633546e-09    1.547126e-08    0.000000e+00
5.015178e-09    1.771854e-08    0.000000e+00
4.874558e-09    1.185692e-08    0.000000e+00
4.006400e-09    1.421215e-08    0.000000e+00
4.113020e-09    8.052605e-09    0.000000e+00
3.116231e-09    1.027163e-08    0.000000e+00
2.399121e-09    6.268064e-09    0.000000e+00
4.596953e-09    2.163441e-08    0.000000e+00
3.051742e-09    2.076674e-08    0.000000e+00
4.691781e-09    2.321358e-08    0.000000e+00
4.747441e-09    1.975086e-08    0.000000e+00
5.931443e-09    2.227650e-08    0.000000e+00
7.166755e-10    1.087666e-08    0.000000e+00
-7.029915e-10    8.919666e-09    0.000000e+00
5.669885e-11    1.340487e-08    0.000000e+00
1.608045e-09    8.422567e-09    0.000000e+00
2.405456e-09    1.263063e-08    0.000000e+00
2.377411e-10    6.503734e-09    0.000000e+00
1.748374e-09    1.509446e-08    0.000000e+00
1.406017e-09    1.746224e-08    0.000000e+00
3.508539e-09    1.650056e-08    0.000000e+00
3.126670e-09    1.874810e-08    0.000000e+00
6.944077e-09    2.511099e-08    0.000000e+00
6.085623e-09    2.484883e-08    0.000000e+00
7.070547e-09    2.581423e-08    0.000000e+00
6.894920e-09    2.409768e-08    0.000000e+00
7.522006e-09    2.531688e-08    0.000000e+00
5.927864e-09    2.372734e-08    0.000000e+00
7.541239e-09    2.593723e-08    0.000000e+00
7.567316e-09    2.629738e-08    0.000000e+00
7.755754e-09    2.608139e-08    0.000000e+00
7.684828e-09    2.638362e-08    0.000000e+00
0.000000e+00    0.000000e+00    0.000000e+00
-4.861306e-14    -8.183610e-12    0.000000e+00
0.000000e+00    0.000000e+00    0.000000e+00
-4.167697e-12    -8.544841e-12    0.000000e+00
0.000000e+00    0.000000e+00    0.000000e+00
-9.920842e-12    -9.189177e-12    0.000000e+00
0.000000e+00    0.000000e+00    0.000000e+00
-1.903404e-11    -9.757702e-12    0.000000e+00
0.000000e+00    0.000000e+00    0.000000e+00
-3.360562e-11    -9.360788e-12    0.000000e+00
0.000000e+00    0.000000e+00    0.000000e+00
-5.591478e-11    -6.301671e-12    0.000000e+00
0.000000e+00    0.000000e+00    0.000000e+00
-8.745257e-11    2.441872e-12    0.000000e+00
0.000000e+00    0.000000e+00    0.000000e+00
-1.263564e-10    2.147458e-11    0.000000e+00
0.000000e+00    0.000000e+00    0.000000e+00
-1.617517e-10    5.640801e-11    0.000000e+00
0.000000e+00    0.000000e+00    0.000000e+00
-1.682343e-10    1.092151e-10    0.000000e+00
-7.626616e-11    1.786496e-10    0.000000e+00
-3.287832e-10    5.829239e-10    0.000000e+00
-2.687424e-10    3.110657e-10    0.000000e+00
-5.983232e-10    1.031831e-09    0.000000e+00
-5.319101e-10    6.807855e-10    0.000000e+00
-9.069759e-10    1.158011e-09    0.000000e+00
-2.028518e-13    -5.663541e-11    0.000000e+00
-7.269963e-12    -7.136449e-11    0.000000e+00
-1.533790e-13    -3.018239e-11    0.000000e+00
-6.557326e-12    -4.408495e-11    0.000000e+00
-3.850132e-12    -1.873069e-11    0.000000e+00
-1.813279e-10    -1.073088e-10    0.000000e+00
-2.240847e-10    -1.364380e-10    0.000000e+00
-1.398863e-10    -1.388802e-10    0.000000e+00
-1.436577e-10    -4.517589e-11    0.000000e+00
-2.127915e-10    -6.708385e-11    0.000000e+00
-1.334722e-10    -7.569578e-11    0.000000e+00
-1.319468e-10    -1.621502e-11    0.000000e+00
-8.236309e-11    -2.466310e-11    0.000000e+00
-5.725844e-10    2.459633e-10    0.000000e+00
-7.180807e-10    5.040372e-10    0.000000e+00
-5.159112e-10    1.074623e-10    0.000000e+00
-4.099146e-10    1.629121e-10    0.000000e+00
-5.461763e-10    3.450931e-10    0.000000e+00
-4.448645e-10    1.036598e-10    0.000000e+00
-3.115850e-10    1.682363e-10    0.000000e+00
-2.689819e-10    6.574248e-11    0.000000e+00
-6.912990e-10    6.483186e-10    0.000000e+00
-4.375597e-10    3.757258e-10    0.000000e+00
-3.191871e-10    -2.042679e-11    0.000000e+00
-2.822595e-10    -8.181776e-11    0.000000e+00
-2.221085e-10    -2.461366e-11    0.000000e+00
-4.178466e-10    1.552822e-11    0.000000e+00
-3.191305e-10    3.445371e-11    0.000000e+00
-3.454723e-10    -7.648538e-11    0.000000e+00
-1.974012e-10    9.149409e-12    0.000000e+00
-6.461197e-11    -8.602455e-11    0.000000e+00
-8.405829e-11    -1.200247e-10    0.000000e+00
-4.775763e-11    -9.801993e-11    0.000000e+00
-5.042842e-11    -4.241844e-11    0.000000e+00
-7.953310e-11    -6.881145e-11    0.000000e+00
-4.448409e-11    -5.819454e-11    0.000000e+00
-4.853315e-11    -2.518598e-11    0.000000e+00
-2.677536e-11    -2.290298e-11    0.000000e+00
-1.109608e-10    -1.015685e-10    0.000000e+00
-8.757295e-11    -4.725274e-11    0.000000e+00
-2.201714e-11    -4.923646e-11    0.000000e+00
-1.500205e-11    -6.068574e-11    0.000000e+00
-1.139605e-11    -3.209755e-11    0.000000e+00
-3.474376e-11    -7.095538e-11    0.000000e+00
-2.674069e-11    -3.648476e-11    0.000000e+00
-2.405066e-11    -8.080082e-11    0.000000e+00
-1.306795e-11    -2.037115e-11    0.000000e+00

CELL_DATA      259
TENSORS Element_Stress2.000000e-01 double
-1.526834e+03 -6.607390e+02        0
-6.607390e+02 -3.007959e+02        0
       0        0 2.757457e+02

-1.490813e+03 -5.543297e+02        0
-5.543297e+02 -2.851555e+02        0
       0        0 -6.935252e+02

-1.389985e+03 -6.574341e+02        0
-6.574341e+02 -3.229403e+02        0
       0        0 5.219484e+02

-1.207132e+03 -4.993625e+02        0
-4.993625e+02 -2.818669e+02        0
       0        0 -2.996649e+02

-1.661772e+03 -6.139907e+02        0
-6.139907e+02 -2.267549e+02        0
       0        0 1.296143e+03

-1.674128e+03 -6.561047e+02        0
-6.561047e+02 -2.574351e+02        0
       0        0 1.401307e+03

-1.765951e+03 -5.981780e+02        0
-5.981780e+02 -2.849642e+02        0
       0        0 -1.094659e+03

-1.661367e+03 -6.644418e+02        0
-6.644418e+02 -2.804089e+02        0
       0        0 2.725861e+01

-1.655870e+03 -5.773538e+02        0
-5.773538e+02 -2.007695e+02        0
       0        0 1.187841e+03

-3.181190e+03 -1.008550e+03        0
-1.008550e+03 -4.455767e+02        0
       0        0 -2.882819e+03

1.378912e+03 -4.647272e+02        0
-4.647272e+02 -7.512925e+01        0
       0        0 1.863030e+03

-3.263719e+03 -1.003410e+03        0
-1.003410e+03 -1.891712e+03        0
       0        0 -2.964100e+03

2.205491e+03 -3.664802e+02        0
-3.664802e+02 -2.991286e+02        0
       0        0 2.297959e+03

-7.454680e+03 -7.683343e+02        0
-7.683343e+02 -8.907462e+02        0
       0        0 -7.587343e+03

-9.389853e+03 -2.201331e+03        0
-2.201331e+03 -4.949428e+03        0
       0        0 -8.902331e+03

5.993041e+02 -4.047561e+02        0
-4.047561e+02 -4.508739e+01        0
       0        0 1.415737e+03

-2.996704e+03 -9.206056e+02        0
-9.206056e+02 -2.249714e+02        0
       0        0 -2.754497e+03

-6.480798e+03 -7.531335e+02        0
-7.531335e+02 -4.640852e+02        0
       0        0 -6.810112e+03

-2.744196e+03 -8.232078e+02        0
-8.232078e+02 -1.904438e+02        0
       0        0 -2.324503e+03

-5.020466e+02 -3.581006e+02        0
-3.581006e+02 -6.141987e+01        0
       0        0 8.709392e+02

-2.861466e+03 -8.649371e+02        0
-8.649371e+02 -1.933360e+02        0
       0        0 -2.560604e+03

-1.959371e+01 -3.655475e+02        0
-3.655475e+02 -5.051681e+01        0
       0        0 1.087476e+03

-5.018670e+03 -7.880736e+02        0
-7.880736e+02 -3.053604e+02        0
       0        0 -5.430801e+03

-5.694773e+03 -7.785472e+02        0
-7.785472e+02 -3.536465e+02        0
       0        0 -6.106758e+03

-8.746246e+02 -3.682187e+02        0
-3.682187e+02 -7.352965e+01        0
       0        0 7.442563e+02

-2.624404e+03 -7.887433e+02        0
-7.887433e+02 -1.950993e+02        0
       0        0 -2.058371e+03

-4.430244e+03 -7.855336e+02        0
-7.855336e+02 -2.844048e+02        0
       0        0 -4.785087e+03

-2.368514e+03 -7.350850e+02        0
-7.350850e+02 -2.122690e+02        0
       0        0 -1.472885e+03

-1.354399e+03 -4.150564e+02        0
-4.150564e+02 -1.013653e+02        0
       0        0 6.946194e+02

-2.499171e+03 -7.597003e+02        0
-7.597003e+02 -2.030398e+02        0
       0        0 -1.772135e+03

-1.153777e+03 -3.886575e+02        0
-3.886575e+02 -8.688405e+01        0
       0        0 6.901878e+02

-3.462525e+03 -7.555538e+02        0
-7.555538e+02 -2.716956e+02        0
       0        0 -3.585882e+03

-3.915563e+03 -7.738805e+02        0
-7.738805e+02 -2.750057e+02        0
       0        0 -4.170071e+03

-1.490582e+03 -4.446227e+02        0
-4.446227e+02 -1.171007e+02        0
       0        0 7.453460e+02

-2.232909e+03 -7.143864e+02        0
-7.143864e+02 -2.222616e+02        0
       0        0 -1.166158e+03

-3.060193e+03 -7.323116e+02        0
-7.323116e+02 -2.714422e+02        0
       0        0 -3.031470e+03

-1.949175e+03 -6.831971e+02        0
-6.831971e+02 -2.453543e+02        0
       0        0 -5.469287e+02

-1.623469e+03 -5.080017e+02        0
-5.080017e+02 -1.534972e+02        0
       0        0 9.433269e+02

-2.092885e+03 -6.971975e+02        0
-6.971975e+02 -2.331418e+02        0
       0        0 -8.562867e+02

-1.575936e+03 -4.757859e+02        0
-4.757859e+02 -1.343347e+02        0
       0        0 8.315336e+02

-2.365645e+03 -6.740689e+02        0
-6.740689e+02 -2.747474e+02        0
       0        0 -2.003860e+03

-2.698010e+03 -7.051141e+02        0
-7.051141e+02 -2.727402e+02        0
       0        0 -2.504960e+03

-1.645858e+03 -5.419660e+02        0
-5.419660e+02 -1.753107e+02        0
       0        0 1.070300e+03

-1.802410e+03 -6.719088e+02        0
-6.719088e+02 -2.604403e+02        0
       0        0 -2.437663e+02

-2.053446e+03 -6.382915e+02        0
-6.382915e+02 -2.766602e+02        0
       0        0 -1.526450e+03

-1.697575e+03 -7.057671e+02        0
-7.057671e+02 -2.940752e+02        0
       0        0 1.495929e+03

-1.251411e+03 -6.538069e+02        0
-6.538069e+02 -3.482713e+02        0
       0        0 7.584882e+02

-9.107785e+02 -4.309946e+02        0
-4.309946e+02 -2.739667e+02        0
       0        0 8.566575e+01

-1.792806e+03 -8.357794e+02        0
-8.357794e+02 -3.913205e+02        0
       0        0 1.633443e+03

-1.735931e+03 -7.649758e+02        0
-7.649758e+02 -3.381735e+02        0
       0        0 1.575019e+03

-2.653753e+02 -2.428641e+02        0
-2.428641e+02 -2.366446e+02        0
       0        0 8.321178e+02

-9.711477e+02 -6.441129e+02        0
-6.441129e+02 -4.093555e+02        0
       0        0 1.191197e+03

-5.978688e+02 -3.464795e+02        0
-3.464795e+02 -2.595410e+02        0
       0        0 4.630120e+02

-1.111650e+03 -6.494831e+02        0
-6.494831e+02 -3.770402e+02        0
       0        0 9.825570e+02

-1.871133e+03 -9.207606e+02        0
-9.207606e+02 -4.554210e+02        0
       0        0 1.665794e+03

-8.308719e+02 -6.373722e+02        0
-6.373722e+02 -4.449024e+02        0
       0        0 1.380841e+03

8.975375e+01 -1.176645e+02        0
-1.176645e+02 -2.019167e+02        0
       0        0 1.192377e+03

-2.100889e+03 -1.141002e+03        0
-1.141002e+03 -6.225223e+02        0
       0        0 1.629749e+03

-1.974761e+03 -1.019968e+03        0
-1.019968e+03 -5.302685e+02        0
       0        0 1.666533e+03

8.806136e+02 2.106996e+02        0
2.106996e+02 -8.876868e+01        0
       0        0 1.877791e+03

-5.662884e+02 -6.210122e+02        0
-6.210122e+02 -5.258989e+02        0
       0        0 1.681179e+03

4.705162e+02 3.177325e+01        0
3.177325e+01 -1.558469e+02        0
       0        0 1.541126e+03

-6.920464e+02 -6.308236e+02        0
-6.308236e+02 -4.830529e+02        0
       0        0 1.547254e+03

-2.266244e+03 -1.256401e+03        0
-1.256401e+03 -7.165832e+02        0
       0        0 1.550395e+03

-4.561713e+02 -5.989340e+02        0
-5.989340e+02 -6.418477e+02        0
       0        0 1.757334e+03

1.222672e+03 4.499456e+02        0
4.499456e+02 -8.653884e+00        0
       0        0 2.164310e+03

-2.465016e+03 -1.362508e+03        0
-1.362508e+03 -2.499784e+03        0
       0        0 8.698617e+02

-2.450359e+03 -1.487450e+03        0
-1.487450e+03 -1.138112e+03        0
       0        0 1.336695e+03

2.808759e+02 8.355713e+02        0
8.355713e+02 7.340536e+02        0
       0        0 2.297069e+03

-7.607142e+02 3.047554e+02        0
3.047554e+02 -6.263617e+02        0
       0        0 1.750049e+03

1.010636e+03 7.726935e+02        0
7.726935e+02 1.844251e+02        0
       0        0 2.272861e+03

-4.175365e+02 -2.223127e+02        0
-2.223127e+02 -8.329247e+02        0
       0        0 1.762984e+03

3.462284e+01 -5.934105e+01        0
-5.934105e+01 -1.706238e+03        0
       0        0 1.556593e+03

2.835452e+01 -2.185226e+02        0
-2.185226e+02 5.208534e+01        0
       0        0 1.823181e+03

3.826916e+01 -3.464917e+02        0
-3.464917e+02 6.540233e+02        0
       0        0 2.192777e+03

3.456709e+01 -1.190499e+02        0
-1.190499e+02 -7.282968e+02        0
       0        0 1.150234e+03

2.433107e+01 -3.715086e+01        0
-3.715086e+01 -6.050992e+02        0
       0        0 1.207926e+03

4.998852e+01 -2.024637e+02        0
-2.024637e+02 -7.374642e+02        0
       0        0 1.392264e+03

3.013138e+01 -5.240428e+01        0
-5.240428e+01 -8.695785e+02        0
       0        0 1.368907e+03

7.289935e+00 -3.552528e+01        0
-3.552528e+01 -7.259972e+02        0
       0        0 1.121196e+03

1.737895e+01 -1.166857e+02        0
-1.166857e+02 -4.018649e+02        0
       0        0 1.459055e+03

1.283325e+01 2.707812e+00        0
2.707812e+00 -7.181100e+02        0
       0        0 6.986131e+02

1.261681e+01 -2.903801e+00        0
-2.903801e+00 -3.172503e+02        0
       0        0 8.459629e+02

2.271962e+01 -5.101543e+01        0
-5.101543e+01 -7.221821e+02        0
       0        0 9.155134e+02

1.813323e+01 -1.967456e+01        0
-1.967456e+01 -4.260477e+02        0
       0        0 1.028770e+03

-5.204352e+00 6.913020e+01        0
6.913020e+01 -1.080123e+03        0
       0        0 5.641763e+02

6.239112e-02 2.511057e+01        0
2.511057e+01 -9.453103e+02        0
       0        0 8.210037e+02

-9.137027e-01 7.201691e+01        0
7.201691e+01 -7.156092e+02        0
       0        0 3.406997e+02

3.544200e+00 2.606222e+01        0
2.606222e+01 -2.488279e+02        0
       0        0 5.082376e+02

5.011013e+00 4.319428e+01        0
4.319428e+01 -7.159912e+02        0
       0        0 5.059805e+02

7.699446e+00 1.257070e+01        0
1.257070e+01 -2.628371e+02        0
       0        0 6.700677e+02

-1.109518e+01 1.173488e+02        0
1.173488e+02 -1.173309e+03        0
       0        0 1.821477e+02

-8.844538e+00 9.897294e+01        0
9.897294e+01 -1.150267e+03        0
       0        0 3.518586e+02

-7.824255e+00 1.014799e+02        0
1.014799e+02 -7.190714e+02        0
       0        0 9.316032e+01

-2.410555e+00 4.586419e+01        0
4.586419e+01 -2.946323e+02        0
       0        0 2.424289e+02

-5.118756e+00 9.086923e+01        0
9.086923e+01 -7.167205e+02        0
       0        0 2.034281e+02

1.755940e-01 3.721947e+01        0
3.721947e+01 -2.629072e+02        0
       0        0 3.649065e+02

-1.256573e+01 1.296022e+02        0
1.296022e+02 -1.136868e+03        0
       0        0 -4.642073e+01

-1.225208e+01 1.267896e+02        0
1.267896e+02 -1.164575e+03        0
       0        0 5.106569e+01

-9.644821e+00 1.044829e+02        0
1.044829e+02 -7.264335e+02        0
       0        0 -5.479169e+01

-5.408684e+00 5.562681e+01        0
5.562681e+01 -3.782854e+02        0
       0        0 6.247581e+01

-9.257749e+00 1.055077e+02        0
1.055077e+02 -7.224125e+02        0
       0        0 7.895593e+00

-4.251635e+00 5.197272e+01        0
5.197272e+01 -3.353944e+02        0
       0        0 1.416592e+02

-1.154491e+01 1.231030e+02        0
1.231030e+02 -1.063504e+03        0
       0        0 -1.617444e+02

-1.226129e+01 1.278027e+02        0
1.278027e+02 -1.100519e+03        0
       0        0 -1.156622e+02

-5.931774e+00 5.691224e+01        0
5.691224e+01 -4.174326e+02        0
       0        0 4.372490e+00

-9.201545e+00 9.969263e+01        0
9.969263e+01 -7.296820e+02        0
       0        0 -9.698966e+01

-1.056950e+01 1.168972e+02        0
1.168972e+02 -1.031121e+03        0
       0        0 -1.888896e+02

7.978634e+01 -4.158792e+02        0
-4.158792e+02 -7.974045e+02        0
       0        0 1.814500e+03

3.894696e+01 -6.788428e+01        0
-6.788428e+01 -1.240603e+03        0
       0        0 1.492279e+03

6.563332e+01 -2.980784e+02        0
-2.980784e+02 -7.497473e+02        0
       0        0 1.624512e+03

-2.169313e+02 3.628618e+02        0
3.628618e+02 1.281754e+03        0
       0        0 2.387830e+03

-1.316626e+02 -2.572586e+02        0
-2.572586e+02 1.221070e+03        0
       0        0 2.413020e+03

-1.052097e+03 -7.117331e+02        0
-7.117331e+02 -3.187553e+03        0
       0        0 1.039712e+03

-9.572705e+02 -1.108915e+02        0
-1.108915e+02 -3.116449e+02        0
       0        0 1.823089e+03

-3.680640e+01 -1.358117e+02        0
-1.358117e+02 -2.419558e+03        0
       0        0 1.479525e+03

-2.223247e+02 -4.876644e+02        0
-4.876644e+02 -6.902010e+02        0
       0        0 1.896291e+03

-9.358394e+01 8.776353e+01        0
8.776353e+01 1.436083e+02        0
       0        0 1.667767e+03

-2.441091e+02 4.188715e+02        0
4.188715e+02 -7.024323e+02        0
       0        0 1.417376e+03

-1.947087e+02 5.141697e+02        0
5.141697e+02 -1.710356e+03        0
       0        0 1.163169e+03

-6.215798e+01 1.640773e+02        0
1.640773e+02 -2.012904e+02        0
       0        0 1.404936e+03

-1.175452e+02 3.709959e+02        0
3.709959e+02 -7.527452e+02        0
       0        0 1.244207e+03

-6.647849e+01 3.077524e+02        0
3.077524e+02 -1.280962e+03        0
       0        0 1.111183e+03

-3.986469e+01 1.732578e+02        0
1.732578e+02 -5.450125e+02        0
       0        0 1.102960e+03

-5.438475e+01 2.909995e+02        0
2.909995e+02 -7.633108e+02        0
       0        0 1.034677e+03

-2.365568e+01 2.027794e+02        0
2.027794e+02 -9.172154e+02        0
       0        0 9.943698e+02

-2.199849e+01 1.415933e+02        0
1.415933e+02 -9.628203e+02        0
       0        0 5.624057e+02

-2.945251e+01 1.582067e+02        0
1.582067e+02 -8.030227e+02        0
       0        0 8.133084e+02

-6.261076e+00 9.355054e+01        0
9.355054e+01 -5.396837e+02        0
       0        0 6.601401e+02

-1.983288e+01 1.559437e+02        0
1.559437e+02 -7.637875e+02        0
       0        0 6.048518e+02

-1.276408e+01 1.383288e+02        0
1.383288e+02 -6.813496e+02        0
       0        0 8.327309e+02

-3.268356e+01 2.146647e+02        0
2.146647e+02 -7.635284e+02        0
       0        0 8.134363e+02

-1.220481e+01 1.143304e+02        0
1.143304e+02 -1.081127e+03        0
       0        0 1.891771e+02

-1.634111e+01 1.266893e+02        0
1.266893e+02 -1.048049e+03        0
       0        0 3.548081e+02

-6.889446e-01 4.739088e+01        0
4.739088e+01 -4.396101e+02        0
       0        0 3.437809e+02

-5.358523e+00 8.578933e+01        0
8.578933e+01 -7.630429e+02        0
       0        0 2.640978e+02

-2.503729e+00 6.434771e+01        0
6.434771e+01 -4.663595e+02        0
       0        0 4.937446e+02

-1.093676e+01 1.137988e+02        0
1.137988e+02 -7.638663e+02        0
       0        0 4.202074e+02

-9.420831e+00 1.050105e+02        0
1.050105e+02 -1.080773e+03        0
       0        0 6.128275e+01

-2.382774e+00 6.936181e+01        0
6.936181e+01 -7.612588e+02        0
       0        0 1.372407e+02

-2.967994e-01 3.945328e+01        0
3.945328e+01 -4.411531e+02        0
       0        0 2.158136e+02

-7.033786e+00 9.601320e+01        0
9.601320e+01 -1.036966e+03        0
       0        0 -1.038016e+02

-7.768788e+00 9.891542e+01        0
9.891542e+01 -1.062127e+03        0
       0        0 -3.445209e+01

-1.895671e+00 3.998502e+01        0
3.998502e+01 -4.744951e+02        0
       0        0 3.375286e+01

-1.709663e+00 6.163471e+01        0
6.163471e+01 -7.548661e+02        0
       0        0 -3.575870e+01

-8.308747e-01 3.775871e+01        0
3.775871e+01 -4.564762e+02        0
       0        0 1.122783e+02

-1.359627e+00 6.205727e+01        0
6.205727e+01 -7.585110e+02        0
       0        0 3.813056e+01

-7.526887e+00 9.882865e+01        0
9.882865e+01 -9.993949e+02        0
       0        0 -1.827789e+02

-7.014377e+00 9.609954e+01        0
9.609954e+01 -1.014033e+03        0
       0        0 -1.519175e+02

-4.402219e+00 4.909627e+01        0
4.909627e+01 -4.892481e+02        0
       0        0 -4.958961e+01

-4.650015e+00 7.371689e+01        0
7.371689e+01 -7.453296e+02        0
       0        0 -1.179534e+02

-3.171918e+00 4.425830e+01        0
4.425830e+01 -4.871926e+02        0
       0        0 -2.005458e+01

-2.944048e+00 6.610644e+01        0
6.610644e+01 -7.504274e+02        0
       0        0 -8.707452e+01

-9.477141e+00 1.100918e+02        0
1.100918e+02 -1.007614e+03        0
       0        0 -2.008842e+02

-8.404587e+00 1.037100e+02        0
1.037100e+02 -9.967450e+02        0
       0        0 -1.988488e+02

-5.921152e+00 5.611362e+01        0
5.611362e+01 -4.520244e+02        0
       0        0 -3.584763e+01

-8.092441e+00 9.210181e+01        0
9.210181e+01 -7.338654e+02        0
       0        0 -1.221399e+02

-5.383553e+00 5.334395e+01        0
5.334395e+01 -4.777518e+02        0
       0        0 -5.499166e+01

-6.473282e+00 8.287947e+01        0
8.287947e+01 -7.397403e+02        0
       0        0 -1.296141e+02

2.363746e+03 -4.508943e+02        0
-4.508943e+02 1.772879e+01        0
       0        0 1.170793e+03

3.008912e+03 -1.463651e+02        0
-1.463651e+02 -1.355819e+02        0
       0        0 1.521680e+03

-1.662689e+03 8.331859e+01        0
8.331859e+01 -5.806479e+01        0
       0        0 -7.682639e+02

-3.478820e-01 -6.203780e+02        0
-6.203780e+02 7.848073e+01        0
       0        0 9.204388e+01

-3.523744e+03 7.500994e+02        0
7.500994e+02 -1.904616e+03        0
       0        0 -2.045280e+03

-3.995154e+02 -4.403415e+01        0
-4.403415e+01 -8.693299e+02        0
       0        0 -3.204963e+02

1.532399e+03 -3.321249e+02        0
-3.321249e+02 4.794523e+01        0
       0        0 7.731159e+02

2.404582e+02 -5.517653e+02        0
-5.517653e+02 2.078174e+02        0
       0        0 2.006911e+02

-7.367602e+02 -2.425526e+02        0
-2.425526e+02 2.470572e+02        0
       0        0 -3.008676e+02

5.625203e+02 -1.408918e+02        0
-1.408918e+02 2.165944e+01        0
       0        0 2.833735e+02

9.480583e+02 -2.146909e+02        0
-2.146909e+02 3.230306e+01        0
       0        0 4.813222e+02

-1.491659e+02 -2.753895e+02        0
-2.753895e+02 2.124424e+02        0
       0        0 -5.649935e+01

2.063689e+02 -2.975053e+02        0
-2.975053e+02 1.150740e+02        0
       0        0 1.232742e+02

-3.289386e+02 -3.085970e+02        0
-3.085970e+02 2.507353e+02        0
       0        0 -1.257290e+02

2.724585e+02 -4.146258e+02        0
-4.146258e+02 1.579625e+02        0
       0        0 1.778197e+02

1.450201e+02 -5.924740e+01        0
-5.924740e+01 1.126477e+01        0
       0        0 6.165314e+01

3.091854e+02 -9.240441e+01        0
-9.240441e+01 1.513737e+01        0
       0        0 1.499944e+02

-4.518741e+01 -1.483425e+02        0
-1.483425e+02 1.414524e+02        0
       0        0 -2.330240e+01

6.373780e+01 -1.369099e+02        0
-1.369099e+02 6.638015e+01        0
       0        0 3.157544e+01

-7.595490e+01 -2.123645e+02        0
-2.123645e+02 1.749515e+02        0
       0        0 -3.118741e+01

1.282735e+02 -2.066527e+02        0
-2.066527e+02 8.623104e+01        0
       0        0 7.174982e+01

4.337163e+01 -3.575902e+01        0
-3.575902e+01 8.573991e+00        0
       0        0 5.600193e+00

1.857499e+01 -8.455171e+01        0
-8.455171e+01 5.180344e+01        0
       0        0 3.405569e+00

-3.226857e+01 -9.428520e+01        0
-9.428520e+01 1.136312e+02        0
       0        0 -2.230760e+01

-4.087112e+01 -5.762892e+00        0
-5.762892e+00 6.009302e+00        0
       0        0 -4.145211e+01

-1.429710e+01 -1.887826e+01        0
-1.887826e+01 6.836259e+00        0
       0        0 -2.695747e+01

-2.462754e+01 -1.619289e+01        0
-1.619289e+01 8.412713e+01        0
       0        0 -2.427520e+01

-2.193987e+01 -1.423681e+01        0
-1.423681e+01 3.729934e+01        0
       0        0 -2.207422e+01

-2.680362e+01 -5.126542e+01        0
-5.126542e+01 9.389256e+01        0
       0        0 -2.332886e+01

-8.852304e+00 -4.529755e+01        0
-4.529755e+01 4.204252e+01        0
       0        0 -1.402456e+01

-2.567546e+03 1.166463e+03        0
1.166463e+03 -2.854966e+02        0
       0        0 -1.551667e+03

-5.036319e+03 1.871588e+03        0
1.871588e+03 -1.162721e+03        0
       0        0 -2.523265e+03

2.918758e+02 8.328285e+02        0
8.328285e+02 -2.839554e+02        0
       0        0 1.037199e+03

-1.004763e+03 1.570215e+03        0
1.570215e+03 -4.300243e+02        0
       0        0 -2.621537e+02

2.179204e+03 5.291212e+02        0
5.291212e+02 -1.857680e+02        0
       0        0 1.455428e+03

-9.964922e+02 1.554520e+03        0
1.554520e+03 -9.558896e+02        0
       0        0 -5.010056e+02

-9.523565e+02 7.741865e+02        0
7.741865e+02 -3.973306e+02        0
       0        0 -8.009397e+02

-7.902017e+02 1.255500e+03        0
1.255500e+03 -7.158709e+02        0
       0        0 -3.759919e+01

-1.209157e+03 1.029223e+03        0
1.029223e+03 -5.862802e+02        0
       0        0 6.939251e+02

3.658794e+02 -1.037990e+02        0
-1.037990e+02 -1.024488e+02        0
       0        0 6.912614e+02

-3.520993e+01 3.101684e+02        0
3.101684e+02 -3.139494e+02        0
       0        0 -1.786104e+01

-2.185348e+03 1.601035e+03        0
1.601035e+03 -1.348199e+03        0
       0        0 6.164748e+02

-6.741923e+02 7.128007e+02        0
7.128007e+02 -8.744383e+02        0
       0        0 6.816484e+02

-1.981263e+03 1.336560e+03        0
1.336560e+03 -9.478532e+02        0
       0        0 5.771044e+02

-6.937440e+02 9.450343e+02        0
9.450343e+02 -8.633576e+02        0
       0        0 3.017552e+02

3.084109e+02 -4.406721e+02        0
-4.406721e+02 4.052630e+02        0
       0        0 1.665058e+03

4.260664e+02 -3.587594e+02        0
-3.587594e+02 1.684131e+02        0
       0        0 1.263729e+03

-1.614874e+03 1.662835e+03        0
1.662835e+03 -2.027599e+03        0
       0        0 8.921351e+02

-6.456600e+02 4.877753e+02        0
4.877753e+02 -7.493362e+02        0
       0        0 1.308539e+03

-2.003655e+03 1.718738e+03        0
1.718738e+03 -1.728605e+03        0
       0        0 7.418318e+02

-6.691130e+02 5.652518e+02        0
5.652518e+02 -8.192922e+02        0
       0        0 1.033008e+03

1.380881e+02 -3.791052e+02        0
-3.791052e+02 5.423186e+02        0
       0        0 1.888410e+03

-5.890139e+02 4.559542e+02        0
4.559542e+02 -6.962473e+02        0
       0        0 1.483781e+03

-1.164831e+03 1.457945e+03        0
1.457945e+03 -2.194711e+03        0
       0        0 1.025007e+03

-8.339347e+01 -5.693333e+01        0
-5.693333e+01 4.105867e+02        0
       0        0 1.861670e+03

-5.607699e+00 -2.303780e+02        0
-2.303780e+02 5.449848e+02        0
       0        0 1.945809e+03

-4.331748e+02 8.230842e+02        0
8.230842e+02 -2.045271e+03        0
       0        0 1.158592e+03

-3.819159e+02 4.312982e+02        0
4.312982e+02 -6.628282e+02        0
       0        0 1.528305e+03

-7.523638e+02 1.158281e+03        0
1.158281e+03 -2.204889e+03        0
       0        0 1.115959e+03

-4.987850e+02 4.445485e+02        0
4.445485e+02 -6.717556e+02        0
       0        0 1.553310e+03

-1.082873e+03 9.871982e+02        0
9.871982e+02 -9.882145e+02        0
       0        0 -9.472472e+02

-1.843060e+03 8.904082e+02        0
8.904082e+02 -6.170434e+02        0
       0        0 -1.112878e+03

-8.345571e+02 1.437529e+03        0
1.437529e+03 -2.596863e+03        0
       0        0 -1.346434e+03

-2.615314e+03 2.321772e+03        0
2.321772e+03 -3.060647e+03        0
       0        0 -2.174747e+03

-5.816895e+02 7.620043e+02        0
7.620043e+02 -1.246677e+03        0
       0        0 -6.371504e+02

-7.316150e+02 8.694432e+02        0
8.694432e+02 -1.218485e+03        0
       0        0 -8.109923e+02

-4.940714e+02 7.308037e+02        0
7.308037e+02 -2.027841e+03        0
       0        0 -8.195238e+02

-4.788191e+02 9.944104e+02        0
9.944104e+02 -2.203683e+03        0
       0        0 -9.907007e+02

-4.476306e+02 3.903093e+01        0
3.903093e+01 2.117845e+02        0
       0        0 -2.491879e+02

-3.836709e+02 -1.344407e+02        0
-1.344407e+02 2.459445e+02        0
       0        0 -1.949972e+02

-6.791181e+02 1.747030e+02        0
1.747030e+02 8.352055e+01        0
       0        0 -4.080171e+02

-6.491955e+02 -5.129213e+01        0
-5.129213e+01 2.074844e+02        0
       0        0 -3.370948e+02

-9.536940e+02 4.823865e+02        0
4.823865e+02 -2.594975e+02        0
       0        0 -6.481765e+02

-1.086483e+03 2.211324e+02        0
2.211324e+02 3.182037e+01        0
       0        0 -5.922079e+02

-1.634577e+02 2.984046e+02        0
2.984046e+02 1.790507e+01        0
       0        0 -1.012718e+02

-3.688189e+02 1.917018e+02        0
1.917018e+02 1.313917e+02        0
       0        0 -2.158003e+02

-2.928722e+02 4.534555e+02        0
4.534555e+02 -1.923293e+02        0
       0        0 -2.186953e+02

-5.505948e+02 3.358725e+02        0
3.358725e+02 -5.724315e+01        0
       0        0 -3.649296e+02

-4.499027e+02 6.320134e+02        0
6.320134e+02 -5.931570e+02        0
       0        0 -3.992758e+02

-7.191420e+02 5.676930e+02        0
5.676930e+02 -4.793523e+02        0
       0        0 -5.758518e+02

-1.594241e+02 -2.366186e+01        0
-2.366186e+01 2.205090e+02        0
       0        0 -8.686485e+01

-1.312998e+02 -1.017199e+02        0
-1.017199e+02 1.998866e+02        0
       0        0 -7.112698e+01

-2.754548e+02 -1.145994e+01        0
-1.145994e+01 2.383490e+02        0
       0        0 -1.479065e+02

-2.261417e+02 -1.313599e+02        0
-1.313599e+02 2.320792e+02        0
       0        0 -1.156118e+02

-2.132748e+01 1.074735e+02        0
1.074735e+02 1.411539e+02        0
       0        0 2.966185e+00

-1.211277e+02 5.512940e+01        0
5.512940e+01 1.989256e+02        0
       0        0 -6.131066e+01

-7.496703e+01 1.841367e+02        0
1.841367e+02 1.109658e+02        0
       0        0 -3.296916e+01

-2.221398e+02 1.047023e+02        0
1.047023e+02 1.950676e+02        0
       0        0 -1.190462e+02

-2.641704e+01 -4.374633e+00        0
-4.374633e+00 1.496784e+02        0
       0        0 -2.568526e+01

-3.061591e+01 -1.202600e+01        0
-1.202600e+01 1.260981e+02        0
       0        0 -2.996467e+01

-4.573214e+01 -1.325045e+01        0
-1.325045e+01 1.640122e+02        0
       0        0 -3.349428e+01

-4.482605e+01 -3.788282e+01        0
-3.788282e+01 1.396467e+02        0
       0        0 -3.488259e+01

-8.691998e+01 -2.095375e+01        0
-2.095375e+01 1.902734e+02        0
       0        0 -5.198410e+01

-7.557913e+01 -6.793122e+01        0
-6.793122e+01 1.659011e+02        0
       0        0 -4.709364e+01

2.955053e+01 8.458035e+00        0
8.458035e+00 1.305124e+02        0
       0        0 2.987120e+01

-5.836171e+00 3.521651e+00        0
3.521651e+00 1.501889e+02        0
       0        0 -5.186038e+00

2.325812e+01 2.851353e+01        0
2.851353e+01 1.361384e+02        0
       0        0 2.734925e+01

-2.237388e+01 1.230598e+01        0
1.230598e+01 1.617617e+02        0
       0        0 -1.221134e+01

8.396057e+00 5.878337e+01        0
5.878337e+01 1.430796e+02        0
       0        0 2.012055e+01

-5.790777e+01 2.742653e+01        0
2.742653e+01 1.812315e+02        0
       0        0 -2.892786e+01

POINT_DATA     938
VECTORS DISPLACEMENT_4.000000e-01 double
6.825619e-09    5.712970e-08    0.000000e+00
7.420629e-09    5.387046e-08    0.000000e+00
6.246039e-09    6.046547e-08    0.000000e+00
-2.289243e-09    5.776109e-08    0.000000e+00
-1.369889e-09    5.385174e-08    0.000000e+00
-3.618097e-10    5.008049e-08    0.000000e+00
7.243951e-10    4.648380e-08    0.000000e+00
1.875717e-09    4.310325e-08    0.000000e+00
3.075261e-09    3.998721e-08    0.000000e+00
4.301880e-09    3.719267e-08    0.000000e+00
5.527830e-09    3.478501e-08    0.000000e+00
6.719538e-09    3.284855e-08    0.000000e+00
7.799905e-09    3.151421e-08    0.000000e+00
8.555458e-09    3.081139e-08    0.000000e+00
9.224826e-09    3.053990e-08    0.000000e+00
-3.440096e-11    1.048458e-07    0.000000e+00
-6.864282e-10    1.046234e-07    0.000000e+00
-1.294471e-10    1.029836e-07    0.000000e+00
-1.418972e-09    1.026676e-07    0.000000e+00
-2.388129e-10    9.713339e-08    0.000000e+00
-2.392749e-09    9.672439e-08    0.000000e+00
-1.951373e-10    9.347627e-08    0.000000e+00
-2.634437e-09    9.302079e-08    0.000000e+00
-2.099135e-10    1.003504e-07    0.000000e+00
-1.986778e-09    9.998565e-08    0.000000e+00
1.590597e-10    8.529972e-08    0.000000e+00
-2.635117e-09    8.475734e-08    0.000000e+00
4.822245e-10    8.095368e-08    0.000000e+00
-2.407008e-09    8.037274e-08    0.000000e+00
1.424252e-09    7.206621e-08    0.000000e+00
-1.537118e-09    7.141925e-08    0.000000e+00
2.035919e-09    6.761757e-08    0.000000e+00
-9.150265e-10    6.694453e-08    0.000000e+00
9.046649e-10    7.652526e-08    0.000000e+00
-2.037882e-09    7.590944e-08    0.000000e+00
-6.538109e-11    8.950000e-08    0.000000e+00
-2.713439e-09    8.899967e-08    0.000000e+00
5.036717e-09    6.822368e-08    0.000000e+00
4.442290e-09    7.262706e-08    0.000000e+00
3.912071e-09    7.703652e-08    0.000000e+00
3.445443e-09    8.140984e-08    0.000000e+00
3.037410e-09    8.569278e-08    0.000000e+00
2.677669e-09    8.982052e-08    0.000000e+00
2.349934e-09    9.371548e-08    0.000000e+00
2.030977e-09    9.728274e-08    0.000000e+00
1.688577e-09    1.004074e-07    0.000000e+00
1.275458e-09    1.029486e-07    0.000000e+00
7.177471e-10    1.047071e-07    0.000000e+00
8.834867e-12    1.053560e-07    0.000000e+00
-1.543831e-11    1.056682e-07    0.000000e+00
2.447501e-11    1.058643e-07    0.000000e+00
-5.700540e-10    1.072685e-07    0.000000e+00
-1.565405e-09    1.042214e-07    0.000000e+00
-2.843476e-09    1.021137e-07    0.000000e+00
-3.855047e-09    9.938480e-08    0.000000e+00
-4.616103e-09    9.609896e-08    0.000000e+00
-5.124925e-09    9.237845e-08    0.000000e+00
-5.399645e-09    8.833995e-08    0.000000e+00
-5.457808e-09    8.408018e-08    0.000000e+00
-5.317960e-09    7.967839e-08    0.000000e+00
-4.997776e-09    7.519876e-08    0.000000e+00
-4.513610e-09    7.069350e-08    0.000000e+00
-3.880210e-09    6.620591e-08    0.000000e+00
-3.110418e-09    6.177402e-08    0.000000e+00
-1.930271e-10    6.251696e-08    0.000000e+00
2.721234e-09    6.321286e-08    0.000000e+00
5.691908e-09    6.386198e-08    0.000000e+00
8.018829e-09    5.070537e-08    0.000000e+00
8.605080e-09    4.765410e-08    0.000000e+00
9.161023e-09    4.473886e-08    0.000000e+00
9.664610e-09    4.198500e-08    0.000000e+00
1.008976e-08    3.942132e-08    0.000000e+00
1.040752e-08    3.708114e-08    0.000000e+00
1.057960e-08    3.499705e-08    0.000000e+00
1.064617e-08    3.317140e-08    0.000000e+00
1.026939e-08    3.147994e-08    0.000000e+00
1.000196e-08    3.110187e-08    0.000000e+00
9.593505e-09    3.082739e-08    0.000000e+00
7.016918e-09    4.303893e-08    0.000000e+00
5.020498e-09    4.146207e-08    0.000000e+00
4.752801e-09    5.258827e-08    0.000000e+00
2.183309e-09    5.132822e-08    0.000000e+00
3.337458e-09    5.958644e-08    0.000000e+00
5.145447e-10    5.868759e-08    0.000000e+00
4.025974e-09    5.604080e-08    0.000000e+00
1.317349e-09    5.495024e-08    0.000000e+00
5.504235e-09    4.925277e-08    0.000000e+00
3.099427e-09    4.784998e-08    0.000000e+00
6.265165e-09    4.605987e-08    0.000000e+00
4.051205e-09    4.454857e-08    0.000000e+00
8.966548e-09    3.538272e-08    0.000000e+00
7.772098e-09    3.397830e-08    0.000000e+00
7.737056e-09    4.022395e-08    0.000000e+00
5.984711e-09    3.863467e-08    0.000000e+00
8.396682e-09    3.765247e-08    0.000000e+00
6.915049e-09    3.611605e-08    0.000000e+00
9.400829e-09    3.343548e-08    0.000000e+00
8.528747e-09    3.229471e-08    0.000000e+00
9.777777e-09    3.195653e-08    0.000000e+00
9.148907e-09    3.125155e-08    0.000000e+00
7.608085e-09    2.951455e-08    0.000000e+00
7.767270e-09    3.026521e-08    0.000000e+00
2.773129e-09    2.810425e-08    0.000000e+00
2.768128e-09    2.865088e-08    0.000000e+00
1.580339e-09    2.773860e-08    0.000000e+00
1.555320e-09    2.810060e-08    0.000000e+00
2.115911e-09    2.791199e-08    0.000000e+00
2.096640e-09    2.836499e-08    0.000000e+00
8.394832e-10    2.743292e-08    0.000000e+00
8.230842e-10    2.763240e-08    0.000000e+00
6.119421e-10    2.729454e-08    0.000000e+00
6.069986e-10    2.742415e-08    0.000000e+00
1.158449e-09    2.758004e-08    0.000000e+00
1.134884e-09    2.785702e-08    0.000000e+00
3.554667e-09    2.831999e-08    0.000000e+00
3.573138e-09    2.895724e-08    0.000000e+00
6.410806e-10    2.714994e-08    0.000000e+00
8.817279e-10    2.722114e-08    0.000000e+00
1.209324e-09    2.729374e-08    0.000000e+00
1.633827e-09    2.737043e-08    0.000000e+00
2.164192e-09    2.745568e-08    0.000000e+00
2.806677e-09    2.755593e-08    0.000000e+00
3.562760e-09    2.767982e-08    0.000000e+00
4.426628e-09    2.783829e-08    0.000000e+00
5.382274e-09    2.804471e-08    0.000000e+00
6.400199e-09    2.831458e-08    0.000000e+00
7.433500e-09    2.866591e-08    0.000000e+00
8.415594e-09    2.911514e-08    0.000000e+00
9.250047e-09    2.968985e-08    0.000000e+00
9.891441e-09    3.034879e-08    0.000000e+00
9.684047e-09    3.070447e-08    0.000000e+00
9.572411e-09    3.099577e-08    0.000000e+00
8.880106e-09    3.111532e-08    0.000000e+00
7.883791e-09    3.100331e-08    0.000000e+00
6.766404e-09    3.075021e-08    0.000000e+00
5.637435e-09    3.040690e-08    0.000000e+00
4.571268e-09    3.001525e-08    0.000000e+00
3.613811e-09    2.960577e-08    0.000000e+00
2.788974e-09    2.919998e-08    0.000000e+00
2.104544e-09    2.881191e-08    0.000000e+00
1.557263e-09    2.844945e-08    0.000000e+00
1.137133e-09    2.811580e-08    0.000000e+00
8.308924e-10    2.781066e-08    0.000000e+00
6.247296e-10    2.753127e-08    0.000000e+00
5.062939e-10    2.727334e-08    0.000000e+00
4.747641e-10    2.722920e-08    0.000000e+00
4.648286e-10    2.716233e-08    0.000000e+00
4.777551e-10    2.707891e-08    0.000000e+00
5.545114e-09    2.961436e-08    0.000000e+00
5.456256e-09    2.884171e-08    0.000000e+00
4.505469e-09    2.928061e-08    0.000000e+00
4.454881e-09    2.856413e-08    0.000000e+00
6.653212e-09    2.994763e-08    0.000000e+00
6.525341e-09    2.915688e-08    0.000000e+00
9.602996e-09    3.075899e-08    0.000000e+00
9.469971e-09    3.036648e-08    0.000000e+00
8.792657e-09    3.054469e-08    0.000000e+00
8.625288e-09    2.991163e-08    0.000000e+00
9.944973e-09    3.083294e-08    0.000000e+00
1.002617e-08    3.079562e-08    0.000000e+00
6.820376e-09    2.532490e-08    0.000000e+00
6.938626e-09    2.510413e-08    0.000000e+00
6.958766e-09    2.493944e-08    0.000000e+00
6.929274e-09    2.474658e-08    0.000000e+00
6.481617e-09    2.464192e-08    0.000000e+00
5.775070e-09    2.464530e-08    0.000000e+00
4.942730e-09    2.474323e-08    0.000000e+00
4.091931e-09    2.490841e-08    0.000000e+00
3.293111e-09    2.511577e-08    0.000000e+00
2.584634e-09    2.534662e-08    0.000000e+00
1.983745e-09    2.558778e-08    0.000000e+00
1.493687e-09    2.583082e-08    0.000000e+00
1.109463e-09    2.607133e-08    0.000000e+00
8.223548e-10    2.630812e-08    0.000000e+00
6.233498e-10    2.654261e-08    0.000000e+00
5.055947e-10    2.677823e-08    0.000000e+00
4.660301e-10    2.701987e-08    0.000000e+00
3.731598e-10    2.699518e-08    0.000000e+00
3.551265e-10    2.691325e-08    0.000000e+00
4.184873e-10    2.683579e-08    0.000000e+00
5.631693e-10    2.676575e-08    0.000000e+00
7.937493e-10    2.670560e-08    0.000000e+00
1.118326e-09    2.665636e-08    0.000000e+00
1.546597e-09    2.661648e-08    0.000000e+00
2.087049e-09    2.658063e-08    0.000000e+00
2.743084e-09    2.653822e-08    0.000000e+00
3.507993e-09    2.647195e-08    0.000000e+00
4.358522e-09    2.635590e-08    0.000000e+00
5.248509e-09    2.615574e-08    0.000000e+00
6.105661e-09    2.581767e-08    0.000000e+00
1.815990e-09    2.594890e-08    0.000000e+00
1.669972e-09    2.629187e-08    0.000000e+00
4.755115e-09    2.528151e-08    0.000000e+00
4.558865e-09    2.580278e-08    0.000000e+00
6.410086e-09    2.501959e-08    0.000000e+00
6.290584e-09    2.538033e-08    0.000000e+00
5.631823e-09    2.513510e-08    0.000000e+00
5.453110e-09    2.561399e-08    0.000000e+00
3.093078e-09    2.560564e-08    0.000000e+00
2.909162e-09    2.607453e-08    0.000000e+00
3.889073e-09    2.544008e-08    0.000000e+00
3.693659e-09    2.595126e-08    0.000000e+00
2.397957e-09    2.577587e-08    0.000000e+00
2.231677e-09    2.618523e-08    0.000000e+00
7.168507e-10    2.647650e-08    0.000000e+00
6.302785e-10    2.663024e-08    0.000000e+00
1.347002e-09    2.612354e-08    0.000000e+00
1.221659e-09    2.639986e-08    0.000000e+00
9.838806e-10    2.629932e-08    0.000000e+00
8.784609e-10    2.651219e-08    0.000000e+00
4.369045e-10    2.683970e-08    0.000000e+00
3.864905e-10    2.688442e-08    0.000000e+00
5.366738e-10    2.665607e-08    0.000000e+00
4.681826e-10    2.675436e-08    0.000000e+00
4.153410e-10    2.702976e-08    0.000000e+00
3.840510e-10    2.702032e-08    0.000000e+00
-1.053260e-13    -8.768968e-11    0.000000e+00
-1.179109e-11    -9.425792e-11    0.000000e+00
-2.603919e-11    -1.124043e-10    0.000000e+00
-4.573591e-11    -1.402569e-10    0.000000e+00
-7.476472e-11    -1.720928e-10    0.000000e+00
-1.190627e-10    -1.940583e-10    0.000000e+00
-1.896005e-10    -1.758746e-10    0.000000e+00
-3.064610e-10    -6.000522e-11    0.000000e+00
-5.189399e-10    2.646878e-10    0.000000e+00
-8.465071e-10    9.554018e-10    0.000000e+00
-1.634982e-09    2.375434e-09    0.000000e+00
-5.736146e-10    2.576199e-09    0.000000e+00
8.886414e-10    2.715375e-09    0.000000e+00
2.554517e-09    2.947960e-09    0.000000e+00
1.572547e-09    1.074258e-09    0.000000e+00
8.811055e-10    2.657008e-10    0.000000e+00
4.713049e-10    -6.157009e-11    0.000000e+00
2.349529e-10    -1.814919e-10    0.000000e+00
1.002124e-10    -2.076700e-10    0.000000e+00
2.864533e-11    -1.933459e-10    0.000000e+00
-3.906152e-12    -1.662730e-10    0.000000e+00
-1.307247e-11    -1.407535e-10    0.000000e+00
-9.346392e-12    -1.236084e-10    0.000000e+00
3.534250e-13    -1.178539e-10    0.000000e+00
1.844215e-13    -1.123126e-10    0.000000e+00
4.866303e-14    -1.038660e-10    0.000000e+00
6.044652e-11    -2.344020e-10    0.000000e+00
-2.784240e-11    -2.313092e-10    0.000000e+00
4.039704e-10    1.424508e-10    0.000000e+00
-1.422870e-10    1.553157e-10    0.000000e+00
6.147951e-10    8.722076e-10    0.000000e+00
-3.280863e-10    8.551551e-10    0.000000e+00
2.444960e-10    -1.385575e-10    0.000000e+00
-5.962935e-11    -1.334523e-10    0.000000e+00
1.319362e-10    -2.287846e-10    0.000000e+00
-3.510718e-11    -2.265894e-10    0.000000e+00
-4.224113e-13    -1.701671e-10    0.000000e+00
-1.986028e-11    -1.633751e-10    0.000000e+00
1.937493e-11    -2.062304e-10    0.000000e+00
-2.430824e-11    -2.010390e-10    0.000000e+00
-6.653495e-12    -1.392042e-10    0.000000e+00
-1.403868e-11    -1.314781e-10    0.000000e+00
-5.061987e-12    -1.191769e-10    0.000000e+00
-7.248794e-12    -1.109895e-10    0.000000e+00
-3.128091e-09    6.736543e-09    0.000000e+00
-2.888277e-09    1.125514e-08    0.000000e+00
-1.716677e-09    1.551527e-08    0.000000e+00
9.562775e-11    1.907788e-08    0.000000e+00
2.115078e-09    2.173407e-08    0.000000e+00
4.014376e-09    2.348891e-08    0.000000e+00
5.546354e-09    2.446604e-08    0.000000e+00
6.559098e-09    2.485580e-08    0.000000e+00
7.009586e-09    2.488006e-08    0.000000e+00
7.224606e-09    2.472673e-08    0.000000e+00
7.373913e-09    2.388495e-08    0.000000e+00
7.252356e-09    2.269234e-08    0.000000e+00
6.878880e-09    2.104425e-08    0.000000e+00
6.304588e-09    1.885617e-08    0.000000e+00
5.613215e-09    1.612381e-08    0.000000e+00
4.886231e-09    1.291061e-08    0.000000e+00
4.170079e-09    9.380460e-09    0.000000e+00
3.423527e-09    5.855040e-09    0.000000e+00
3.621259e-09    2.079668e-08    0.000000e+00
5.005093e-09    1.986348e-08    0.000000e+00
-4.371115e-10    1.054174e-08    0.000000e+00
1.794604e-09    9.920047e-09    0.000000e+00
-7.998459e-10    6.328521e-09    0.000000e+00
1.228354e-09    5.962863e-09    0.000000e+00
5.808301e-10    1.460854e-08    0.000000e+00
2.703503e-09    1.377293e-08    0.000000e+00
2.035442e-09    1.809259e-08    0.000000e+00
3.834926e-09    1.714440e-08    0.000000e+00
6.222770e-09    2.389626e-08    0.000000e+00
6.807775e-09    2.330424e-08    0.000000e+00
5.081697e-09    2.269974e-08    0.000000e+00
6.041360e-09    2.189566e-08    0.000000e+00
6.930883e-09    2.454743e-08    0.000000e+00
7.222188e-09    2.421142e-08    0.000000e+00
7.167685e-09    2.483754e-08    0.000000e+00
7.257936e-09    2.476524e-08    0.000000e+00
0.000000e+00    0.000000e+00    0.000000e+00
0.000000e+00    0.000000e+00    0.000000e+00
0.000000e+00    0.000000e+00    0.000000e+00
0.000000e+00    0.000000e+00    0.000000e+00
0.000000e+00    0.000000e+00    0.000000e+00
0.000000e+00    0.000000e+00    0.000000e+00
0.000000e+00    0.000000e+00    0.000000e+00
0.000000e+00    0.000000e+00    0.000000e+00
0.000000e+00    0.000000e+00    0.000000e+00
0.000000e+00    0.000000e+00    0.000000e+00
0.000000e+00    0.000000e+00    0.000000e+00
-1.860166e-10    3.524742e-10    0.000000e+00
-4.475280e-10    7.605751e-10    0.000000e+00
-7.563909e-10    1.229812e-09    0.000000e+00
-1.918675e-13    -6.570273e-11    0.000000e+00
-1.900428e-13    -4.057402e-11    0.000000e+00
-9.970377e-14    -1.719471e-11    0.000000e+00
-1.671279e-10    -1.334691e-10    0.000000e+00
-1.594036e-10    -6.988183e-11    0.000000e+00
-9.879425e-11    -2.061392e-11    0.000000e+00
-5.836733e-10    2.541710e-10    0.000000e+00
-4.738384e-10    1.979877e-10    0.000000e+00
-2.788033e-10    1.017578e-10    0.000000e+00
-5.374289e-10    4.912488e-10    0.000000e+00
-7.384618e-10    7.141715e-10    0.000000e+00
-2.804468e-10    2.231508e-10    0.000000e+00
-2.472732e-10    -4.712570e-11    0.000000e+00
-3.571073e-10    2.740467e-11    0.000000e+00
-2.634581e-10    -1.096653e-10    0.000000e+00
-3.962666e-10    -6.314007e-12    0.000000e+00
-1.532065e-10    -6.261894e-12    0.000000e+00
-2.194367e-10    2.996046e-11    0.000000e+00
-6.017163e-11    -1.022097e-10    0.000000e+00
-5.650983e-11    -5.967323e-11    0.000000e+00
-3.427832e-11    -2.267387e-11    0.000000e+00
-9.761845e-11    -6.876822e-11    0.000000e+00
-1.026607e-10    -1.227369e-10    0.000000e+00
-5.995498e-11    -2.393716e-11    0.000000e+00
-1.294578e-11    -4.335305e-11    0.000000e+00
-3.018989e-11    -5.008418e-11    0.000000e+00
-1.424770e-11    -7.054844e-11    0.000000e+00
-3.269906e-11    -8.322195e-11    0.000000e+00
-7.642429e-12    -1.817915e-11    0.000000e+00
-1.805040e-11    -2.019940e-11    0.000000e+00
4.195726e-09    6.354219e-08    0.000000e+00
5.368969e-09    6.603927e-08    0.000000e+00
5.972583e-09    6.215950e-08    0.000000e+00
1.260870e-09    6.287121e-08    0.000000e+00
2.379942e-09    6.540985e-08    0.000000e+00
3.031010e-09    6.139333e-08    0.000000e+00
-1.648250e-09    6.215324e-08    0.000000e+00
-5.562794e-10    6.472793e-08    0.000000e+00
1.596672e-10    6.059743e-08    0.000000e+00
-3.498368e-09    6.397461e-08    0.000000e+00
-2.701258e-09    5.975172e-08    0.000000e+00
-4.201418e-09    6.843798e-08    0.000000e+00
-2.393949e-09    6.658465e-08    0.000000e+00
-4.761886e-09    7.293818e-08    0.000000e+00
-3.021285e-09    7.106760e-08    0.000000e+00
-5.166063e-09    7.743506e-08    0.000000e+00
-3.512826e-09    7.556743e-08    0.000000e+00
-5.398389e-09    8.188112e-08    0.000000e+00
-3.856100e-09    8.004136e-08    0.000000e+00
-5.441811e-09    8.621837e-08    0.000000e+00
-4.038184e-09    8.443745e-08    0.000000e+00
-5.278162e-09    9.037518e-08    0.000000e+00
-4.045762e-09    8.869187e-08    0.000000e+00
-4.889133e-09    9.426302e-08    0.000000e+00
-3.865829e-09    9.272562e-08    0.000000e+00
-4.256914e-09    9.777450e-08    0.000000e+00
-3.486219e-09    9.644212e-08    0.000000e+00
-3.369723e-09    1.007796e-07    0.000000e+00
-2.899072e-09    9.972116e-08    0.000000e+00
-2.224566e-09    1.031540e-07    0.000000e+00
-2.097217e-09    1.024296e-07    0.000000e+00
-9.216817e-10    1.050193e-07    0.000000e+00
-1.096385e-09    1.044804e-07    0.000000e+00
1.238182e-10    1.065855e-07    0.000000e+00
2.078018e-11    1.057588e-07    0.000000e+00
-3.281858e-10    1.053924e-07    0.000000e+00
-1.044400e-11    1.055540e-07    0.000000e+00
2.126383e-12    1.053959e-07    0.000000e+00
3.784775e-10    1.051721e-07    0.000000e+00
1.023702e-09    1.039440e-07    0.000000e+00
3.115400e-10    1.048314e-07    0.000000e+00
1.502252e-09    1.017631e-07    0.000000e+00
5.386286e-10    1.030127e-07    0.000000e+00
1.874183e-09    9.891012e-08    0.000000e+00
7.082178e-10    1.004172e-07    0.000000e+00
2.201197e-09    9.554840e-08    0.000000e+00
8.681500e-10    9.723947e-08    0.000000e+00
2.521993e-09    9.180439e-08    0.000000e+00
1.052508e-09    9.362159e-08    0.000000e+00
2.863882e-09    8.778257e-08    0.000000e+00
1.284114e-09    8.968123e-08    0.000000e+00
3.246497e-09    8.356876e-08    0.000000e+00
1.578837e-09    8.551328e-08    0.000000e+00
3.683048e-09    7.923378e-08    0.000000e+00
1.946799e-09    8.119552e-08    0.000000e+00
4.181152e-09    7.483681e-08    0.000000e+00
2.393401e-09    7.679193e-08    0.000000e+00
4.743598e-09    7.042574e-08    0.000000e+00
2.920054e-09    7.235534e-08    0.000000e+00
3.524564e-09    6.792732e-08    0.000000e+00
-1.394549e-09    8.927140e-08    0.000000e+00
-2.683144e-09    8.690830e-08    0.000000e+00
-2.684301e-09    9.105169e-08    0.000000e+00
4.553409e-11    8.742321e-08    0.000000e+00
-1.315235e-10    9.152166e-08    0.000000e+00
-5.713456e-10    7.622969e-08    0.000000e+00
-1.792123e-09    7.367126e-08    0.000000e+00
-2.228395e-09    7.815408e-08    0.000000e+00
1.164293e-09    7.429874e-08    0.000000e+00
6.927294e-10    7.874790e-08    0.000000e+00
5.565567e-10    6.728916e-08    0.000000e+00
-1.229453e-09    6.918370e-08    0.000000e+00
1.730631e-09    6.984039e-08    0.000000e+00
-6.078013e-11    7.175281e-08    0.000000e+00
-9.674173e-10    8.067815e-08    0.000000e+00
-2.528435e-09    8.258551e-08    0.000000e+00
3.195361e-10    8.314179e-08    0.000000e+00
-1.243205e-09    8.504652e-08    0.000000e+00
-1.101184e-09    1.002037e-07    0.000000e+00
-2.202834e-09    9.842923e-08    0.000000e+00
-1.718042e-09    1.014232e-07    0.000000e+00
-2.246443e-10    9.880231e-08    0.000000e+00
-1.689795e-10    1.017444e-07    0.000000e+00
-1.419637e-09    9.327423e-08    0.000000e+00
-2.525437e-09    9.492863e-08    0.000000e+00
-2.178533e-10    9.535073e-08    0.000000e+00
-1.319914e-09    9.695939e-08    0.000000e+00
-7.725176e-10    1.028673e-07    0.000000e+00
-1.064821e-09    1.037707e-07    0.000000e+00
-7.853622e-11    1.040168e-07    0.000000e+00
-3.581038e-10    1.047798e-07    0.000000e+00
8.937421e-09    3.064558e-08    0.000000e+00
9.404767e-09    3.068861e-08    0.000000e+00
9.524259e-09    3.059922e-08    0.000000e+00
8.230949e-09    3.110694e-08    0.000000e+00
8.832638e-09    3.101373e-08    0.000000e+00
7.293647e-09    3.209462e-08    0.000000e+00
8.141764e-09    3.185893e-08    0.000000e+00
6.138189e-09    3.375070e-08    0.000000e+00
7.237468e-09    3.338232e-08    0.000000e+00
4.925182e-09    3.593509e-08    0.000000e+00
6.217723e-09    3.543128e-08    0.000000e+00
3.695976e-09    3.854485e-08    0.000000e+00
5.141677e-09    3.790064e-08    0.000000e+00
2.480612e-09    4.150757e-08    0.000000e+00
4.048254e-09    4.071716e-08    0.000000e+00
1.303361e-09    4.476192e-08    0.000000e+00
2.965035e-09    4.382236e-08    0.000000e+00
1.831623e-10    4.825561e-08    0.000000e+00
1.914347e-09    4.716650e-08    0.000000e+00
-8.651737e-10    5.194374e-08    0.000000e+00
9.136970e-10    5.070645e-08    0.000000e+00
-1.829961e-09    5.578750e-08    0.000000e+00
-2.301621e-11    5.440516e-08    0.000000e+00
-8.838774e-10    5.823033e-08    0.000000e+00
6.540312e-09    5.879153e-08    0.000000e+00
4.780783e-09    6.002892e-08    0.000000e+00
7.128791e-09    5.549194e-08    0.000000e+00
5.414001e-09    5.658605e-08    0.000000e+00
7.726863e-09    5.227747e-08    0.000000e+00
6.073572e-09    5.322759e-08    0.000000e+00
8.320896e-09    4.916670e-08    0.000000e+00
6.746389e-09    4.997419e-08    0.000000e+00
8.894158e-09    4.618046e-08    0.000000e+00
7.417274e-09    4.684825e-08    0.000000e+00
9.426550e-09    4.334257e-08    0.000000e+00
8.067663e-09    4.387544e-08    0.000000e+00
9.893821e-09    4.067948e-08    0.000000e+00
8.675120e-09    4.108477e-08    0.000000e+00
1.026889e-08    3.822468e-08    0.000000e+00
9.212793e-09    3.851102e-08    0.000000e+00
1.051768e-08    3.600114e-08    0.000000e+00
9.649174e-09    3.619264e-08    0.000000e+00
1.063362e-08    3.408676e-08    0.000000e+00
9.956380e-09    3.418664e-08    0.000000e+00
1.049333e-08    3.228549e-08    0.000000e+00
1.011235e-08    3.242854e-08    0.000000e+00
1.021677e-08    3.126037e-08    0.000000e+00
1.010345e-08    3.087437e-08    0.000000e+00
9.795505e-09    3.096217e-08    0.000000e+00
9.921494e-09    3.142144e-08    0.000000e+00
1.015066e-08    3.100236e-08    0.000000e+00
9.425304e-09    3.099310e-08    0.000000e+00
9.863089e-09    3.082075e-08    0.000000e+00
6.008655e-09    4.223931e-08    0.000000e+00
6.650137e-09    4.452812e-08    0.000000e+00
7.388666e-09    4.160552e-08    0.000000e+00
4.541557e-09    4.297970e-08    0.000000e+00
5.510937e-09    4.001655e-08    0.000000e+00
3.463529e-09    5.195814e-08    0.000000e+00
4.393179e-09    5.430350e-08    0.000000e+00
5.133720e-09    5.090655e-08    0.000000e+00
1.751178e-09    5.312768e-08    0.000000e+00
2.643463e-09    4.957353e-08    0.000000e+00
1.922775e-09    5.914140e-08    0.000000e+00
3.684372e-09    5.780514e-08    0.000000e+00
9.158034e-10    5.681089e-08    0.000000e+00
2.667974e-09    5.549784e-08    0.000000e+00
4.296012e-09    4.854835e-08    0.000000e+00
5.891640e-09    4.763896e-08    0.000000e+00
3.579008e-09    4.617906e-08    0.000000e+00
5.150526e-09    4.529757e-08    0.000000e+00
8.343423e-09    3.464521e-08    0.000000e+00
8.699745e-09    3.648032e-08    0.000000e+00
9.205056e-09    3.437359e-08    0.000000e+00
7.359654e-09    3.500024e-08    0.000000e+00
8.169840e-09    3.307240e-08    0.000000e+00
6.847393e-09    3.941226e-08    0.000000e+00
8.081884e-09    3.890728e-08    0.000000e+00
6.461373e-09    3.733634e-08    0.000000e+00
7.639091e-09    3.686027e-08    0.000000e+00
8.943527e-09    3.281565e-08    0.000000e+00
9.608375e-09    3.262797e-08    0.000000e+00
8.868990e-09    3.169935e-08    0.000000e+00
9.450017e-09    3.155177e-08    0.000000e+00
4.684116e-10    2.712221e-08    0.000000e+00
5.503134e-10    2.711442e-08    0.000000e+00
4.141186e-10    2.703693e-08    0.000000e+00
4.670010e-10    2.719826e-08    0.000000e+00
5.289773e-10    2.722755e-08    0.000000e+00
4.135862e-10    2.709051e-08    0.000000e+00
4.879686e-10    2.725443e-08    0.000000e+00
5.310838e-10    2.732504e-08    0.000000e+00
4.345519e-10    2.712810e-08    0.000000e+00
5.552212e-10    2.739994e-08    0.000000e+00
4.758890e-10    2.714473e-08    0.000000e+00
7.161294e-10    2.766801e-08    0.000000e+00
6.131700e-10    2.748087e-08    0.000000e+00
9.706580e-10    2.795983e-08    0.000000e+00
8.240609e-10    2.772455e-08    0.000000e+00
1.332096e-09    2.827902e-08    0.000000e+00
1.132837e-09    2.798899e-08    0.000000e+00
1.814277e-09    2.862723e-08    0.000000e+00
1.552924e-09    2.827678e-08    0.000000e+00
2.429215e-09    2.900316e-08    0.000000e+00
2.097148e-09    2.858894e-08    0.000000e+00
3.184021e-09    2.940141e-08    0.000000e+00
2.775238e-09    2.892426e-08    0.000000e+00
4.077023e-09    2.981122e-08    0.000000e+00
3.590611e-09    2.927839e-08    0.000000e+00
5.093058e-09    3.021497e-08    0.000000e+00
4.536441e-09    2.964288e-08    0.000000e+00
6.197945e-09    3.058683e-08    0.000000e+00
5.590924e-09    3.000403e-08    0.000000e+00
7.332726e-09    3.089095e-08    0.000000e+00
6.712064e-09    3.034178e-08    0.000000e+00
8.405105e-09    3.108080e-08    0.000000e+00
7.831524e-09    3.062871e-08    0.000000e+00
9.285871e-09    3.108742e-08    0.000000e+00
8.848189e-09    3.082715e-08    0.000000e+00
9.718636e-09    3.085568e-08    0.000000e+00
9.609707e-09    3.089358e-08    0.000000e+00
9.823145e-09    3.078651e-08    0.000000e+00
9.577218e-09    2.999206e-08    0.000000e+00
9.989003e-09    3.069378e-08    0.000000e+00
8.861500e-09    2.938946e-08    0.000000e+00
9.360562e-09    3.005045e-08    0.000000e+00
7.935095e-09    2.887594e-08    0.000000e+00
8.524228e-09    2.954168e-08    0.000000e+00
6.918850e-09    2.847898e-08    0.000000e+00
7.519868e-09    2.910453e-08    0.000000e+00
5.885884e-09    2.817042e-08    0.000000e+00
6.460791e-09    2.874447e-08    0.000000e+00
4.894494e-09    2.793448e-08    0.000000e+00
5.416128e-09    2.844734e-08    0.000000e+00
3.981956e-09    2.775386e-08    0.000000e+00
4.437131e-09    2.820282e-08    0.000000e+00
3.170690e-09    2.761423e-08    0.000000e+00
3.554849e-09    2.800012e-08    0.000000e+00
2.471195e-09    2.750340e-08    0.000000e+00
2.786001e-09    2.782975e-08    0.000000e+00
1.885305e-09    2.741161e-08    0.000000e+00
2.136229e-09    2.768344e-08    0.000000e+00
1.408866e-09    2.733132e-08    0.000000e+00
1.603411e-09    2.755436e-08    0.000000e+00
1.034032e-09    2.725712e-08    0.000000e+00
1.180403e-09    2.743711e-08    0.000000e+00
7.511625e-10    2.718547e-08    0.000000e+00
8.573236e-10    2.732770e-08    0.000000e+00
6.234235e-10    2.722338e-08    0.000000e+00
3.560962e-09    2.863738e-08    0.000000e+00
3.154061e-09    2.880166e-08    0.000000e+00
4.024269e-09    2.911711e-08    0.000000e+00
3.148482e-09    2.820884e-08    0.000000e+00
3.990719e-09    2.843813e-08    0.000000e+00
1.143390e-09    2.771997e-08    0.000000e+00
9.662158e-10    2.774251e-08    0.000000e+00
1.330715e-09    2.797633e-08    0.000000e+00
9.868243e-10    2.750523e-08    0.000000e+00
1.355816e-09    2.765769e-08    0.000000e+00
6.065319e-10    2.736160e-08    0.000000e+00
7.038480e-10    2.752640e-08    0.000000e+00
7.150097e-10    2.736276e-08    0.000000e+00
8.281749e-10    2.753457e-08    0.000000e+00
2.102852e-09    2.813858e-08    0.000000e+00
1.810185e-09    2.823015e-08    0.000000e+00
2.415725e-09    2.850528e-08    0.000000e+00
1.833326e-09    2.782319e-08    0.000000e+00
2.428994e-09    2.800545e-08    0.000000e+00
1.564432e-09    2.792042e-08    0.000000e+00
2.767330e-09    2.837691e-08    0.000000e+00
7.691340e-09    2.989543e-08    0.000000e+00
7.214505e-09    3.010947e-08    0.000000e+00
8.298019e-09    3.041073e-08    0.000000e+00
7.069264e-09    2.932997e-08    0.000000e+00
8.131368e-09    2.970790e-08    0.000000e+00
5.499630e-09    2.922743e-08    0.000000e+00
5.013810e-09    2.944671e-08    0.000000e+00
6.093916e-09    2.978179e-08    0.000000e+00
4.944600e-09    2.869833e-08    0.000000e+00
5.985207e-09    2.899420e-08    0.000000e+00
4.477933e-09    2.892104e-08    0.000000e+00
6.590086e-09    2.955407e-08    0.000000e+00
9.551547e-09    3.058772e-08    0.000000e+00
9.236596e-09    3.066327e-08    0.000000e+00
9.848608e-09    3.082007e-08    0.000000e+00
9.074128e-09    3.013065e-08    0.000000e+00
9.802725e-09    3.058744e-08    0.000000e+00
8.716498e-09    3.024359e-08    0.000000e+00
1.002062e-08    3.084840e-08    0.000000e+00
6.896554e-09    2.519857e-08    0.000000e+00
6.485248e-09    2.560168e-08    0.000000e+00
7.048586e-09    2.505228e-08    0.000000e+00
6.957652e-09    2.502058e-08    0.000000e+00
6.646915e-09    2.524990e-08    0.000000e+00
7.139514e-09    2.495490e-08    0.000000e+00
6.948161e-09    2.485021e-08    0.000000e+00
6.721563e-09    2.497982e-08    0.000000e+00
7.116506e-09    2.490371e-08    0.000000e+00
6.743962e-09    2.469254e-08    0.000000e+00
7.033518e-09    2.482425e-08    0.000000e+00
6.153554e-09    2.463433e-08    0.000000e+00
6.451144e-09    2.483591e-08    0.000000e+00
5.367518e-09    2.468442e-08    0.000000e+00
5.706702e-09    2.489624e-08    0.000000e+00
4.514320e-09    2.481911e-08    0.000000e+00
4.849437e-09    2.501820e-08    0.000000e+00
3.683044e-09    2.500810e-08    0.000000e+00
3.989253e-09    2.517905e-08    0.000000e+00
2.926099e-09    2.522917e-08    0.000000e+00
3.190857e-09    2.536458e-08    0.000000e+00
2.270287e-09    2.546651e-08    0.000000e+00
2.488602e-09    2.556427e-08    0.000000e+00
1.725042e-09    2.570939e-08    0.000000e+00
1.897074e-09    2.577068e-08    0.000000e+00
1.288849e-09    2.595151e-08    0.000000e+00
1.417657e-09    2.597904e-08    0.000000e+00
9.543589e-10    2.619013e-08    0.000000e+00
1.044178e-09    2.618692e-08    0.000000e+00
7.123416e-10    2.642545e-08    0.000000e+00
7.673006e-10    2.639386e-08    0.000000e+00
5.546107e-10    2.665998e-08    0.000000e+00
5.778335e-10    2.660104e-08    0.000000e+00
4.760529e-10    2.689794e-08    0.000000e+00
4.690828e-10    2.681102e-08    0.000000e+00
4.383948e-10    2.702737e-08    0.000000e+00
3.537694e-10    2.695383e-08    0.000000e+00
3.760657e-10    2.700939e-08    0.000000e+00
3.767576e-10    2.687377e-08    0.000000e+00
3.684527e-10    2.690069e-08    0.000000e+00
4.804805e-10    2.679967e-08    0.000000e+00
4.410112e-10    2.679722e-08    0.000000e+00
6.672853e-10    2.673435e-08    0.000000e+00
5.942994e-10    2.670048e-08    0.000000e+00
9.436978e-10    2.667967e-08    0.000000e+00
8.334878e-10    2.661163e-08    0.000000e+00
1.318909e-09    2.663553e-08    0.000000e+00
1.167153e-09    2.653090e-08    0.000000e+00
1.802426e-09    2.659865e-08    0.000000e+00
1.605282e-09    2.645667e-08    0.000000e+00
2.400748e-09    2.656125e-08    0.000000e+00
2.156375e-09    2.638459e-08    0.000000e+00
3.112916e-09    2.650960e-08    0.000000e+00
2.823473e-09    2.630646e-08    0.000000e+00
3.924901e-09    2.642225e-08    0.000000e+00
3.599037e-09    2.620905e-08    0.000000e+00
4.802349e-09    2.626921e-08    0.000000e+00
4.458452e-09    2.607313e-08    0.000000e+00
5.686011e-09    2.600935e-08    0.000000e+00
5.353180e-09    2.587259e-08    0.000000e+00
6.206568e-09    2.558014e-08    0.000000e+00
1.740243e-09    2.612262e-08    0.000000e+00
2.092622e-09    2.586212e-08    0.000000e+00
1.567712e-09    2.603606e-08    0.000000e+00
1.936304e-09    2.623870e-08    0.000000e+00
1.432069e-09    2.634550e-08    0.000000e+00
4.657867e-09    2.554106e-08    0.000000e+00
5.197644e-09    2.520679e-08    0.000000e+00
4.316378e-09    2.535977e-08    0.000000e+00
5.006743e-09    2.571495e-08    0.000000e+00
4.118741e-09    2.588124e-08    0.000000e+00
6.357944e-09    2.519485e-08    0.000000e+00
6.040720e-09    2.507541e-08    0.000000e+00
5.886443e-09    2.550467e-08    0.000000e+00
5.546375e-09    2.537085e-08    0.000000e+00
2.999088e-09    2.584162e-08    0.000000e+00
3.479906e-09    2.552215e-08    0.000000e+00
2.731781e-09    2.569031e-08    0.000000e+00
3.289191e-09    2.601523e-08    0.000000e+00
2.556159e-09    2.613090e-08    0.000000e+00
3.790421e-09    2.569622e-08    0.000000e+00
2.312251e-09    2.598259e-08    0.000000e+00
6.711554e-10    2.655544e-08    0.000000e+00
8.389732e-10    2.638768e-08    0.000000e+00
6.163924e-10    2.656588e-08    0.000000e+00
7.431030e-10    2.657047e-08    0.000000e+00
5.389163e-10    2.669154e-08    0.000000e+00
1.281637e-09    2.626394e-08    0.000000e+00
1.152798e-09    2.621128e-08    0.000000e+00
1.037544e-09    2.645538e-08    0.000000e+00
9.286178e-10    2.640791e-08    0.000000e+00
4.093454e-10    2.686413e-08    0.000000e+00
4.769847e-10    2.674723e-08    0.000000e+00
4.162915e-10    2.693374e-08    0.000000e+00
4.174712e-10    2.681865e-08    0.000000e+00
3.752364e-10    2.695163e-08    0.000000e+00
5.001009e-10    2.670724e-08    0.000000e+00
3.971901e-10    2.702727e-08    0.000000e+00
-5.737766e-12    -8.944008e-11    0.000000e+00
-3.122901e-14    -9.680394e-11    0.000000e+00
-1.506921e-13    -7.734907e-11    0.000000e+00
-1.840231e-11    -1.019140e-10    0.000000e+00
-9.485392e-12    -1.037538e-10    0.000000e+00
-1.337381e-11    -8.311330e-11    0.000000e+00
-3.494143e-11    -1.253334e-10    0.000000e+00
-2.002642e-11    -1.234061e-10    0.000000e+00
-3.026155e-11    -9.868597e-11    0.000000e+00
-5.870256e-11    -1.563150e-10    0.000000e+00
-3.297547e-11    -1.538586e-10    0.000000e+00
-5.482310e-11    -1.223369e-10    0.000000e+00
-9.429774e-11    -1.858137e-10    0.000000e+00
-5.023430e-11    -1.893889e-10    0.000000e+00
-9.223384e-11    -1.488541e-10    0.000000e+00
-1.498750e-10    -1.932419e-10    0.000000e+00
-7.553926e-11    -2.165160e-10    0.000000e+00
-1.497011e-10    -1.651492e-10    0.000000e+00
-2.391280e-10    -1.363591e-10    0.000000e+00
-1.170908e-10    -2.058677e-10    0.000000e+00
-2.371437e-10    -1.443875e-10    0.000000e+00
-3.975043e-10    6.288622e-11    0.000000e+00
-1.968954e-10    -1.022588e-10    0.000000e+00
-3.726134e-10    -2.991016e-11    0.000000e+00
-6.558466e-10    5.371005e-10    0.000000e+00
-3.526172e-10    2.060018e-10    0.000000e+00
-5.721443e-10    2.583800e-10    0.000000e+00
-1.186031e-09    1.471468e-09    0.000000e+00
-6.817434e-10    9.070240e-10    0.000000e+00
-8.878793e-10    8.732148e-10    0.000000e+00
-1.179245e-09    2.440688e-09    0.000000e+00
-2.577351e-09    4.634992e-09    0.000000e+00
-1.046562e-09    1.742870e-09    0.000000e+00
1.264229e-10    2.647941e-09    0.000000e+00
-4.679951e-10    1.496236e-09    0.000000e+00
-6.333733e-10    4.235665e-09    0.000000e+00
1.692579e-09    2.805374e-09    0.000000e+00
7.580591e-10    1.604048e-09    0.000000e+00
1.066402e-09    4.189043e-09    0.000000e+00
2.052240e-09    1.834743e-09    0.000000e+00
3.040117e-09    4.265722e-09    0.000000e+00
1.187298e-09    5.801610e-10    0.000000e+00
1.124162e-09    9.486975e-10    0.000000e+00
6.480284e-10    6.525280e-11    0.000000e+00
6.696595e-10    1.864389e-10    0.000000e+00
3.367646e-10    -1.377159e-10    0.000000e+00
3.772061e-10    -1.087201e-10    0.000000e+00
1.574468e-10    -2.021155e-10    0.000000e+00
1.964311e-10    -2.100377e-10    0.000000e+00
5.815039e-11    -2.033891e-10    0.000000e+00
8.920298e-11    -2.236546e-10    0.000000e+00
8.499496e-12    -1.802763e-10    0.000000e+00
2.993761e-11    -2.011575e-10    0.000000e+00
-1.074697e-11    -1.527606e-10    0.000000e+00
1.617793e-12    -1.688389e-10    0.000000e+00
-1.238341e-11    -1.308831e-10    0.000000e+00
-7.654025e-12    -1.401609e-10    0.000000e+00
-5.056148e-12    -1.191325e-10    0.000000e+00
-6.184078e-12    -1.213487e-10    0.000000e+00
2.328823e-13    -1.149644e-10    0.000000e+00
1.176690e-13    -1.088458e-10    0.000000e+00
-2.774806e-12    -1.140068e-10    0.000000e+00
-3.671714e-12    -1.056592e-10    0.000000e+00
1.943373e-11    -2.371920e-10    0.000000e+00
9.171117e-11    -2.382131e-10    0.000000e+00
3.664407e-11    -2.225027e-10    0.000000e+00
-3.017994e-11    -2.357299e-10    0.000000e+00
-2.597108e-11    -2.183404e-10    0.000000e+00
1.233272e-10    1.339282e-10    0.000000e+00
5.015506e-10    4.212037e-10    0.000000e+00
3.183088e-10    -3.409011e-11    0.000000e+00
-2.143552e-10    4.338916e-10    0.000000e+00
-8.896192e-11    -2.122797e-11    0.000000e+00
1.175597e-10    8.414901e-10    0.000000e+00
9.286301e-11    -1.465263e-10    0.000000e+00
1.824589e-10    -1.992918e-10    0.000000e+00
-4.292761e-11    -1.957993e-10    0.000000e+00
5.165691e-11    -2.342074e-10    0.000000e+00
-8.304516e-12    -1.686190e-10    0.000000e+00
7.296073e-12    -1.881121e-10    0.000000e+00
-4.882572e-12    -1.535285e-10    0.000000e+00
-2.223181e-11    -1.820335e-10    0.000000e+00
-1.709926e-11    -1.461890e-10    0.000000e+00
1.228605e-13    -2.064617e-10    0.000000e+00
-9.186362e-12    -1.365523e-10    0.000000e+00
-6.579223e-12    -1.275928e-10    0.000000e+00
-1.073456e-11    -1.195829e-10    0.000000e+00
-5.600462e-12    -1.159432e-10    0.000000e+00
-3.073331e-09    9.022202e-09    0.000000e+00
-1.854213e-09    6.490945e-09    0.000000e+00
-2.336834e-09    1.342407e-08    0.000000e+00
-1.640779e-09    1.088901e-08    0.000000e+00
-8.022708e-10    1.737471e-08    0.000000e+00
-5.388199e-10    1.505043e-08    0.000000e+00
1.147401e-09    2.049344e-08    0.000000e+00
1.082317e-09    1.858221e-08    0.000000e+00
3.131381e-09    2.269389e-08    0.000000e+00
2.881140e-09    2.126602e-08    0.000000e+00
4.860198e-09    2.404481e-08    0.000000e+00
4.557626e-09    2.309828e-08    0.000000e+00
6.134633e-09    2.470852e-08    0.000000e+00
5.892143e-09    2.418710e-08    0.000000e+00
6.860404e-09    2.489607e-08    0.000000e+00
6.751370e-09    2.470842e-08    0.000000e+00
7.094026e-09    2.486587e-08    0.000000e+00
7.331031e-09    2.433747e-08    0.000000e+00
7.261783e-09    2.473752e-08    0.000000e+00
7.349784e-09    2.332620e-08    0.000000e+00
7.320954e-09    2.404544e-08    0.000000e+00
7.105637e-09    2.191056e-08    0.000000e+00
7.052040e-09    2.300335e-08    0.000000e+00
6.634089e-09    1.999428e-08    0.000000e+00
6.476787e-09    2.148290e-08    0.000000e+00
6.002552e-09    1.752945e-08    0.000000e+00
5.660921e-09    1.937937e-08    0.000000e+00
5.295811e-09    1.454375e-08    0.000000e+00
4.714514e-09    1.665630e-08    0.000000e+00
4.582325e-09    1.114609e-08    0.000000e+00
3.766214e-09    1.336012e-08    0.000000e+00
3.866442e-09    7.569846e-09    0.000000e+00
2.929411e-09    9.655843e-09    0.000000e+00
2.255292e-09    5.892290e-09    0.000000e+00
4.321363e-09    2.033742e-08    0.000000e+00
2.868788e-09    1.952176e-08    0.000000e+00
4.410506e-09    2.182191e-08    0.000000e+00
4.462829e-09    1.856678e-08    0.000000e+00
5.575850e-09    2.094101e-08    0.000000e+00
6.737104e-10    1.022460e-08    0.000000e+00
-6.608467e-10    8.384927e-09    0.000000e+00
5.329972e-11    1.260124e-08    0.000000e+00
1.511642e-09    7.917629e-09    0.000000e+00
2.261247e-09    1.187342e-08    0.000000e+00
2.234884e-10    6.113831e-09    0.000000e+00
1.643558e-09    1.418954e-08    0.000000e+00
1.321725e-09    1.641537e-08    0.000000e+00
3.298199e-09    1.551134e-08    0.000000e+00
2.939225e-09    1.762414e-08    0.000000e+00
6.527775e-09    2.360557e-08    0.000000e+00
5.720786e-09    2.335912e-08    0.000000e+00
6.646663e-09    2.426665e-08    0.000000e+00
6.481565e-09    2.265301e-08    0.000000e+00
7.071057e-09    2.379912e-08    0.000000e+00
5.572485e-09    2.230487e-08    0.000000e+00
7.089137e-09    2.438227e-08    0.000000e+00
7.113650e-09    2.472083e-08    0.000000e+00
7.290792e-09    2.451779e-08    0.000000e+00
7.224118e-09    2.480191e-08    0.000000e+00
0.000000e+00    0.000000e+00    0.000000e+00
-4.569867e-14    -7.692997e-12    0.000000e+00
0.000000e+00    0.000000e+00    0.000000e+00
-3.917841e-12    -8.032572e-12    0.000000e+00
0.000000e+00    0.000000e+00    0.000000e+00
-9.326082e-12    -8.638280e-12    0.000000e+00
0.000000e+00    0.000000e+00    0.000000e+00
-1.789293e-11    -9.172722e-12    0.000000e+00
0.000000e+00    0.000000e+00    0.000000e+00
-3.159094e-11    -8.799602e-12    0.000000e+00
0.000000e+00    0.000000e+00    0.000000e+00
-5.256266e-11    -5.923882e-12    0.000000e+00
0.000000e+00    0.000000e+00    0.000000e+00
-8.220973e-11    2.295481e-12    0.000000e+00
0.000000e+00    0.000000e+00    0.000000e+00
-1.187813e-10    2.018717e-11    0.000000e+00
0.000000e+00    0.000000e+00    0.000000e+00
-1.520546e-10    5.302632e-11    0.000000e+00
0.000000e+00    0.000000e+00    0.000000e+00
-1.581485e-10    1.026676e-10    0.000000e+00
-7.169395e-11    1.679395e-10    0.000000e+00
-3.090724e-10    5.479773e-10    0.000000e+00
-2.526311e-10    2.924171e-10    0.000000e+00
-5.624533e-10    9.699725e-10    0.000000e+00
-5.000217e-10    6.399720e-10    0.000000e+00
-8.526021e-10    1.088588e-09    0.000000e+00
-1.906908e-13    -5.324008e-11    0.000000e+00
-6.834124e-12    -6.708614e-11    0.000000e+00
-1.441838e-13    -2.837293e-11    0.000000e+00
-6.164210e-12    -4.144203e-11    0.000000e+00
-3.619314e-12    -1.760777e-11    0.000000e+00
-1.704572e-10    -1.008755e-10    0.000000e+00
-2.106507e-10    -1.282585e-10    0.000000e+00
-1.315000e-10    -1.305543e-10    0.000000e+00
-1.350453e-10    -4.246756e-11    0.000000e+00
-2.000345e-10    -6.306213e-11    0.000000e+00
-1.254704e-10    -7.115777e-11    0.000000e+00
-1.240365e-10    -1.524292e-11    0.000000e+00
-7.742537e-11    -2.318453e-11    0.000000e+00
-5.382576e-10    2.312176e-10    0.000000e+00
-6.750313e-10    4.738199e-10    0.000000e+00
-4.849820e-10    1.010198e-10    0.000000e+00
-3.853400e-10    1.531454e-10    0.000000e+00
-5.134327e-10    3.244045e-10    0.000000e+00
-4.181946e-10    9.744532e-11    0.000000e+00
-2.929053e-10    1.581504e-10    0.000000e+00
-2.528563e-10    6.180117e-11    0.000000e+00
-6.498551e-10    6.094514e-10    0.000000e+00
-4.113277e-10    3.532008e-10    0.000000e+00
-3.000516e-10    -1.920219e-11    0.000000e+00
-2.653379e-10    -7.691273e-11    0.000000e+00
-2.087930e-10    -2.313806e-11    0.000000e+00
-3.927964e-10    1.459729e-11    0.000000e+00
-2.999984e-10    3.238819e-11    0.000000e+00
-3.247610e-10    -7.190003e-11    0.000000e+00
-1.855669e-10    8.600896e-12    0.000000e+00
-6.073844e-11    -8.086732e-11    0.000000e+00
-7.901894e-11    -1.128291e-10    0.000000e+00
-4.489453e-11    -9.214357e-11    0.000000e+00
-4.740520e-11    -3.987543e-11    0.000000e+00
-7.476504e-11    -6.468616e-11    0.000000e+00
-4.181724e-11    -5.470574e-11    0.000000e+00
-4.562356e-11    -2.367606e-11    0.000000e+00
-2.517016e-11    -2.152993e-11    0.000000e+00
-1.043086e-10    -9.547938e-11    0.000000e+00
-8.232289e-11    -4.441991e-11    0.000000e+00
-2.069720e-11    -4.628470e-11    0.000000e+00
-1.410267e-11    -5.704759e-11    0.000000e+00
-1.071285e-11    -3.017328e-11    0.000000e+00
-3.266085e-11    -6.670156e-11    0.000000e+00
-2.513757e-11    -3.429748e-11    0.000000e+00
-2.260881e-11    -7.595676e-11    0.000000e+00
-1.228452e-11    -1.914988e-11    0.000000e+00

CELL_DATA      259
TENSORS Element_Stress4.000000e-01 double
-1.435299e+03 -6.211273e+02        0
-6.211273e+02 -2.827630e+02        0
       0        0 2.592145e+02

-1.401438e+03 -5.210973e+02        0
-5.210973e+02 -2.680603e+02        0
       0        0 -6.519479e+02

-1.306655e+03 -6.180205e+02        0
-6.180205e+02 -3.035799e+02        0
       0        0 4.906572e+02

-1.134764e+03 -4.694254e+02        0
-4.694254e+02 -2.649688e+02        0
       0        0 -2.816998e+02

-1.562148e+03 -5.771816e+02        0
-5.771816e+02 -2.131608e+02        0
       0        0 1.218438e+03

-1.573763e+03 -6.167708e+02        0
-6.167708e+02 -2.420017e+02        0
       0        0 1.317297e+03

-1.660081e+03 -5.623168e+02        0
-5.623168e+02 -2.678804e+02        0
       0        0 -1.029034e+03

-1.561767e+03 -6.246081e+02        0
-6.246081e+02 -2.635982e+02        0
       0        0 2.562444e+01

-1.556599e+03 -5.427411e+02        0
-5.427411e+02 -1.887332e+02        0
       0        0 1.116629e+03

-2.990475e+03 -9.480865e+02        0
-9.480865e+02 -4.188641e+02        0
       0        0 -2.709992e+03

1.296245e+03 -4.368665e+02        0
-4.368665e+02 -7.062521e+01        0
       0        0 1.751340e+03

-3.068057e+03 -9.432549e+02        0
-9.432549e+02 -1.778303e+03        0
       0        0 -2.786401e+03

2.073271e+03 -3.445095e+02        0
-3.445095e+02 -2.811956e+02        0
       0        0 2.160195e+03

-7.007767e+03 -7.222722e+02        0
-7.222722e+02 -8.373454e+02        0
       0        0 -7.132477e+03

-8.826926e+03 -2.069360e+03        0
-2.069360e+03 -4.652706e+03        0
       0        0 -8.368631e+03

5.633755e+02 -3.804907e+02        0
-3.804907e+02 -4.238438e+01        0
       0        0 1.330863e+03

-2.817050e+03 -8.654148e+02        0
-8.654148e+02 -2.114843e+02        0
       0        0 -2.589363e+03

-6.092270e+03 -7.079826e+02        0
-7.079826e+02 -4.362630e+02        0
       0        0 -6.401842e+03

-2.579679e+03 -7.738560e+02        0
-7.738560e+02 -1.790265e+02        0
       0        0 -2.185148e+03

-4.719486e+02 -3.366322e+02        0
-3.366322e+02 -5.773771e+01        0
       0        0 8.187258e+02

-2.689920e+03 -8.130835e+02        0
-8.130835e+02 -1.817454e+02        0
       0        0 -2.407094e+03

-1.841905e+01 -3.436327e+02        0
-3.436327e+02 -4.748830e+01        0
       0        0 1.022282e+03

-4.717798e+03 -7.408281e+02        0
-7.408281e+02 -2.870538e+02        0
       0        0 -5.105221e+03

-5.353368e+03 -7.318728e+02        0
-7.318728e+02 -3.324452e+02        0
       0        0 -5.740654e+03

-8.221903e+02 -3.461438e+02        0
-3.461438e+02 -6.912150e+01        0
       0        0 6.996377e+02

-2.467069e+03 -7.414576e+02        0
-7.414576e+02 -1.834029e+02        0
       0        0 -1.934971e+03

-4.164648e+03 -7.384404e+02        0
-7.384404e+02 -2.673546e+02        0
       0        0 -4.498218e+03

-2.226520e+03 -6.910162e+02        0
-6.910162e+02 -1.995434e+02        0
       0        0 -1.384584e+03

-1.273202e+03 -3.901735e+02        0
-3.901735e+02 -9.528838e+01        0
       0        0 6.529765e+02

-2.349344e+03 -7.141558e+02        0
-7.141558e+02 -1.908674e+02        0
       0        0 -1.665895e+03

-1.084607e+03 -3.653573e+02        0
-3.653573e+02 -8.167530e+01        0
       0        0 6.488106e+02

-3.254944e+03 -7.102578e+02        0
-7.102578e+02 -2.554073e+02        0
       0        0 -3.370906e+03

-3.680822e+03 -7.274859e+02        0
-7.274859e+02 -2.585190e+02        0
       0        0 -3.920073e+03

-1.401221e+03 -4.179673e+02        0
-4.179673e+02 -1.100805e+02        0
       0        0 7.006620e+02

-2.099045e+03 -6.715585e+02        0
-6.715585e+02 -2.089369e+02        0
       0        0 -1.096246e+03

-2.876732e+03 -6.884091e+02        0
-6.884091e+02 -2.551691e+02        0
       0        0 -2.849732e+03

-1.832321e+03 -6.422390e+02        0
-6.422390e+02 -2.306451e+02        0
       0        0 -5.141399e+02

-1.526141e+03 -4.775467e+02        0
-4.775467e+02 -1.442949e+02        0
       0        0 8.867739e+02

-1.967415e+03 -6.554001e+02        0
-6.554001e+02 -2.191648e+02        0
       0        0 -8.049518e+02

-1.481457e+03 -4.472622e+02        0
-4.472622e+02 -1.262812e+02        0
       0        0 7.816826e+02

-2.223823e+03 -6.336581e+02        0
-6.336581e+02 -2.582761e+02        0
       0        0 -1.883727e+03

-2.536263e+03 -6.628420e+02        0
-6.628420e+02 -2.563893e+02        0
       0        0 -2.354786e+03

-1.547188e+03 -5.094748e+02        0
-5.094748e+02 -1.648007e+02        0
       0        0 1.006135e+03

-1.694354e+03 -6.316274e+02        0
-6.316274e+02 -2.448267e+02        0
       0        0 -2.291524e+02

-1.930341e+03 -6.000255e+02        0
-6.000255e+02 -2.600742e+02        0
       0        0 -1.434938e+03

-1.595804e+03 -6.634559e+02        0
-6.634559e+02 -2.764452e+02        0
       0        0 1.406247e+03

-1.176388e+03 -6.146107e+02        0
-6.146107e+02 -3.273922e+02        0
       0        0 7.130164e+02

-8.561767e+02 -4.051562e+02        0
-4.051562e+02 -2.575423e+02        0
       0        0 8.053004e+01

-1.685326e+03 -7.856739e+02        0
-7.856739e+02 -3.678606e+02        0
       0        0 1.535517e+03

-1.631861e+03 -7.191150e+02        0
-7.191150e+02 -3.178998e+02        0
       0        0 1.480596e+03

-2.494659e+02 -2.283043e+02        0
-2.283043e+02 -2.224576e+02        0
       0        0 7.822318e+02

-9.129267e+02 -6.054979e+02        0
-6.054979e+02 -3.848143e+02        0
       0        0 1.119784e+03

-5.620262e+02 -3.257078e+02        0
-3.257078e+02 -2.439814e+02        0
       0        0 4.352541e+02

-1.045006e+03 -6.105462e+02        0
-6.105462e+02 -3.544364e+02        0
       0        0 9.236520e+02

-1.758958e+03 -8.655604e+02        0
-8.655604e+02 -4.281182e+02        0
       0        0 1.565928e+03

-7.810606e+02 -5.991613e+02        0
-5.991613e+02 -4.182302e+02        0
       0        0 1.298058e+03

8.437295e+01 -1.106105e+02        0
-1.106105e+02 -1.898117e+02        0
       0        0 1.120893e+03

-1.974940e+03 -1.072598e+03        0
-1.072598e+03 -5.852017e+02        0
       0        0 1.532044e+03

-1.856372e+03 -9.588204e+02        0
-9.588204e+02 -4.984786e+02        0
       0        0 1.566623e+03

8.278203e+02 1.980681e+02        0
1.980681e+02 -8.344694e+01        0
       0        0 1.765217e+03

-5.323391e+02 -5.837822e+02        0
-5.837822e+02 -4.943709e+02        0
       0        0 1.580391e+03

4.423084e+02 2.986843e+01        0
2.986843e+01 -1.465038e+02        0
       0        0 1.448734e+03

-6.505578e+02 -5.930053e+02        0
-5.930053e+02 -4.540936e+02        0
       0        0 1.454495e+03

-2.130381e+03 -1.181079e+03        0
-1.181079e+03 -6.736236e+02        0
       0        0 1.457448e+03

-4.288236e+02 -5.630275e+02        0
-5.630275e+02 -6.033685e+02        0
       0        0 1.651981e+03

1.149372e+03 4.229711e+02        0
4.229711e+02 -8.135078e+00        0
       0        0 2.034558e+03

-2.317237e+03 -1.280825e+03        0
-1.280825e+03 -2.349920e+03        0
       0        0 8.177130e+02

-2.303459e+03 -1.398277e+03        0
-1.398277e+03 -1.069881e+03        0
       0        0 1.256559e+03

2.640372e+02 7.854783e+02        0
7.854783e+02 6.900466e+02        0
       0        0 2.159358e+03

-7.151089e+02 2.864851e+02        0
2.864851e+02 -5.888109e+02        0
       0        0 1.645133e+03

9.500474e+02 7.263700e+02        0
7.263700e+02 1.733687e+02        0
       0        0 2.136601e+03

-3.925049e+02 -2.089849e+02        0
-2.089849e+02 -7.829903e+02        0
       0        0 1.657292e+03

3.254718e+01 -5.578351e+01        0
-5.578351e+01 -1.603948e+03        0
       0        0 1.463274e+03

2.665464e+01 -2.054220e+02        0
-2.054220e+02 4.896279e+01        0
       0        0 1.713880e+03

3.597490e+01 -3.257193e+02        0
-3.257193e+02 6.148142e+02        0
       0        0 2.061319e+03

3.249477e+01 -1.119128e+02        0
-1.119128e+02 -6.846350e+02        0
       0        0 1.081277e+03

2.287240e+01 -3.492364e+01        0
-3.492364e+01 -5.688231e+02        0
       0        0 1.135510e+03

4.699168e+01 -1.903259e+02        0
-1.903259e+02 -6.932528e+02        0
       0        0 1.308797e+03

2.832498e+01 -4.926261e+01        0
-4.926261e+01 -8.174467e+02        0
       0        0 1.286841e+03

6.852898e+00 -3.339552e+01        0
-3.339552e+01 -6.824732e+02        0
       0        0 1.053980e+03

1.633707e+01 -1.096903e+02        0
-1.096903e+02 -3.777728e+02        0
       0        0 1.371584e+03

1.206389e+01 2.545477e+00        0
2.545477e+00 -6.750589e+02        0
       0        0 6.567308e+02

1.186042e+01 -2.729717e+00        0
-2.729717e+00 -2.982309e+02        0
       0        0 7.952469e+02

2.135757e+01 -4.795702e+01        0
-4.795702e+01 -6.788868e+02        0
       0        0 8.606278e+02

1.704614e+01 -1.849505e+01        0
-1.849505e+01 -4.005059e+02        0
       0        0 9.670942e+02

-4.892348e+00 6.498580e+01        0
6.498580e+01 -1.015369e+03        0
       0        0 5.303536e+02

5.865072e-02 2.360517e+01        0
2.360517e+01 -8.886383e+02        0
       0        0 7.717840e+02

-8.589257e-01 6.769945e+01        0
6.769945e+01 -6.727079e+02        0
       0        0 3.202745e+02

3.331723e+00 2.449977e+01        0
2.449977e+01 -2.339105e+02        0
       0        0 4.777684e+02

4.710599e+00 4.060475e+01        0
4.060475e+01 -6.730670e+02        0
       0        0 4.756466e+02

7.237859e+00 1.181708e+01        0
1.181708e+01 -2.470798e+02        0
       0        0 6.298967e+02

-1.043001e+01 1.103137e+02        0
1.103137e+02 -1.102968e+03        0
       0        0 1.712278e+02

-8.314302e+00 9.303945e+01        0
9.303945e+01 -1.081307e+03        0
       0        0 3.307644e+02

-7.355186e+00 9.539615e+01        0
9.539615e+01 -6.759626e+02        0
       0        0 8.757530e+01

-2.266040e+00 4.311461e+01        0
4.311461e+01 -2.769689e+02        0
       0        0 2.278952e+02

-4.811884e+00 8.542157e+01        0
8.542157e+01 -6.737527e+02        0
       0        0 1.912325e+02

1.650670e-01 3.498814e+01        0
3.498814e+01 -2.471458e+02        0
       0        0 3.430301e+02

-1.181241e+01 1.218325e+02        0
1.218325e+02 -1.068712e+03        0
       0        0 -4.363778e+01

-1.151756e+01 1.191885e+02        0
1.191885e+02 -1.094758e+03        0
       0        0 4.800427e+01

-9.066608e+00 9.821913e+01        0
9.821913e+01 -6.828834e+02        0
       0        0 -5.150689e+01

-5.084430e+00 5.229195e+01        0
5.229195e+01 -3.556069e+02        0
       0        0 5.873035e+01

-8.702741e+00 9.918241e+01        0
9.918241e+01 -6.791034e+02        0
       0        0 7.422247e+00

-3.996746e+00 4.885692e+01        0
4.885692e+01 -3.152873e+02        0
       0        0 1.331667e+02

-1.085278e+01 1.157229e+02        0
1.157229e+02 -9.997464e+02        0
       0        0 -1.520477e+02

-1.152622e+01 1.201409e+02        0
1.201409e+02 -1.034542e+03        0
       0        0 -1.087282e+02

-5.576161e+00 5.350032e+01        0
5.350032e+01 -3.924073e+02        0
       0        0 4.110356e+00

-8.649906e+00 9.371599e+01        0
9.371599e+01 -6.859371e+02        0
       0        0 -9.117507e+01

-9.935853e+00 1.098891e+02        0
1.098891e+02 -9.693046e+02        0
       0        0 -1.775656e+02

7.500309e+01 -3.909470e+02        0
-3.909470e+02 -7.495996e+02        0
       0        0 1.705720e+03

3.661207e+01 -6.381457e+01        0
-6.381457e+01 -1.166228e+03        0
       0        0 1.402816e+03

6.169856e+01 -2.802084e+02        0
-2.802084e+02 -7.047994e+02        0
       0        0 1.527121e+03

-2.039261e+02 3.411080e+02        0
3.411080e+02 1.204912e+03        0
       0        0 2.244679e+03

-1.237694e+02 -2.418358e+02        0
-2.418358e+02 1.147866e+03        0
       0        0 2.268358e+03

-9.890229e+02 -6.690642e+02        0
-6.690642e+02 -2.996458e+03        0
       0        0 9.773810e+02

-8.998815e+02 -1.042434e+02        0
-1.042434e+02 -2.929615e+02        0
       0        0 1.713794e+03

-3.459983e+01 -1.276697e+02        0
-1.276697e+02 -2.274504e+03        0
       0        0 1.390826e+03

-2.089962e+02 -4.584286e+02        0
-4.584286e+02 -6.488230e+02        0
       0        0 1.782607e+03

-8.797352e+01 8.250205e+01        0
8.250205e+01 1.349989e+02        0
       0        0 1.567783e+03

-2.294746e+02 3.937599e+02        0
3.937599e+02 -6.603210e+02        0
       0        0 1.332403e+03

-1.830358e+02 4.833449e+02        0
4.833449e+02 -1.607819e+03        0
       0        0 1.093437e+03

-5.843157e+01 1.542407e+02        0
1.542407e+02 -1.892229e+02        0
       0        0 1.320709e+03

-1.104982e+02 3.487544e+02        0
3.487544e+02 -7.076176e+02        0
       0        0 1.169616e+03

-6.249306e+01 2.893025e+02        0
2.893025e+02 -1.204167e+03        0
       0        0 1.044566e+03

-3.747478e+01 1.628709e+02        0
1.628709e+02 -5.123386e+02        0
       0        0 1.036836e+03

-5.112435e+01 2.735539e+02        0
2.735539e+02 -7.175499e+02        0
       0        0 9.726478e+02

-2.223751e+01 1.906227e+02        0
1.906227e+02 -8.622277e+02        0
       0        0 9.347567e+02

-2.067966e+01 1.331047e+02        0
1.331047e+02 -9.050986e+02        0
       0        0 5.286891e+02

-2.768681e+01 1.487221e+02        0
1.487221e+02 -7.548810e+02        0
       0        0 7.645501e+02

-5.885720e+00 8.794213e+01        0
8.794213e+01 -5.073293e+02        0
       0        0 6.205643e+02

-1.864388e+01 1.465948e+02        0
1.465948e+02 -7.179979e+02        0
       0        0 5.685906e+02

-1.199886e+01 1.300359e+02        0
1.300359e+02 -6.405022e+02        0
       0        0 7.828082e+02

-3.072416e+01 2.017954e+02        0
2.017954e+02 -7.177544e+02        0
       0        0 7.646702e+02

-1.147312e+01 1.074762e+02        0
1.074762e+02 -1.016313e+03        0
       0        0 1.778358e+02

-1.536145e+01 1.190942e+02        0
1.190942e+02 -9.852177e+02        0
       0        0 3.335371e+02

-6.476420e-01 4.454976e+01        0
4.454976e+01 -4.132552e+02        0
       0        0 3.231710e+02

-5.037276e+00 8.064620e+01        0
8.064620e+01 -7.172980e+02        0
       0        0 2.482650e+02

-2.353629e+00 6.049002e+01        0
6.049002e+01 -4.384009e+02        0
       0        0 4.641443e+02

-1.028109e+01 1.069764e+02        0
1.069764e+02 -7.180720e+02        0
       0        0 3.950157e+02

-8.856046e+00 9.871507e+01        0
9.871507e+01 -1.015980e+03        0
       0        0 5.760881e+01

-2.239925e+00 6.520353e+01        0
6.520353e+01 -7.156208e+02        0
       0        0 1.290130e+02

-2.790061e-01 3.708803e+01        0
3.708803e+01 -4.147057e+02        0
       0        0 2.028754e+02

-6.612106e+00 9.025715e+01        0
9.025715e+01 -9.747990e+02        0
       0        0 -9.757862e+01

-7.303044e+00 9.298537e+01        0
9.298537e+01 -9.984521e+02        0
       0        0 -3.238666e+01

-1.782024e+00 3.758789e+01        0
3.758789e+01 -4.460488e+02        0
       0        0 3.172935e+01

-1.607167e+00 5.793967e+01        0
5.793967e+01 -7.096114e+02        0
       0        0 -3.361494e+01

-7.810633e-01 3.549505e+01        0
3.549505e+01 -4.291102e+02        0
       0        0 1.055471e+02

-1.278116e+00 5.833690e+01        0
5.833690e+01 -7.130377e+02        0
       0        0 3.584460e+01

-7.075645e+00 9.290381e+01        0
9.290381e+01 -9.394805e+02        0
       0        0 -1.718212e+02

-6.593860e+00 9.033831e+01        0
9.033831e+01 -9.532410e+02        0
       0        0 -1.428100e+02

-4.138304e+00 4.615291e+01        0
4.615291e+01 -4.599173e+02        0
       0        0 -4.661668e+01

-4.371243e+00 6.929752e+01        0
6.929752e+01 -7.006466e+02        0
       0        0 -1.108820e+02

-2.981759e+00 4.160499e+01        0
4.160499e+01 -4.579851e+02        0
       0        0 -1.885230e+01

-2.767551e+00 6.214332e+01        0
6.214332e+01 -7.054388e+02        0
       0        0 -8.185435e+01

-8.908981e+00 1.034918e+02        0
1.034918e+02 -9.472064e+02        0
       0        0 -1.888411e+02

-7.900727e+00 9.749251e+01        0
9.749251e+01 -9.369895e+02        0
       0        0 -1.869277e+02

-5.566175e+00 5.274957e+01        0
5.274957e+01 -4.249252e+02        0
       0        0 -3.369854e+01

-7.607294e+00 8.658025e+01        0
8.658025e+01 -6.898697e+02        0
       0        0 -1.148175e+02

-5.060806e+00 5.014595e+01        0
5.014595e+01 -4.491103e+02        0
       0        0 -5.169488e+01

-6.085205e+00 7.791079e+01        0
7.791079e+01 -6.953924e+02        0
       0        0 -1.218436e+02

2.222038e+03 -4.238629e+02        0
-4.238629e+02 1.666593e+01        0
       0        0 1.100604e+03

2.828526e+03 -1.375904e+02        0
-1.375904e+02 -1.274537e+02        0
       0        0 1.430454e+03

-1.563010e+03 7.832359e+01        0
7.832359e+01 -5.458377e+01        0
       0        0 -7.222060e+02

-3.270264e-01 -5.831859e+02        0
-5.831859e+02 7.377576e+01        0
       0        0 8.652579e+01

-3.312493e+03 7.051304e+02        0
7.051304e+02 -1.790433e+03        0
       0        0 -1.922664e+03

-3.755642e+02 -4.139427e+01        0
-4.139427e+01 -8.172130e+02        0
       0        0 -3.012823e+02

1.440530e+03 -3.122138e+02        0
-3.122138e+02 4.507089e+01        0
       0        0 7.267671e+02

2.260426e+02 -5.186866e+02        0
-5.186866e+02 1.953586e+02        0
       0        0 1.886596e+02

-6.925909e+02 -2.280114e+02        0
-2.280114e+02 2.322460e+02        0
       0        0 -2.828304e+02

5.287968e+02 -1.324453e+02        0
-1.324453e+02 2.036094e+01        0
       0        0 2.663851e+02

8.912216e+02 -2.018201e+02        0
-2.018201e+02 3.036647e+01        0
       0        0 4.524667e+02

-1.402234e+02 -2.588797e+02        0
-2.588797e+02 1.997064e+02        0
       0        0 -5.311218e+01

1.939970e+02 -2.796697e+02        0
-2.796697e+02 1.081752e+02        0
       0        0 1.158839e+02

-3.092186e+02 -2.900964e+02        0
-2.900964e+02 2.357035e+02        0
       0        0 -1.181914e+02

2.561245e+02 -3.897687e+02        0
-3.897687e+02 1.484925e+02        0
       0        0 1.671593e+02

1.363261e+02 -5.569548e+01        0
-5.569548e+01 1.058944e+01        0
       0        0 5.795700e+01

2.906495e+02 -8.686470e+01        0
-8.686470e+01 1.422987e+01        0
       0        0 1.410021e+02

-4.247840e+01 -1.394493e+02        0
-1.394493e+02 1.329722e+02        0
       0        0 -2.190541e+01

5.991668e+01 -1.287020e+02        0
-1.287020e+02 6.240062e+01        0
       0        0 2.968247e+01

-7.140135e+01 -1.996331e+02        0
-1.996331e+02 1.644631e+02        0
       0        0 -2.931770e+01

1.205835e+02 -1.942637e+02        0
-1.942637e+02 8.106143e+01        0
       0        0 6.744838e+01

4.077147e+01 -3.361525e+01        0
-3.361525e+01 8.059975e+00        0
       0        0 5.264458e+00

1.746141e+01 -7.948278e+01        0
-7.948278e+01 4.869779e+01        0
       0        0 3.201403e+00

-3.033405e+01 -8.863275e+01        0
-8.863275e+01 1.068190e+02        0
       0        0 -2.097025e+01

-3.842087e+01 -5.417402e+00        0
-5.417402e+00 5.649041e+00        0
       0        0 -3.896703e+01

-1.343998e+01 -1.774650e+01        0
-1.774650e+01 6.426421e+00        0
       0        0 -2.534135e+01

-2.315110e+01 -1.522211e+01        0
-1.522211e+01 7.908365e+01        0
       0        0 -2.281988e+01

-2.062457e+01 -1.338331e+01        0
-1.338331e+01 3.506322e+01        0
       0        0 -2.075086e+01

-2.519673e+01 -4.819203e+01        0
-4.819203e+01 8.826364e+01        0
       0        0 -2.193028e+01

-8.321603e+00 -4.258194e+01        0
-4.258194e+01 3.952204e+01        0
       0        0 -1.318377e+01

-2.413620e+03 1.096533e+03        0
1.096533e+03 -2.683809e+02        0
       0        0 -1.458643e+03

-4.734389e+03 1.759385e+03        0
1.759385e+03 -1.093015e+03        0
       0        0 -2.371993e+03

2.743776e+02 7.828999e+02        0
7.828999e+02 -2.669321e+02        0
       0        0 9.750178e+02

-9.445266e+02 1.476080e+03        0
1.476080e+03 -4.042440e+02        0
       0        0 -2.464374e+02

2.048559e+03 4.974000e+02        0
4.974000e+02 -1.746311e+02        0
       0        0 1.368174e+03

-9.367518e+02 1.461325e+03        0
1.461325e+03 -8.985835e+02        0
       0        0 -4.709700e+02

-8.952621e+02 7.277736e+02        0
7.277736e+02 -3.735104e+02        0
       0        0 -7.529229e+02

-7.428286e+02 1.180232e+03        0
1.180232e+03 -6.729540e+02        0
       0        0 -3.534510e+01

-1.136667e+03 9.675206e+02        0
9.675206e+02 -5.511323e+02        0
       0        0 6.523239e+02

3.439447e+02 -9.757621e+01        0
-9.757621e+01 -9.630693e+01        0
       0        0 6.498198e+02

-3.309907e+01 2.915736e+02        0
2.915736e+02 -2.951279e+02        0
       0        0 -1.679026e+01

-2.054335e+03 1.505052e+03        0
1.505052e+03 -1.267374e+03        0
       0        0 5.795167e+02

-6.337740e+02 6.700678e+02        0
6.700678e+02 -8.220152e+02        0
       0        0 6.407832e+02

-1.862485e+03 1.256432e+03        0
1.256432e+03 -8.910288e+02        0
       0        0 5.425066e+02

-6.521536e+02 8.883789e+02        0
8.883789e+02 -8.115988e+02        0
       0        0 2.836647e+02

2.899215e+02 -4.142535e+02        0
-4.142535e+02 3.809672e+02        0
       0        0 1.565236e+03

4.005235e+02 -3.372516e+02        0
-3.372516e+02 1.583167e+02        0
       0        0 1.187968e+03

-1.518061e+03 1.563147e+03        0
1.563147e+03 -1.906043e+03        0
       0        0 8.386510e+02

-6.069523e+02 4.585328e+02        0
4.585328e+02 -7.044130e+02        0
       0        0 1.230091e+03

-1.883534e+03 1.615698e+03        0
1.615698e+03 -1.624974e+03        0
       0        0 6.973585e+02

-6.289993e+02 5.313646e+02        0
5.313646e+02 -7.701751e+02        0
       0        0 9.710784e+02

1.298096e+02 -3.563776e+02        0
-3.563776e+02 5.098062e+02        0
       0        0 1.775199e+03

-5.537021e+02 4.286195e+02        0
4.286195e+02 -6.545068e+02        0
       0        0 1.394827e+03

-1.094998e+03 1.370540e+03        0
1.370540e+03 -2.063137e+03        0
       0        0 9.635575e+02

-7.839398e+01 -5.352014e+01        0
-5.352014e+01 3.859718e+02        0
       0        0 1.750061e+03

-5.271514e+00 -2.165667e+02        0
-2.165667e+02 5.123126e+02        0
       0        0 1.829157e+03

-4.072057e+02 7.737398e+02        0
7.737398e+02 -1.922656e+03        0
       0        0 1.089134e+03

-3.590198e+02 4.054416e+02        0
4.054416e+02 -6.230912e+02        0
       0        0 1.436682e+03

-7.072591e+02 1.088842e+03        0
1.088842e+03 -2.072704e+03        0
       0        0 1.049057e+03

-4.688825e+02 4.178975e+02        0
4.178975e+02 -6.314834e+02        0
       0        0 1.460188e+03

-1.017954e+03 9.280150e+02        0
9.280150e+02 -9.289704e+02        0
       0        0 -8.904591e+02

-1.732568e+03 8.370277e+02        0
8.370277e+02 -5.800512e+02        0
       0        0 -1.046160e+03

-7.845249e+02 1.351348e+03        0
1.351348e+03 -2.441179e+03        0
       0        0 -1.265714e+03

-2.458524e+03 2.182581e+03        0
2.182581e+03 -2.877159e+03        0
       0        0 -2.044370e+03

-5.468168e+02 7.163217e+02        0
7.163217e+02 -1.171937e+03        0
       0        0 -5.989528e+02

-6.877542e+02 8.173195e+02        0
8.173195e+02 -1.145436e+03        0
       0        0 -7.623728e+02

-4.644515e+02 6.869916e+02        0
6.869916e+02 -1.906271e+03        0
       0        0 -7.703929e+02

-4.501136e+02 9.347949e+02        0
9.347949e+02 -2.071571e+03        0
       0        0 -9.313076e+02

-4.207948e+02 3.669100e+01        0
3.669100e+01 1.990879e+02        0
       0        0 -2.342489e+02

-3.606695e+02 -1.263809e+02        0
-1.263809e+02 2.312000e+02        0
       0        0 -1.833070e+02

-6.384045e+02 1.642294e+02        0
1.642294e+02 7.851344e+01        0
       0        0 -3.835563e+02

-6.102758e+02 -4.821714e+01        0
-4.821714e+01 1.950455e+02        0
       0        0 -3.168857e+02

-8.965194e+02 4.534671e+02        0
4.534671e+02 -2.439405e+02        0
       0        0 -6.093179e+02

-1.021348e+03 2.078753e+02        0
2.078753e+02 2.991272e+01        0
       0        0 -5.567047e+02

-1.536583e+02 2.805151e+02        0
2.805151e+02 1.683165e+01        0
       0        0 -9.520051e+01

-3.467079e+02 1.802091e+02        0
1.802091e+02 1.235146e+02        0
       0        0 -2.028630e+02

-2.753144e+02 4.262706e+02        0
4.262706e+02 -1.807990e+02        0
       0        0 -2.055844e+02

-5.175863e+02 3.157368e+02        0
3.157368e+02 -5.381139e+01        0
       0        0 -3.430519e+02

-4.229307e+02 5.941238e+02        0
5.941238e+02 -5.575969e+02        0
       0        0 -3.753389e+02

-6.760290e+02 5.336594e+02        0
5.336594e+02 -4.506148e+02        0
       0        0 -5.413291e+02

-1.498666e+02 -2.224332e+01        0
-2.224332e+01 2.072893e+02        0
       0        0 -8.165725e+01

-1.234283e+02 -9.562174e+01        0
-9.562174e+01 1.879033e+02        0
       0        0 -6.686287e+01

-2.589411e+02 -1.077291e+01        0
-1.077291e+01 2.240598e+02        0
       0        0 -1.390394e+02

-2.125843e+02 -1.234848e+02        0
-1.234848e+02 2.181659e+02        0
       0        0 -1.086808e+02

-2.004888e+01 1.010304e+02        0
1.010304e+02 1.326917e+02        0
       0        0 2.788360e+00

-1.138660e+02 5.182436e+01        0
5.182436e+01 1.869999e+02        0
       0        0 -5.763505e+01

-7.047271e+01 1.730976e+02        0
1.730976e+02 1.043134e+02        0
       0        0 -3.099264e+01

-2.088224e+02 9.842534e+01        0
9.842534e+01 1.833732e+02        0
       0        0 -1.119093e+02

-2.483332e+01 -4.112371e+00        0
-4.112371e+00 1.407051e+02        0
       0        0 -2.414542e+01

-2.878046e+01 -1.130503e+01        0
-1.130503e+01 1.185384e+02        0
       0        0 -2.816827e+01

-4.299047e+01 -1.245608e+01        0
-1.245608e+01 1.541795e+02        0
       0        0 -3.148627e+01

-4.213870e+01 -3.561172e+01        0
-3.561172e+01 1.312748e+02        0
       0        0 -3.279136e+01

-8.170907e+01 -1.969756e+01        0
-1.969756e+01 1.788664e+02        0
       0        0 -4.886762e+01

-7.104811e+01 -6.385870e+01        0
-6.385870e+01 1.559553e+02        0
       0        0 -4.427034e+01

2.777896e+01 7.950971e+00        0
7.950971e+00 1.226881e+02        0
       0        0 2.808040e+01

-5.486288e+00 3.310526e+00        0
3.310526e+00 1.411850e+02        0
       0        0 -4.875132e+00

2.186378e+01 2.680413e+01        0
2.680413e+01 1.279768e+02        0
       0        0 2.570965e+01

-2.103255e+01 1.156823e+01        0
1.156823e+01 1.520640e+02        0
       0        0 -1.147927e+01

7.892708e+00 5.525927e+01        0
5.525927e+01 1.345018e+02        0
       0        0 1.891431e+01

-5.443616e+01 2.578229e+01        0
2.578229e+01 1.703665e+02        0
       0        0 -2.719362e+01

POINT_DATA     938
VECTORS DISPLACEMENT_6.000000e-01 double
6.390323e-09    5.348632e-08    0.000000e+00
6.947386e-09    5.043493e-08    0.000000e+00
5.847705e-09    5.660935e-08    0.000000e+00
-2.143249e-09    5.407744e-08    0.000000e+00
-1.282525e-09    5.041741e-08    0.000000e+00
-3.387357e-10    4.688666e-08    0.000000e+00
6.781976e-10    4.351935e-08    0.000000e+00
1.756095e-09    4.035439e-08    0.000000e+00
2.879140e-09    3.743707e-08    0.000000e+00
4.027532e-09    3.482075e-08    0.000000e+00
5.175299e-09    3.256663e-08    0.000000e+00
6.291006e-09    3.075367e-08    0.000000e+00
7.302475e-09    2.950442e-08    0.000000e+00
8.009842e-09    2.884642e-08    0.000000e+00
8.636523e-09    2.859225e-08    0.000000e+00
-3.220707e-11    9.815933e-08    0.000000e+00
-6.426520e-10    9.795115e-08    0.000000e+00
-1.211918e-10    9.641592e-08    0.000000e+00
-1.328478e-09    9.612005e-08    0.000000e+00
-2.235829e-10    9.093881e-08    0.000000e+00
-2.240154e-09    9.055590e-08    0.000000e+00
-1.826927e-10    8.751492e-08    0.000000e+00
-2.466428e-09    8.708849e-08    0.000000e+00
-1.965264e-10    9.395069e-08    0.000000e+00
-1.860074e-09    9.360917e-08    0.000000e+00
1.489158e-10    7.985983e-08    0.000000e+00
-2.467065e-09    7.935203e-08    0.000000e+00
4.514712e-10    7.579094e-08    0.000000e+00
-2.253503e-09    7.524705e-08    0.000000e+00
1.333422e-09    6.747026e-08    0.000000e+00
-1.439090e-09    6.686456e-08    0.000000e+00
1.906081e-09    6.330533e-08    0.000000e+00
-8.566717e-10    6.267521e-08    0.000000e+00
8.469708e-10    7.164495e-08    0.000000e+00
-1.907918e-09    7.106840e-08    0.000000e+00
-6.121148e-11    8.379223e-08    0.000000e+00
-2.540392e-09    8.332381e-08    0.000000e+00
4.715506e-09    6.387279e-08    0.000000e+00
4.158988e-09    6.799534e-08    0.000000e+00
3.662583e-09    7.212360e-08    0.000000e+00
3.225713e-09    7.621802e-08    0.000000e+00
2.843702e-09    8.022782e-08    0.000000e+00
2.506904e-09    8.409232e-08    0.000000e+00
2.200070e-09    8.773887e-08    0.000000e+00
1.901454e-09    9.107863e-08    0.000000e+00
1.580889e-09    9.400400e-08    0.000000e+00
1.194117e-09    9.638319e-08    0.000000e+00
6.719736e-10    9.802954e-08    0.000000e+00
8.271433e-12    9.863703e-08    0.000000e+00
-1.445375e-11    9.892935e-08    0.000000e+00
2.291414e-11    9.911289e-08    0.000000e+00
-5.336995e-10    1.004275e-07    0.000000e+00
-1.465573e-09    9.757477e-08    0.000000e+00
-2.662136e-09    9.560147e-08    0.000000e+00
-3.609196e-09    9.304664e-08    0.000000e+00
-4.321716e-09    8.997035e-08    0.000000e+00
-4.798089e-09    8.648712e-08    0.000000e+00
-5.055288e-09    8.270617e-08    0.000000e+00
-5.109742e-09    7.871806e-08    0.000000e+00
-4.978813e-09    7.459699e-08    0.000000e+00
-4.679048e-09    7.040304e-08    0.000000e+00
-4.225759e-09    6.618510e-08    0.000000e+00
-3.632754e-09    6.198370e-08    0.000000e+00
-2.912054e-09    5.783445e-08    0.000000e+00
-1.807170e-10    5.853001e-08    0.000000e+00
2.547691e-09    5.918153e-08    0.000000e+00
5.328912e-09    5.978925e-08    0.000000e+00
7.507437e-09    4.747169e-08    0.000000e+00
8.056301e-09    4.461501e-08    0.000000e+00
8.576789e-09    4.188569e-08    0.000000e+00
9.048260e-09    3.930745e-08    0.000000e+00
9.446294e-09    3.690727e-08    0.000000e+00
9.743792e-09    3.471634e-08    0.000000e+00
9.904894e-09    3.276515e-08    0.000000e+00
9.967224e-09    3.105593e-08    0.000000e+00
9.614475e-09    2.947234e-08    0.000000e+00
9.364093e-09    2.911839e-08    0.000000e+00
8.981689e-09    2.886140e-08    0.000000e+00
6.569422e-09    4.029417e-08    0.000000e+00
4.700321e-09    3.881787e-08    0.000000e+00
4.449696e-09    4.923451e-08    0.000000e+00
2.044071e-09    4.805482e-08    0.000000e+00
3.124615e-09    5.578638e-08    0.000000e+00
4.817302e-10    5.494485e-08    0.000000e+00
3.769222e-09    5.246686e-08    0.000000e+00
1.233336e-09    5.144585e-08    0.000000e+00
5.153208e-09    4.611173e-08    0.000000e+00
2.901765e-09    4.479840e-08    0.000000e+00
5.865610e-09    4.312245e-08    0.000000e+00
3.792844e-09    4.170754e-08    0.000000e+00
8.394716e-09    3.312623e-08    0.000000e+00
7.276441e-09    3.181137e-08    0.000000e+00
7.243634e-09    3.765872e-08    0.000000e+00
5.603042e-09    3.617079e-08    0.000000e+00
7.861193e-09    3.525123e-08    0.000000e+00
6.474049e-09    3.381278e-08    0.000000e+00
8.801301e-09    3.130317e-08    0.000000e+00
7.984836e-09    3.023515e-08    0.000000e+00
9.154210e-09    2.991854e-08    0.000000e+00
8.565446e-09    2.925852e-08    0.000000e+00
7.122888e-09    2.763229e-08    0.000000e+00
7.271921e-09    2.833508e-08    0.000000e+00
2.596276e-09    2.631193e-08    0.000000e+00
2.591593e-09    2.682370e-08    0.000000e+00
1.479555e-09    2.596960e-08    0.000000e+00
1.456131e-09    2.630852e-08    0.000000e+00
1.980971e-09    2.613193e-08    0.000000e+00
1.962929e-09    2.655605e-08    0.000000e+00
7.859461e-10    2.568341e-08    0.000000e+00
7.705929e-10    2.587017e-08    0.000000e+00
5.729162e-10    2.555386e-08    0.000000e+00
5.682880e-10    2.567520e-08    0.000000e+00
1.084570e-09    2.582115e-08    0.000000e+00
1.062508e-09    2.608047e-08    0.000000e+00
3.327972e-09    2.651392e-08    0.000000e+00
3.345265e-09    2.711052e-08    0.000000e+00
6.001964e-10    2.541848e-08    0.000000e+00
8.254967e-10    2.548515e-08    0.000000e+00
1.132201e-09    2.555311e-08    0.000000e+00
1.529632e-09    2.562492e-08    0.000000e+00
2.026173e-09    2.570473e-08    0.000000e+00
2.627684e-09    2.579858e-08    0.000000e+00
3.335549e-09    2.591457e-08    0.000000e+00
4.144325e-09    2.606293e-08    0.000000e+00
5.039025e-09    2.625619e-08    0.000000e+00
5.992033e-09    2.650884e-08    0.000000e+00
6.959437e-09    2.683778e-08    0.000000e+00
7.878899e-09    2.725835e-08    0.000000e+00
8.660135e-09    2.779641e-08    0.000000e+00
9.260626e-09    2.841333e-08    0.000000e+00
9.066457e-09    2.874632e-08    0.000000e+00
8.961941e-09    2.901905e-08    0.000000e+00
8.313787e-09    2.913097e-08    0.000000e+00
7.381011e-09    2.902611e-08    0.000000e+00
6.334884e-09    2.878915e-08    0.000000e+00
5.277914e-09    2.846773e-08    0.000000e+00
4.279740e-09    2.810106e-08    0.000000e+00
3.383344e-09    2.771769e-08    0.000000e+00
2.611110e-09    2.733778e-08    0.000000e+00
1.970329e-09    2.697446e-08    0.000000e+00
1.457950e-09    2.663512e-08    0.000000e+00
1.064614e-09    2.632275e-08    0.000000e+00
7.779032e-10    2.603706e-08    0.000000e+00
5.848881e-10    2.577549e-08    0.000000e+00
4.740056e-10    2.553401e-08    0.000000e+00
4.444865e-10    2.549269e-08    0.000000e+00
4.351846e-10    2.543008e-08    0.000000e+00
4.472868e-10    2.535198e-08    0.000000e+00
5.191480e-09    2.772574e-08    0.000000e+00
5.108289e-09    2.700236e-08    0.000000e+00
4.218138e-09    2.741327e-08    0.000000e+00
4.170776e-09    2.674249e-08    0.000000e+00
6.228911e-09    2.803775e-08    0.000000e+00
6.109195e-09    2.729743e-08    0.000000e+00
8.990576e-09    2.879736e-08    0.000000e+00
8.866033e-09    2.842989e-08    0.000000e+00
8.231915e-09    2.859674e-08    0.000000e+00
8.075219e-09    2.800405e-08    0.000000e+00
9.310744e-09    2.886660e-08    0.000000e+00
9.386766e-09    2.883166e-08    0.000000e+00
6.385414e-09    2.370983e-08    0.000000e+00
6.496123e-09    2.350315e-08    0.000000e+00
6.514979e-09    2.334896e-08    0.000000e+00
6.487367e-09    2.316840e-08    0.000000e+00
6.068259e-09    2.307041e-08    0.000000e+00
5.406772e-09    2.307358e-08    0.000000e+00
4.627513e-09    2.316526e-08    0.000000e+00
3.830972e-09    2.331991e-08    0.000000e+00
3.083096e-09    2.351404e-08    0.000000e+00
2.419802e-09    2.373017e-08    0.000000e+00
1.857234e-09    2.395594e-08    0.000000e+00
1.398429e-09    2.418349e-08    0.000000e+00
1.038708e-09    2.440866e-08    0.000000e+00
7.699100e-10    2.463035e-08    0.000000e+00
5.835964e-10    2.484988e-08    0.000000e+00
4.733510e-10    2.507048e-08    0.000000e+00
4.363095e-10    2.529670e-08    0.000000e+00
3.493620e-10    2.527359e-08    0.000000e+00
3.324787e-10    2.519689e-08    0.000000e+00
3.917987e-10    2.512436e-08    0.000000e+00
5.272538e-10    2.505879e-08    0.000000e+00
7.431288e-10    2.500248e-08    0.000000e+00
1.047006e-09    2.495638e-08    0.000000e+00
1.447964e-09    2.491904e-08    0.000000e+00
1.953950e-09    2.488548e-08    0.000000e+00
2.568147e-09    2.484578e-08    0.000000e+00
3.284275e-09    2.478373e-08    0.000000e+00
4.080562e-09    2.467508e-08    0.000000e+00
4.913791e-09    2.448769e-08    0.000000e+00
5.716279e-09    2.417118e-08    0.000000e+00
1.700177e-09    2.429404e-08    0.000000e+00
1.563471e-09    2.461514e-08    0.000000e+00
4.451863e-09    2.366921e-08    0.000000e+00
4.268129e-09    2.415724e-08    0.000000e+00
6.001290e-09    2.342399e-08    0.000000e+00
5.889409e-09    2.376173e-08    0.000000e+00
5.272659e-09    2.353214e-08    0.000000e+00
5.105344e-09    2.398048e-08    0.000000e+00
2.895821e-09    2.397267e-08    0.000000e+00
2.723633e-09    2.441166e-08    0.000000e+00
3.641052e-09    2.381767e-08    0.000000e+00
3.458100e-09    2.429624e-08    0.000000e+00
2.245030e-09    2.413204e-08    0.000000e+00
2.089354e-09    2.451530e-08    0.000000e+00
6.711344e-10    2.478799e-08    0.000000e+00
5.900832e-10    2.493193e-08    0.000000e+00
1.261099e-09    2.445754e-08    0.000000e+00
1.143749e-09    2.471624e-08    0.000000e+00
9.211347e-10    2.462211e-08    0.000000e+00
8.224380e-10    2.482141e-08    0.000000e+00
4.090414e-10    2.512803e-08    0.000000e+00
3.618425e-10    2.516990e-08    0.000000e+00
5.024480e-10    2.495610e-08    0.000000e+00
4.383248e-10    2.504813e-08    0.000000e+00
3.888531e-10    2.530597e-08    0.000000e+00
3.595586e-10    2.529713e-08    0.000000e+00
-9.860893e-14    -8.209737e-11    0.000000e+00
-1.103912e-11    -8.824673e-11    0.000000e+00
-2.437857e-11    -1.052358e-10    0.000000e+00
-4.281915e-11    -1.313122e-10    0.000000e+00
-6.999668e-11    -1.611178e-10    0.000000e+00
-1.114696e-10    -1.816824e-10    0.000000e+00
-1.775089e-10    -1.646584e-10    0.000000e+00
-2.869168e-10    -5.617845e-11    0.000000e+00
-4.858451e-10    2.478076e-10    0.000000e+00
-7.925220e-10    8.944720e-10    0.000000e+00
-1.530713e-09    2.223944e-09    0.000000e+00
-5.370330e-10    2.411904e-09    0.000000e+00
8.319693e-10    2.542205e-09    0.000000e+00
2.391605e-09    2.759957e-09    0.000000e+00
1.472259e-09    1.005748e-09    0.000000e+00
8.249139e-10    2.487560e-10    0.000000e+00
4.412480e-10    -5.764352e-11    0.000000e+00
2.199691e-10    -1.699175e-10    0.000000e+00
9.382147e-11    -1.944261e-10    0.000000e+00
2.681850e-11    -1.810155e-10    0.000000e+00
-3.657041e-12    -1.556692e-10    0.000000e+00
-1.223879e-11    -1.317771e-10    0.000000e+00
-8.750336e-12    -1.157254e-10    0.000000e+00
3.308857e-13    -1.103379e-10    0.000000e+00
1.726602e-13    -1.051500e-10    0.000000e+00
4.555960e-14    -9.724210e-11    0.000000e+00
5.659161e-11    -2.194533e-10    0.000000e+00
-2.606678e-11    -2.165577e-10    0.000000e+00
3.782076e-10    1.333662e-10    0.000000e+00
-1.332128e-10    1.454106e-10    0.000000e+00
5.755872e-10    8.165835e-10    0.000000e+00
-3.071630e-10    8.006186e-10    0.000000e+00
2.289035e-10    -1.297211e-10    0.000000e+00
-5.582656e-11    -1.249415e-10    0.000000e+00
1.235221e-10    -2.141941e-10    0.000000e+00
-3.286826e-11    -2.121389e-10    0.000000e+00
-3.954725e-13    -1.593149e-10    0.000000e+00
-1.859371e-11    -1.529560e-10    0.000000e+00
1.813931e-11    -1.930783e-10    0.000000e+00
-2.275801e-11    -1.882179e-10    0.000000e+00
-6.229176e-12    -1.303266e-10    0.000000e+00
-1.314338e-11    -1.230932e-10    0.000000e+00
-4.739165e-12    -1.115766e-10    0.000000e+00
-6.786510e-12    -1.039112e-10    0.000000e+00
-2.928601e-09    6.306928e-09    0.000000e+00
-2.704081e-09    1.053735e-08    0.000000e+00
-1.607198e-09    1.452580e-08    0.000000e+00
8.952919e-11    1.786121e-08    0.000000e+00
1.980191e-09    2.034801e-08    0.000000e+00
3.758364e-09    2.199093e-08    0.000000e+00
5.192641e-09    2.290575e-08    0.000000e+00
6.140799e-09    2.327065e-08    0.000000e+00
6.562557e-09    2.329337e-08    0.000000e+00
6.763864e-09    2.314981e-08    0.000000e+00
6.903649e-09    2.236171e-08    0.000000e+00
6.789845e-09    2.124516e-08    0.000000e+00
6.440187e-09    1.970218e-08    0.000000e+00
5.902520e-09    1.765364e-08    0.000000e+00
5.255238e-09    1.509553e-08    0.000000e+00
4.574617e-09    1.208725e-08    0.000000e+00
3.904136e-09    8.782231e-09    0.000000e+00
3.205196e-09    5.481641e-09    0.000000e+00
3.390317e-09    1.947040e-08    0.000000e+00
4.685899e-09    1.859671e-08    0.000000e+00
-4.092351e-10    9.869455e-09    0.000000e+00
1.680155e-09    9.287407e-09    0.000000e+00
-7.488366e-10    5.924926e-09    0.000000e+00
1.150017e-09    5.582588e-09    0.000000e+00
5.437883e-10    1.367690e-08    0.000000e+00
2.531090e-09    1.289458e-08    0.000000e+00
1.905634e-09    1.693875e-08    0.000000e+00
3.590358e-09    1.605104e-08    0.000000e+00
5.825920e-09    2.237230e-08    0.000000e+00
6.373616e-09    2.181804e-08    0.000000e+00
4.757617e-09    2.125209e-08    0.000000e+00
5.656079e-09    2.049929e-08    0.000000e+00
6.488874e-09    2.298194e-08    0.000000e+00
6.761601e-09    2.266736e-08    0.000000e+00
6.710574e-09    2.325355e-08    0.000000e+00
6.795069e-09    2.318587e-08    0.000000e+00
0.000000e+00    0.000000e+00    0.000000e+00
0.000000e+00    0.000000e+00    0.000000e+00
0.000000e+00    0.000000e+00    0.000000e+00
0.000000e+00    0.000000e+00    0.000000e+00
0.000000e+00    0.000000e+00    0.000000e+00
0.000000e+00    0.000000e+00    0.000000e+00
0.000000e+00    0.000000e+00    0.000000e+00
0.000000e+00    0.000000e+00    0.000000e+00
0.000000e+00    0.000000e+00    0.000000e+00
0.000000e+00    0.000000e+00    0.000000e+00
0.000000e+00    0.000000e+00    0.000000e+00
-1.741536e-10    3.299955e-10    0.000000e+00
-4.189874e-10    7.120703e-10    0.000000e+00
-7.081528e-10    1.151382e-09    0.000000e+00
-1.796314e-13    -6.151261e-11    0.000000e+00
-1.779230e-13    -3.798646e-11    0.000000e+00
-9.334527e-14    -1.609814e-11    0.000000e+00
-1.564695e-10    -1.249572e-10    0.000000e+00
-1.492379e-10    -6.542519e-11    0.000000e+00
-9.249376e-11    -1.929929e-11    0.000000e+00
-5.464502e-10    2.379615e-10    0.000000e+00
-4.436199e-10    1.853612e-10    0.000000e+00
-2.610229e-10    9.526828e-11    0.000000e+00
-5.031550e-10    4.599200e-10    0.000000e+00
-6.913672e-10    6.686260e-10    0.000000e+00
-2.625616e-10    2.089196e-10    0.000000e+00
-2.315037e-10    -4.412031e-11    0.000000e+00
-3.343332e-10    2.565697e-11    0.000000e+00
-2.466564e-10    -1.026716e-10    0.000000e+00
-3.709951e-10    -5.911338e-12    0.000000e+00
-1.434359e-10    -5.862548e-12    0.000000e+00
-2.054424e-10    2.804976e-11    0.000000e+00
-5.633425e-11    -9.569138e-11    0.000000e+00
-5.290598e-11    -5.586763e-11    0.000000e+00
-3.209226e-11    -2.122787e-11    0.000000e+00
-9.139294e-11    -6.438260e-11    0.000000e+00
-9.611358e-11    -1.149094e-10    0.000000e+00
-5.613141e-11    -2.241060e-11    0.000000e+00
-1.212018e-11    -4.058825e-11    0.000000e+00
-2.826456e-11    -4.689012e-11    0.000000e+00
-1.333907e-11    -6.604929e-11    0.000000e+00
-3.061371e-11    -7.791456e-11    0.000000e+00
-7.155042e-12    -1.701979e-11    0.000000e+00
-1.689926e-11    -1.891120e-11    0.000000e+00
3.928148e-09    5.948985e-08    0.000000e+00
5.026568e-09    6.182769e-08    0.000000e+00
5.591688e-09    5.819534e-08    0.000000e+00
1.180460e-09    5.886167e-08    0.000000e+00
2.228164e-09    6.123840e-08    0.000000e+00
2.837711e-09    5.747804e-08    0.000000e+00
-1.543134e-09    5.818949e-08    0.000000e+00
-5.208033e-10    6.059998e-08    0.000000e+00
1.494846e-10    5.673290e-08    0.000000e+00
-3.275263e-09    5.989470e-08    0.000000e+00
-2.528988e-09    5.594112e-08    0.000000e+00
-3.933477e-09    6.407343e-08    0.000000e+00
-2.241277e-09    6.233829e-08    0.000000e+00
-4.458202e-09    6.828663e-08    0.000000e+00
-2.828606e-09    6.653534e-08    0.000000e+00
-4.836603e-09    7.249672e-08    0.000000e+00
-3.288800e-09    7.074820e-08    0.000000e+00
-5.054113e-09    7.665924e-08    0.000000e+00
-3.610181e-09    7.493681e-08    0.000000e+00
-5.094766e-09    8.071989e-08    0.000000e+00
-3.780653e-09    7.905254e-08    0.000000e+00
-4.941553e-09    8.461160e-08    0.000000e+00
-3.787748e-09    8.303564e-08    0.000000e+00
-4.577334e-09    8.825150e-08    0.000000e+00
-3.619290e-09    8.681214e-08    0.000000e+00
-3.985434e-09    9.153904e-08    0.000000e+00
-3.263889e-09    9.029163e-08    0.000000e+00
-3.154822e-09    9.435249e-08    0.000000e+00
-2.714187e-09    9.336156e-08    0.000000e+00
-2.082697e-09    9.657546e-08    0.000000e+00
-1.963469e-09    9.589727e-08    0.000000e+00
-8.629025e-10    9.832184e-08    0.000000e+00
-1.026464e-09    9.781725e-08    0.000000e+00
1.159218e-10    9.978814e-08    0.000000e+00
1.945495e-11    9.901411e-08    0.000000e+00
-3.072561e-10    9.867107e-08    0.000000e+00
-9.777946e-12    9.882238e-08    0.000000e+00
1.990775e-12    9.867442e-08    0.000000e+00
3.543405e-10    9.846484e-08    0.000000e+00
9.584166e-10    9.731507e-08    0.000000e+00
2.916719e-10    9.814585e-08    0.000000e+00
1.406447e-09    9.527331e-08    0.000000e+00
5.042782e-10    9.644318e-08    0.000000e+00
1.754659e-09    9.260223e-08    0.000000e+00
6.630520e-10    9.401320e-08    0.000000e+00
2.060818e-09    8.945490e-08    0.000000e+00
8.127847e-10    9.103813e-08    0.000000e+00
2.361155e-09    8.594967e-08    0.000000e+00
9.853857e-10    8.765098e-08    0.000000e+00
2.681241e-09    8.218433e-08    0.000000e+00
1.202221e-09    8.396191e-08    0.000000e+00
3.039455e-09    7.823926e-08    0.000000e+00
1.478148e-09    8.005977e-08    0.000000e+00
3.448165e-09    7.418073e-08    0.000000e+00
1.822644e-09    7.601736e-08    0.000000e+00
3.914504e-09    7.006417e-08    0.000000e+00
2.240764e-09    7.189460e-08    0.000000e+00
4.441081e-09    6.593441e-08    0.000000e+00
2.733830e-09    6.774095e-08    0.000000e+00
3.299789e-09    6.359533e-08    0.000000e+00
-1.305613e-09    8.357821e-08    0.000000e+00
-2.512030e-09    8.136582e-08    0.000000e+00
-2.513113e-09    8.524496e-08    0.000000e+00
4.263021e-11    8.184789e-08    0.000000e+00
-1.231358e-10    8.568496e-08    0.000000e+00
-5.349087e-10    7.136822e-08    0.000000e+00
-1.677832e-09    6.897295e-08    0.000000e+00
-2.086281e-09    7.316989e-08    0.000000e+00
1.090042e-09    6.956042e-08    0.000000e+00
6.485513e-10    7.372583e-08    0.000000e+00
5.210629e-10    6.299787e-08    0.000000e+00
-1.151046e-09    6.477159e-08    0.000000e+00
1.620262e-09    6.538640e-08    0.000000e+00
-5.690394e-11    6.717685e-08    0.000000e+00
-9.057213e-10    7.553298e-08    0.000000e+00
-2.367187e-09    7.731871e-08    0.000000e+00
2.991581e-10    7.783952e-08    0.000000e+00
-1.163921e-09    7.962277e-08    0.000000e+00
-1.030957e-09    9.381334e-08    0.000000e+00
-2.062350e-09    9.215201e-08    0.000000e+00
-1.608475e-09    9.495500e-08    0.000000e+00
-2.103178e-10    9.250130e-08    0.000000e+00
-1.582031e-10    9.525579e-08    0.000000e+00
-1.329101e-09    8.732577e-08    0.000000e+00
-2.364380e-09    8.887466e-08    0.000000e+00
-2.039599e-10    8.926984e-08    0.000000e+00
-1.235738e-09    9.077591e-08    0.000000e+00
-7.232511e-10    9.630709e-08    0.000000e+00
-9.969128e-10    9.715282e-08    0.000000e+00
-7.352765e-11    9.738323e-08    0.000000e+00
-3.352661e-10    9.809755e-08    0.000000e+00
8.367447e-09    2.869119e-08    0.000000e+00
8.804989e-09    2.873148e-08    0.000000e+00
8.916860e-09    2.864779e-08    0.000000e+00
7.706030e-09    2.912312e-08    0.000000e+00
8.269346e-09    2.903587e-08    0.000000e+00
6.828503e-09    3.004782e-08    0.000000e+00
7.622532e-09    2.982716e-08    0.000000e+00
5.746733e-09    3.159828e-08    0.000000e+00
6.775906e-09    3.125340e-08    0.000000e+00
4.611084e-09    3.364337e-08    0.000000e+00
5.821195e-09    3.317169e-08    0.000000e+00
3.460269e-09    3.608669e-08    0.000000e+00
4.813772e-09    3.548357e-08    0.000000e+00
2.322414e-09    3.886047e-08    0.000000e+00
3.790081e-09    3.812047e-08    0.000000e+00
1.220240e-09    4.190728e-08    0.000000e+00
2.775943e-09    4.102764e-08    0.000000e+00
1.714813e-10    4.517816e-08    0.000000e+00
1.792261e-09    4.415851e-08    0.000000e+00
-8.099982e-10    4.863109e-08    0.000000e+00
8.554269e-10    4.747270e-08    0.000000e+00
-1.713257e-09    5.222971e-08    0.000000e+00
-2.154838e-11    5.093553e-08    0.000000e+00
-8.275091e-10    5.451675e-08    0.000000e+00
6.123210e-09    5.504216e-08    0.000000e+00
4.475894e-09    5.620064e-08    0.000000e+00
6.674160e-09    5.195300e-08    0.000000e+00
5.068729e-09    5.297734e-08    0.000000e+00
7.234091e-09    4.894353e-08    0.000000e+00
5.686236e-09    4.983306e-08    0.000000e+00
7.790240e-09    4.603115e-08    0.000000e+00
6.316145e-09    4.678714e-08    0.000000e+00
8.326942e-09    4.323535e-08    0.000000e+00
6.944245e-09    4.386055e-08    0.000000e+00
8.825382e-09    4.057845e-08    0.000000e+00
7.553157e-09    4.107733e-08    0.000000e+00
9.262853e-09    3.808519e-08    0.000000e+00
8.121874e-09    3.846463e-08    0.000000e+00
9.614001e-09    3.578695e-08    0.000000e+00
8.625257e-09    3.605502e-08    0.000000e+00
9.846925e-09    3.370521e-08    0.000000e+00
9.033809e-09    3.388449e-08    0.000000e+00
9.955474e-09    3.191291e-08    0.000000e+00
9.321423e-09    3.200642e-08    0.000000e+00
9.824125e-09    3.022652e-08    0.000000e+00
9.467448e-09    3.036045e-08    0.000000e+00
9.565204e-09    2.926677e-08    0.000000e+00
9.459112e-09    2.890539e-08    0.000000e+00
9.170807e-09    2.898759e-08    0.000000e+00
9.288761e-09    2.941757e-08    0.000000e+00
9.503312e-09    2.902522e-08    0.000000e+00
8.824216e-09    2.901654e-08    0.000000e+00
9.234081e-09    2.885519e-08    0.000000e+00
5.625459e-09    3.954555e-08    0.000000e+00
6.226032e-09    4.168838e-08    0.000000e+00
6.917461e-09    3.895217e-08    0.000000e+00
4.251924e-09    4.023872e-08    0.000000e+00
5.159483e-09    3.746454e-08    0.000000e+00
3.242646e-09    4.864457e-08    0.000000e+00
4.113009e-09    5.084036e-08    0.000000e+00
4.806322e-09    4.766004e-08    0.000000e+00
1.639499e-09    4.973952e-08    0.000000e+00
2.474879e-09    4.641203e-08    0.000000e+00
1.800153e-09    5.536972e-08    0.000000e+00
3.449405e-09    5.411868e-08    0.000000e+00
8.573990e-10    5.318784e-08    0.000000e+00
2.497827e-09    5.195853e-08    0.000000e+00
4.022039e-09    4.545223e-08    0.000000e+00
5.515907e-09    4.460083e-08    0.000000e+00
3.350761e-09    4.323404e-08    0.000000e+00
4.822057e-09    4.240876e-08    0.000000e+00
7.811330e-09    3.243575e-08    0.000000e+00
8.144928e-09    3.415383e-08    0.000000e+00
8.618013e-09    3.218145e-08    0.000000e+00
6.890300e-09    3.276813e-08    0.000000e+00
7.648817e-09    3.096325e-08    0.000000e+00
6.410708e-09    3.689878e-08    0.000000e+00
7.566471e-09    3.642601e-08    0.000000e+00
6.049306e-09    3.495525e-08    0.000000e+00
7.151916e-09    3.450955e-08    0.000000e+00
8.373164e-09    3.072287e-08    0.000000e+00
8.995611e-09    3.054715e-08    0.000000e+00
8.303380e-09    2.967775e-08    0.000000e+00
8.847352e-09    2.953959e-08    0.000000e+00
4.385391e-10    2.539252e-08    0.000000e+00
5.152178e-10    2.538523e-08    0.000000e+00
3.877086e-10    2.531268e-08    0.000000e+00
4.372186e-10    2.546372e-08    0.000000e+00
4.952423e-10    2.549114e-08    0.000000e+00
3.872102e-10    2.536284e-08    0.000000e+00
4.568490e-10    2.551631e-08    0.000000e+00
4.972145e-10    2.558241e-08    0.000000e+00
4.068388e-10    2.539803e-08    0.000000e+00
5.198126e-10    2.565254e-08    0.000000e+00
4.455397e-10    2.541361e-08    0.000000e+00
6.704590e-10    2.590351e-08    0.000000e+00
5.740657e-10    2.572831e-08    0.000000e+00
9.087553e-10    2.617672e-08    0.000000e+00
7.715073e-10    2.595645e-08    0.000000e+00
1.247143e-09    2.647556e-08    0.000000e+00
1.060592e-09    2.620403e-08    0.000000e+00
1.698573e-09    2.680156e-08    0.000000e+00
1.453888e-09    2.647346e-08    0.000000e+00
2.274294e-09    2.715351e-08    0.000000e+00
1.963405e-09    2.676571e-08    0.000000e+00
2.980963e-09    2.752637e-08    0.000000e+00
2.598250e-09    2.707965e-08    0.000000e+00
3.817015e-09    2.791004e-08    0.000000e+00
3.361624e-09    2.741119e-08    0.000000e+00
4.768254e-09    2.828804e-08    0.000000e+00
4.247135e-09    2.775244e-08    0.000000e+00
5.802678e-09    2.863619e-08    0.000000e+00
5.234369e-09    2.809056e-08    0.000000e+00
6.865089e-09    2.892091e-08    0.000000e+00
6.284009e-09    2.840677e-08    0.000000e+00
7.869079e-09    2.909865e-08    0.000000e+00
7.332077e-09    2.867540e-08    0.000000e+00
8.693675e-09    2.910486e-08    0.000000e+00
8.283905e-09    2.886119e-08    0.000000e+00
9.098841e-09    2.888789e-08    0.000000e+00
8.996859e-09    2.892337e-08    0.000000e+00
9.196685e-09    2.882313e-08    0.000000e+00
8.966441e-09    2.807935e-08    0.000000e+00
9.351965e-09    2.873632e-08    0.000000e+00
8.296368e-09    2.751517e-08    0.000000e+00
8.763603e-09    2.813402e-08    0.000000e+00
7.429043e-09    2.703441e-08    0.000000e+00
7.980604e-09    2.765769e-08    0.000000e+00
6.477608e-09    2.666277e-08    0.000000e+00
7.040296e-09    2.724842e-08    0.000000e+00
5.510518e-09    2.637388e-08    0.000000e+00
6.048761e-09    2.691133e-08    0.000000e+00
4.582353e-09    2.615299e-08    0.000000e+00
5.070721e-09    2.663314e-08    0.000000e+00
3.728012e-09    2.598388e-08    0.000000e+00
4.154158e-09    2.640421e-08    0.000000e+00
2.968482e-09    2.585316e-08    0.000000e+00
3.328142e-09    2.621444e-08    0.000000e+00
2.313597e-09    2.574940e-08    0.000000e+00
2.608327e-09    2.605493e-08    0.000000e+00
1.765072e-09    2.566346e-08    0.000000e+00
1.999993e-09    2.591796e-08    0.000000e+00
1.319017e-09    2.558830e-08    0.000000e+00
1.501155e-09    2.579711e-08    0.000000e+00
9.680878e-10    2.551883e-08    0.000000e+00
1.105124e-09    2.568734e-08    0.000000e+00
7.032579e-10    2.545174e-08    0.000000e+00
8.026488e-10    2.558490e-08    0.000000e+00
5.836654e-10    2.548724e-08    0.000000e+00
3.333866e-09    2.681106e-08    0.000000e+00
2.952914e-09    2.696486e-08    0.000000e+00
3.767626e-09    2.726020e-08    0.000000e+00
2.947691e-09    2.640985e-08    0.000000e+00
3.736215e-09    2.662452e-08    0.000000e+00
1.070472e-09    2.595216e-08    0.000000e+00
9.045965e-10    2.597326e-08    0.000000e+00
1.245850e-09    2.619217e-08    0.000000e+00
9.238907e-10    2.575111e-08    0.000000e+00
1.269351e-09    2.589385e-08    0.000000e+00
5.678510e-10    2.561664e-08    0.000000e+00
6.589609e-10    2.577093e-08    0.000000e+00
6.694107e-10    2.561773e-08    0.000000e+00
7.753589e-10    2.577858e-08    0.000000e+00
1.968745e-09    2.634407e-08    0.000000e+00
1.694743e-09    2.642980e-08    0.000000e+00
2.261665e-09    2.668739e-08    0.000000e+00
1.716408e-09    2.604880e-08    0.000000e+00
2.274087e-09    2.621944e-08    0.000000e+00
1.464662e-09    2.613983e-08    0.000000e+00
2.590846e-09    2.656720e-08    0.000000e+00
7.200833e-09    2.798888e-08    0.000000e+00
6.754408e-09    2.818927e-08    0.000000e+00
7.768822e-09    2.847132e-08    0.000000e+00
6.618429e-09    2.745948e-08    0.000000e+00
7.612799e-09    2.781331e-08    0.000000e+00
5.148897e-09    2.736348e-08    0.000000e+00
4.694060e-09    2.756878e-08    0.000000e+00
5.705283e-09    2.788249e-08    0.000000e+00
4.629264e-09    2.686813e-08    0.000000e+00
5.603507e-09    2.714513e-08    0.000000e+00
4.192357e-09    2.707664e-08    0.000000e+00
6.169811e-09    2.766929e-08    0.000000e+00
8.942407e-09    2.863702e-08    0.000000e+00
8.647542e-09    2.870775e-08    0.000000e+00
9.220524e-09    2.885455e-08    0.000000e+00
8.495436e-09    2.820910e-08    0.000000e+00
9.177567e-09    2.863676e-08    0.000000e+00
8.160612e-09    2.831484e-08    0.000000e+00
9.381570e-09    2.888108e-08    0.000000e+00
6.456733e-09    2.359156e-08    0.000000e+00
6.071658e-09    2.396896e-08    0.000000e+00
6.599070e-09    2.345460e-08    0.000000e+00
6.513935e-09    2.342492e-08    0.000000e+00
6.223015e-09    2.363961e-08    0.000000e+00
6.684199e-09    2.336343e-08    0.000000e+00
6.505049e-09    2.326541e-08    0.000000e+00
6.292903e-09    2.338676e-08    0.000000e+00
6.662659e-09    2.331550e-08    0.000000e+00
6.313873e-09    2.311780e-08    0.000000e+00
6.584963e-09    2.324111e-08    0.000000e+00
5.761118e-09    2.306330e-08    0.000000e+00
6.039730e-09    2.325202e-08    0.000000e+00
5.025211e-09    2.311020e-08    0.000000e+00
5.342763e-09    2.330851e-08    0.000000e+00
4.226424e-09    2.323630e-08    0.000000e+00
4.540170e-09    2.342270e-08    0.000000e+00
3.448162e-09    2.341324e-08    0.000000e+00
3.734843e-09    2.357328e-08    0.000000e+00
2.739491e-09    2.362021e-08    0.000000e+00
2.987363e-09    2.374698e-08    0.000000e+00
2.125502e-09    2.384241e-08    0.000000e+00
2.329894e-09    2.393394e-08    0.000000e+00
1.615029e-09    2.406981e-08    0.000000e+00
1.776090e-09    2.412718e-08    0.000000e+00
1.206654e-09    2.429648e-08    0.000000e+00
1.327248e-09    2.432226e-08    0.000000e+00
8.934957e-10    2.451988e-08    0.000000e+00
9.775865e-10    2.451688e-08    0.000000e+00
6.669128e-10    2.474020e-08    0.000000e+00
7.183668e-10    2.471062e-08    0.000000e+00
5.192410e-10    2.495977e-08    0.000000e+00
5.409828e-10    2.490459e-08    0.000000e+00
4.456931e-10    2.518255e-08    0.000000e+00
4.391676e-10    2.510117e-08    0.000000e+00
4.104366e-10    2.530373e-08    0.000000e+00
3.312081e-10    2.523488e-08    0.000000e+00
3.520825e-10    2.528689e-08    0.000000e+00
3.527303e-10    2.515993e-08    0.000000e+00
3.449550e-10    2.518512e-08    0.000000e+00
4.498384e-10    2.509055e-08    0.000000e+00
4.128862e-10    2.508826e-08    0.000000e+00
6.247299e-10    2.502940e-08    0.000000e+00
5.563986e-10    2.499768e-08    0.000000e+00
8.835145e-10    2.497821e-08    0.000000e+00
7.803330e-10    2.491450e-08    0.000000e+00
1.234797e-09    2.493688e-08    0.000000e+00
1.092719e-09    2.483892e-08    0.000000e+00
1.687478e-09    2.490235e-08    0.000000e+00
1.502907e-09    2.476943e-08    0.000000e+00
2.247643e-09    2.486734e-08    0.000000e+00
2.018855e-09    2.470194e-08    0.000000e+00
2.914393e-09    2.481897e-08    0.000000e+00
2.643409e-09    2.462879e-08    0.000000e+00
3.674594e-09    2.473720e-08    0.000000e+00
3.369512e-09    2.453760e-08    0.000000e+00
4.496084e-09    2.459392e-08    0.000000e+00
4.174119e-09    2.441034e-08    0.000000e+00
5.323392e-09    2.435063e-08    0.000000e+00
5.011786e-09    2.422259e-08    0.000000e+00
5.810750e-09    2.394880e-08    0.000000e+00
1.629261e-09    2.445668e-08    0.000000e+00
1.959168e-09    2.421280e-08    0.000000e+00
1.467733e-09    2.437563e-08    0.000000e+00
1.812818e-09    2.456536e-08    0.000000e+00
1.340741e-09    2.466534e-08    0.000000e+00
4.360816e-09    2.391221e-08    0.000000e+00
4.866170e-09    2.359926e-08    0.000000e+00
4.041106e-09    2.374247e-08    0.000000e+00
4.687443e-09    2.407500e-08    0.000000e+00
3.856073e-09    2.423069e-08    0.000000e+00
5.952473e-09    2.358807e-08    0.000000e+00
5.655479e-09    2.347625e-08    0.000000e+00
5.511041e-09    2.387814e-08    0.000000e+00
5.192661e-09    2.375285e-08    0.000000e+00
2.807825e-09    2.419360e-08    0.000000e+00
3.257979e-09    2.389450e-08    0.000000e+00
2.557564e-09    2.405194e-08    0.000000e+00
3.079426e-09    2.435614e-08    0.000000e+00
2.393142e-09    2.446443e-08    0.000000e+00
3.548691e-09    2.405747e-08    0.000000e+00
2.164790e-09    2.432558e-08    0.000000e+00
6.283532e-10    2.486189e-08    0.000000e+00
7.854686e-10    2.470483e-08    0.000000e+00
5.770827e-10    2.487167e-08    0.000000e+00
6.957125e-10    2.487597e-08    0.000000e+00
5.045475e-10    2.498932e-08    0.000000e+00
1.199902e-09    2.458898e-08    0.000000e+00
1.079280e-09    2.453968e-08    0.000000e+00
9.713759e-10    2.476822e-08    0.000000e+00
8.693962e-10    2.472378e-08    0.000000e+00
3.832398e-10    2.515090e-08    0.000000e+00
4.465655e-10    2.504145e-08    0.000000e+00
3.897430e-10    2.521607e-08    0.000000e+00
3.908475e-10    2.510832e-08    0.000000e+00
3.513061e-10    2.523282e-08    0.000000e+00
4.682075e-10    2.500401e-08    0.000000e+00
3.718597e-10    2.530363e-08    0.000000e+00
-5.371846e-12    -8.373614e-11    0.000000e+00
-2.923741e-14    -9.063037e-11    0.000000e+00
-1.410819e-13    -7.241621e-11    0.000000e+00
-1.722872e-11    -9.541458e-11    0.000000e+00
-8.880471e-12    -9.713700e-11    0.000000e+00
-1.252091e-11    -7.781284e-11    0.000000e+00
-3.271308e-11    -1.173404e-10    0.000000e+00
-1.874926e-11    -1.155360e-10    0.000000e+00
-2.833165e-11    -9.239238e-11    0.000000e+00
-5.495886e-11    -1.463462e-10    0.000000e+00
-3.087250e-11    -1.440464e-10    0.000000e+00
-5.132681e-11    -1.145350e-10    0.000000e+00
-8.828401e-11    -1.739637e-10    0.000000e+00
-4.703066e-11    -1.773109e-10    0.000000e+00
-8.635173e-11    -1.393611e-10    0.000000e+00
-1.403169e-10    -1.809181e-10    0.000000e+00
-7.072183e-11    -2.027079e-10    0.000000e+00
-1.401541e-10    -1.546170e-10    0.000000e+00
-2.238779e-10    -1.276629e-10    0.000000e+00
-1.096235e-10    -1.927387e-10    0.000000e+00
-2.220201e-10    -1.351793e-10    0.000000e+00
-3.721539e-10    5.887572e-11    0.000000e+00
-1.843386e-10    -9.573739e-11    0.000000e+00
-3.488504e-10    -2.800267e-11    0.000000e+00
-6.140207e-10    5.028475e-10    0.000000e+00
-3.301294e-10    1.928643e-10    0.000000e+00
-5.356564e-10    2.419021e-10    0.000000e+00
-1.110393e-09    1.377626e-09    0.000000e+00
-6.382660e-10    8.491796e-10    0.000000e+00
-8.312558e-10    8.175265e-10    0.000000e+00
-1.104040e-09    2.285036e-09    0.000000e+00
-2.412983e-09    4.339401e-09    0.000000e+00
-9.798185e-10    1.631721e-09    0.000000e+00
1.183604e-10    2.479071e-09    0.000000e+00
-4.381493e-10    1.400815e-09    0.000000e+00
-5.929806e-10    3.965540e-09    0.000000e+00
1.584637e-09    2.626464e-09    0.000000e+00
7.097147e-10    1.501751e-09    0.000000e+00
9.983931e-10    3.921892e-09    0.000000e+00
1.921361e-09    1.717734e-09    0.000000e+00
2.846237e-09    3.993680e-09    0.000000e+00
1.111579e-09    5.431619e-10    0.000000e+00
1.052470e-09    8.881954e-10    0.000000e+00
6.067011e-10    6.109138e-11    0.000000e+00
6.269526e-10    1.745490e-10    0.000000e+00
3.152878e-10    -1.289332e-10    0.000000e+00
3.531502e-10    -1.017866e-10    0.000000e+00
1.474058e-10    -1.892258e-10    0.000000e+00
1.839039e-10    -1.966428e-10    0.000000e+00
5.444191e-11    -1.904182e-10    0.000000e+00
8.351415e-11    -2.093913e-10    0.000000e+00
7.957449e-12    -1.687793e-10    0.000000e+00
2.802837e-11    -1.883289e-10    0.000000e+00
-1.006159e-11    -1.430185e-10    0.000000e+00
1.514620e-12    -1.580714e-10    0.000000e+00
-1.159368e-11    -1.225362e-10    0.000000e+00
-7.165898e-12    -1.312223e-10    0.000000e+00
-4.733697e-12    -1.115349e-10    0.000000e+00
-5.789695e-12    -1.136098e-10    0.000000e+00
2.180305e-13    -1.076326e-10    0.000000e+00
1.101648e-13    -1.019043e-10    0.000000e+00
-2.597846e-12    -1.067362e-10    0.000000e+00
-3.437555e-12    -9.892092e-11    0.000000e+00
1.819436e-11    -2.220653e-10    0.000000e+00
8.586239e-11    -2.230213e-10    0.000000e+00
3.430713e-11    -2.083129e-10    0.000000e+00
-2.825525e-11    -2.206965e-10    0.000000e+00
-2.431480e-11    -2.044160e-10    0.000000e+00
1.154621e-10    1.253871e-10    0.000000e+00
4.695647e-10    3.943418e-10    0.000000e+00
2.980090e-10    -3.191605e-11    0.000000e+00
-2.006849e-10    4.062206e-10    0.000000e+00
-8.328847e-11    -1.987418e-11    0.000000e+00
1.100624e-10    7.878250e-10    0.000000e+00
8.694077e-11    -1.371818e-10    0.000000e+00
1.708228e-10    -1.865822e-10    0.000000e+00
-4.018995e-11    -1.833124e-10    0.000000e+00
4.836255e-11    -2.192711e-10    0.000000e+00
-7.774905e-12    -1.578655e-10    0.000000e+00
6.830774e-12    -1.761155e-10    0.000000e+00
-4.571191e-12    -1.437374e-10    0.000000e+00
-2.081400e-11    -1.704245e-10    0.000000e+00
-1.600877e-11    -1.368659e-10    0.000000e+00
1.150252e-13    -1.932948e-10    0.000000e+00
-8.600512e-12    -1.278438e-10    0.000000e+00
-6.159640e-12    -1.194557e-10    0.000000e+00
-1.004998e-11    -1.119566e-10    0.000000e+00
-5.243299e-12    -1.085491e-10    0.000000e+00
-2.877333e-09    8.446821e-09    0.000000e+00
-1.735963e-09    6.076992e-09    0.000000e+00
-2.187805e-09    1.256796e-08    0.000000e+00
-1.536140e-09    1.019457e-08    0.000000e+00
-7.511068e-10    1.626666e-08    0.000000e+00
-5.044572e-10    1.409060e-08    0.000000e+00
1.074227e-09    1.918649e-08    0.000000e+00
1.013294e-09    1.739715e-08    0.000000e+00
2.931680e-09    2.124661e-08    0.000000e+00
2.697398e-09    1.990980e-08    0.000000e+00
4.550245e-09    2.251138e-08    0.000000e+00
4.266968e-09    2.162522e-08    0.000000e+00
5.743403e-09    2.313276e-08    0.000000e+00
5.516378e-09    2.264459e-08    0.000000e+00
6.422889e-09    2.330835e-08    0.000000e+00
6.320809e-09    2.313267e-08    0.000000e+00
6.641612e-09    2.328008e-08    0.000000e+00
6.863503e-09    2.278537e-08    0.000000e+00
6.798671e-09    2.315991e-08    0.000000e+00
6.881059e-09    2.183859e-08    0.000000e+00
6.854068e-09    2.251197e-08    0.000000e+00
6.652483e-09    2.051324e-08    0.000000e+00
6.602304e-09    2.153634e-08    0.000000e+00
6.211007e-09    1.871917e-08    0.000000e+00
6.063737e-09    2.011285e-08    0.000000e+00
5.619745e-09    1.641152e-08    0.000000e+00
5.299901e-09    1.814347e-08    0.000000e+00
4.958076e-09    1.361624e-08    0.000000e+00
4.413851e-09    1.559406e-08    0.000000e+00
4.290092e-09    1.043526e-08    0.000000e+00
3.526028e-09    1.250809e-08    0.000000e+00
3.619864e-09    7.087087e-09    0.000000e+00
2.742591e-09    9.040052e-09    0.000000e+00
2.111463e-09    5.516515e-09    0.000000e+00
4.045772e-09    1.904042e-08    0.000000e+00
2.685834e-09    1.827678e-08    0.000000e+00
4.129231e-09    2.043024e-08    0.000000e+00
4.178217e-09    1.738271e-08    0.000000e+00
5.220256e-09    1.960552e-08    0.000000e+00
6.307452e-10    9.572537e-09    0.000000e+00
-6.187019e-10    7.850187e-09    0.000000e+00
4.990059e-11    1.179761e-08    0.000000e+00
1.415239e-09    7.412691e-09    0.000000e+00
2.117039e-09    1.111620e-08    0.000000e+00
2.092357e-10    5.723928e-09    0.000000e+00
1.538742e-09    1.328462e-08    0.000000e+00
1.237434e-09    1.536849e-08    0.000000e+00
3.087860e-09    1.452212e-08    0.000000e+00
2.751779e-09    1.650018e-08    0.000000e+00
6.111473e-09    2.210015e-08    0.000000e+00
5.355949e-09    2.186942e-08    0.000000e+00
6.222780e-09    2.271907e-08    0.000000e+00
6.068210e-09    2.120833e-08    0.000000e+00
6.620108e-09    2.228136e-08    0.000000e+00
5.217106e-09    2.088240e-08    0.000000e+00
6.637035e-09    2.282732e-08    0.000000e+00
6.659985e-09    2.314429e-08    0.000000e+00
6.825829e-09    2.295420e-08    0.000000e+00
6.763407e-09    2.322019e-08    0.000000e+00
0.000000e+00    0.000000e+00    0.000000e+00
-4.278429e-14    -7.202384e-12    0.000000e+00
0.000000e+00    0.000000e+00    0.000000e+00
-3.667985e-12    -7.520304e-12    0.000000e+00
0.000000e+00    0.000000e+00    0.000000e+00
-8.731321e-12    -8.087383e-12    0.000000e+00
0.000000e+00    0.000000e+00    0.000000e+00
-1.675183e-11    -8.587741e-12    0.000000e+00
0.000000e+00    0.000000e+00    0.000000e+00
-2.957626e-11    -8.238417e-12    0.000000e+00
0.000000e+00    0.000000e+00    0.000000e+00
-4.921053e-11    -5.546093e-12    0.000000e+00
0.000000e+00    0.000000e+00    0.000000e+00
-7.696690e-11    2.149089e-12    0.000000e+00
0.000000e+00    0.000000e+00    0.000000e+00
-1.112061e-10    1.889975e-11    0.000000e+00
0.000000e+00    0.000000e+00    0.000000e+00
-1.423575e-10    4.964462e-11    0.000000e+00
0.000000e+00    0.000000e+00    0.000000e+00
-1.480628e-10    9.612005e-11    0.000000e+00
-6.712175e-11    1.572293e-10    0.000000e+00
-2.893617e-10    5.130306e-10    0.000000e+00
-2.365198e-10    2.737685e-10    0.000000e+00
-5.265835e-10    9.081136e-10    0.000000e+00
-4.681334e-10    5.991585e-10    0.000000e+00
-7.982283e-10    1.019164e-09    0.000000e+00
-1.785297e-13    -4.984476e-11    0.000000e+00
-6.398285e-12    -6.280780e-11    0.000000e+00
-1.349886e-13    -2.656348e-11    0.000000e+00
-5.771094e-12    -3.879911e-11    0.000000e+00
-3.388497e-12    -1.648486e-11    0.000000e+00
-1.595864e-10    -9.444231e-11    0.000000e+00
-1.972167e-10    -1.200789e-10    0.000000e+00
-1.231137e-10    -1.222283e-10    0.000000e+00
-1.264329e-10    -3.975924e-11    0.000000e+00
-1.872776e-10    -5.904041e-11    0.000000e+00
-1.174687e-10    -6.661976e-11    0.000000e+00
-1.161262e-10    -1.427082e-11    0.000000e+00
-7.248765e-11    -2.170596e-11    0.000000e+00
-5.039308e-10    2.164720e-10    0.000000e+00
-6.319819e-10    4.436025e-10    0.000000e+00
-4.540528e-10    9.457740e-11    0.000000e+00
-3.607653e-10    1.433787e-10    0.000000e+00
-4.806891e-10    3.037160e-10    0.000000e+00
-3.915247e-10    9.123085e-11    0.000000e+00
-2.742255e-10    1.480645e-10    0.000000e+00
-2.367306e-10    5.785987e-11    0.000000e+00
-6.084113e-10    5.705843e-10    0.000000e+00
-3.850957e-10    3.306758e-10    0.000000e+00
-2.809161e-10    -1.797760e-11    0.000000e+00
-2.484162e-10    -7.200771e-11    0.000000e+00
-1.954775e-10    -2.166245e-11    0.000000e+00
-3.677463e-10    1.366636e-11    0.000000e+00
-2.808663e-10    3.032266e-11    0.000000e+00
-3.040498e-10    -6.731468e-11    0.000000e+00
-1.737326e-10    8.052383e-12    0.000000e+00
-5.686492e-11    -7.571009e-11    0.000000e+00
-7.397959e-11    -1.056336e-10    0.000000e+00
-4.203143e-11    -8.626722e-11    0.000000e+00
-4.438199e-11    -3.733242e-11    0.000000e+00
-6.999698e-11    -6.056087e-11    0.000000e+00
-3.915039e-11    -5.121694e-11    0.000000e+00
-4.271397e-11    -2.216614e-11    0.000000e+00
-2.356496e-11    -2.015688e-11    0.000000e+00
-9.765646e-11    -8.939029e-11    0.000000e+00
-7.707284e-11    -4.158708e-11    0.000000e+00
-1.937726e-11    -4.333295e-11    0.000000e+00
-1.320328e-11    -5.340944e-11    0.000000e+00
-1.002965e-11    -2.824902e-11    0.000000e+00
-3.057794e-11    -6.244774e-11    0.000000e+00
-2.353445e-11    -3.211019e-11    0.000000e+00
-2.116696e-11    -7.111270e-11    0.000000e+00
-1.150109e-11    -1.792862e-11    0.000000e+00

CELL_DATA      259
TENSORS Element_Stress6.000000e-01 double
-1.343765e+03 -5.815156e+02        0
-5.815156e+02 -2.647301e+02        0
       0        0 2.426834e+02

-1.312063e+03 -4.878649e+02        0
-4.878649e+02 -2.509650e+02        0
       0        0 -6.103706e+02

-1.223324e+03 -5.786069e+02        0
-5.786069e+02 -2.842194e+02        0
       0        0 4.593661e+02

-1.062395e+03 -4.394883e+02        0
-4.394883e+02 -2.480707e+02        0
       0        0 -2.637347e+02

-1.462524e+03 -5.403724e+02        0
-5.403724e+02 -1.995667e+02        0
       0        0 1.140734e+03

-1.473398e+03 -5.774369e+02        0
-5.774369e+02 -2.265683e+02        0
       0        0 1.233288e+03

-1.554212e+03 -5.264557e+02        0
-5.264557e+02 -2.507966e+02        0
       0        0 -9.634083e+02

-1.462167e+03 -5.847744e+02        0
-5.847744e+02 -2.467876e+02        0
       0        0 2.399027e+01

-1.457329e+03 -5.081284e+02        0
-5.081284e+02 -1.766970e+02        0
       0        0 1.045417e+03

-2.799761e+03 -8.876233e+02        0
-8.876233e+02 -3.921515e+02        0
       0        0 -2.537166e+03

1.213579e+03 -4.090058e+02        0
-4.090058e+02 -6.612116e+01        0
       0        0 1.639650e+03

-2.872395e+03 -8.830998e+02        0
-8.830998e+02 -1.664893e+03        0
       0        0 -2.608701e+03

1.941050e+03 -3.225388e+02        0
-3.225388e+02 -2.632627e+02        0
       0        0 2.022431e+03

-6.560854e+03 -6.762101e+02        0
-6.762101e+02 -7.839446e+02        0
       0        0 -6.677611e+03

-8.263998e+03 -1.937389e+03        0
-1.937389e+03 -4.355985e+03        0
       0        0 -7.834930e+03

5.274468e+02 -3.562253e+02        0
-3.562253e+02 -3.968136e+01        0
       0        0 1.245989e+03

-2.637395e+03 -8.102239e+02        0
-8.102239e+02 -1.979971e+02        0
       0        0 -2.424229e+03

-5.703742e+03 -6.628318e+02        0
-6.628318e+02 -4.084408e+02        0
       0        0 -5.993571e+03

-2.415163e+03 -7.245042e+02        0
-7.245042e+02 -1.676093e+02        0
       0        0 -2.045793e+03

-4.418506e+02 -3.151638e+02        0
-3.151638e+02 -5.405555e+01        0
       0        0 7.665125e+02

-2.518373e+03 -7.612300e+02        0
-7.612300e+02 -1.701548e+02        0
       0        0 -2.253584e+03

-1.724439e+01 -3.217179e+02        0
-3.217179e+02 -4.445978e+01        0
       0        0 9.570867e+02

-4.416926e+03 -6.935826e+02        0
-6.935826e+02 -2.687473e+02        0
       0        0 -4.779641e+03

-5.011963e+03 -6.851984e+02        0
-6.851984e+02 -3.112439e+02        0
       0        0 -5.374550e+03

-7.697560e+02 -3.240688e+02        0
-3.240688e+02 -6.471335e+01        0
       0        0 6.550191e+02

-2.309734e+03 -6.941720e+02        0
-6.941720e+02 -1.717066e+02        0
       0        0 -1.811570e+03

-3.899052e+03 -6.913471e+02        0
-6.913471e+02 -2.503043e+02        0
       0        0 -4.211349e+03

-2.084526e+03 -6.469474e+02        0
-6.469474e+02 -1.868177e+02        0
       0        0 -1.296284e+03

-1.192005e+03 -3.652906e+02        0
-3.652906e+02 -8.921146e+01        0
       0        0 6.113336e+02

-2.199517e+03 -6.686113e+02        0
-6.686113e+02 -1.786951e+02        0
       0        0 -1.559654e+03

-1.015437e+03 -3.420570e+02        0
-3.420570e+02 -7.646654e+01        0
       0        0 6.074334e+02

-3.047364e+03 -6.649619e+02        0
-6.649619e+02 -2.391190e+02        0
       0        0 -3.155930e+03

-3.446082e+03 -6.810912e+02        0
-6.810912e+02 -2.420322e+02        0
       0        0 -3.670075e+03

-1.311859e+03 -3.913118e+02        0
-3.913118e+02 -1.030602e+02        0
       0        0 6.559780e+02

-1.965180e+03 -6.287306e+02        0
-6.287306e+02 -1.956122e+02        0
       0        0 -1.026335e+03

-2.693272e+03 -6.445065e+02        0
-6.445065e+02 -2.388960e+02        0
       0        0 -2.667993e+03

-1.715467e+03 -6.012809e+02        0
-6.012809e+02 -2.159360e+02        0
       0        0 -4.813512e+02

-1.428813e+03 -4.470917e+02        0
-4.470917e+02 -1.350927e+02        0
       0        0 8.302208e+02

-1.841945e+03 -6.136027e+02        0
-6.136027e+02 -2.051878e+02        0
       0        0 -7.536168e+02

-1.386979e+03 -4.187386e+02        0
-4.187386e+02 -1.182278e+02        0
       0        0 7.318317e+02

-2.082001e+03 -5.932472e+02        0
-5.932472e+02 -2.418048e+02        0
       0        0 -1.763595e+03

-2.374515e+03 -6.205700e+02        0
-6.205700e+02 -2.400383e+02        0
       0        0 -2.204612e+03

-1.448518e+03 -4.769836e+02        0
-4.769836e+02 -1.542907e+02        0
       0        0 9.419697e+02

-1.586299e+03 -5.913461e+02        0
-5.913461e+02 -2.292132e+02        0
       0        0 -2.145384e+02

-1.807236e+03 -5.617596e+02        0
-5.617596e+02 -2.434883e+02        0
       0        0 -1.343426e+03

-1.494033e+03 -6.211448e+02        0
-6.211448e+02 -2.588152e+02        0
       0        0 1.316565e+03

-1.101365e+03 -5.754146e+02        0
-5.754146e+02 -3.065132e+02        0
       0        0 6.675445e+02

-8.015750e+02 -3.793178e+02        0
-3.793178e+02 -2.411178e+02        0
       0        0 7.539432e+01

-1.577847e+03 -7.355684e+02        0
-7.355684e+02 -3.444007e+02        0
       0        0 1.437591e+03

-1.527791e+03 -6.732543e+02        0
-6.732543e+02 -2.976261e+02        0
       0        0 1.386172e+03

-2.335565e+02 -2.137444e+02        0
-2.137444e+02 -2.082706e+02        0
       0        0 7.323458e+02

-8.547058e+02 -5.668829e+02        0
-5.668829e+02 -3.602732e+02        0
       0        0 1.048371e+03

-5.261836e+02 -3.049362e+02        0
-3.049362e+02 -2.284217e+02        0
       0        0 4.074963e+02

-9.783618e+02 -5.716093e+02        0
-5.716093e+02 -3.318326e+02        0
       0        0 8.647471e+02

-1.646782e+03 -8.103603e+02        0
-8.103603e+02 -4.008155e+02        0
       0        0 1.466063e+03

-7.312493e+02 -5.609505e+02        0
-5.609505e+02 -3.915580e+02        0
       0        0 1.215276e+03

7.899216e+01 -1.035564e+02        0
-1.035564e+02 -1.777066e+02        0
       0        0 1.049409e+03

-1.848990e+03 -1.004194e+03        0
-1.004194e+03 -5.478811e+02        0
       0        0 1.434340e+03

-1.737984e+03 -8.976726e+02        0
-8.976726e+02 -4.666886e+02        0
       0        0 1.466714e+03

7.750269e+02 1.854365e+02        0
1.854365e+02 -7.812520e+01        0
       0        0 1.652642e+03

-4.983897e+02 -5.465521e+02        0
-5.465521e+02 -4.628429e+02        0
       0        0 1.479604e+03

4.141007e+02 2.796360e+01        0
2.796360e+01 -1.371607e+02        0
       0        0 1.356343e+03

-6.090692e+02 -5.551870e+02        0
-5.551870e+02 -4.251342e+02        0
       0        0 1.361736e+03

-1.994518e+03 -1.105757e+03        0
-1.105757e+03 -6.306640e+02        0
       0        0 1.364500e+03

-4.014758e+02 -5.271210e+02        0
-5.271210e+02 -5.648893e+02        0
       0        0 1.546627e+03

1.076072e+03 3.959965e+02        0
3.959965e+02 -7.616273e+00        0
       0        0 1.904806e+03

-2.169458e+03 -1.199142e+03        0
-1.199142e+03 -2.200057e+03        0
       0        0 7.655642e+02

-2.156558e+03 -1.309103e+03        0
-1.309103e+03 -1.001651e+03        0
       0        0 1.176424e+03

2.471985e+02 7.353853e+02        0
7.353853e+02 6.460396e+02        0
       0        0 2.021647e+03

-6.695036e+02 2.682148e+02        0
2.682148e+02 -5.512601e+02        0
       0        0 1.540216e+03

8.894592e+02 6.800465e+02        0
6.800465e+02 1.623123e+02        0
       0        0 2.000342e+03

-3.674733e+02 -1.956571e+02        0
-1.956571e+02 -7.330559e+02        0
       0        0 1.551600e+03

3.047151e+01 -5.222598e+01        0
-5.222598e+01 -1.501658e+03        0
       0        0 1.369955e+03

2.495477e+01 -1.923215e+02        0
-1.923215e+02 4.584024e+01        0
       0        0 1.604579e+03

3.368064e+01 -3.049469e+02        0
-3.049469e+02 5.756051e+02        0
       0        0 1.929861e+03

3.042245e+01 -1.047757e+02        0
-1.047757e+02 -6.409731e+02        0
       0        0 1.012319e+03

2.141374e+01 -3.269643e+01        0
-3.269643e+01 -5.325470e+02        0
       0        0 1.063094e+03

4.399483e+01 -1.781880e+02        0
-1.781880e+02 -6.490413e+02        0
       0        0 1.225330e+03

2.651859e+01 -4.612094e+01        0
-4.612094e+01 -7.653149e+02        0
       0        0 1.204774e+03

6.415862e+00 -3.126576e+01        0
-3.126576e+01 -6.389492e+02        0
       0        0 9.867633e+02

1.529519e+01 -1.026949e+02        0
-1.026949e+02 -3.536808e+02        0
       0        0 1.284113e+03

1.129453e+01 2.383142e+00        0
2.383142e+00 -6.320077e+02        0
       0        0 6.148485e+02

1.110404e+01 -2.555632e+00        0
-2.555632e+00 -2.792116e+02        0
       0        0 7.445308e+02

1.999551e+01 -4.489861e+01        0
-4.489861e+01 -6.355916e+02        0
       0        0 8.057422e+02

1.595904e+01 -1.731555e+01        0
-1.731555e+01 -3.749641e+02        0
       0        0 9.054188e+02

-4.580344e+00 6.084140e+01        0
6.084140e+01 -9.506147e+02        0
       0        0 4.965309e+02

5.491034e-02 2.209978e+01        0
2.209978e+01 -8.319664e+02        0
       0        0 7.225643e+02

-8.041486e-01 6.338199e+01        0
6.338199e+01 -6.298067e+02        0
       0        0 2.998494e+02

3.119246e+00 2.293732e+01        0
2.293732e+01 -2.189931e+02        0
       0        0 4.472993e+02

4.410186e+00 3.801523e+01        0
3.801523e+01 -6.301429e+02        0
       0        0 4.453128e+02

6.776273e+00 1.106346e+01        0
1.106346e+01 -2.313226e+02        0
       0        0 5.897257e+02

-9.764852e+00 1.032786e+02        0
1.032786e+02 -1.032628e+03        0
       0        0 1.603079e+02

-7.784067e+00 8.710596e+01        0
8.710596e+01 -1.012348e+03        0
       0        0 3.096703e+02

-6.886117e+00 8.931236e+01        0
8.931236e+01 -6.328538e+02        0
       0        0 8.199028e+01

-2.121526e+00 4.036502e+01        0
4.036502e+01 -2.593055e+02        0
       0        0 2.133614e+02

-4.505011e+00 7.997390e+01        0
7.997390e+01 -6.307848e+02        0
       0        0 1.790368e+02

1.545400e-01 3.275681e+01        0
3.275681e+01 -2.313843e+02        0
       0        0 3.211538e+02

-1.105908e+01 1.140628e+02        0
1.140628e+02 -1.000556e+03        0
       0        0 -4.085483e+01

-1.078304e+01 1.115874e+02        0
1.115874e+02 -1.024941e+03        0
       0        0 4.494285e+01

-8.488395e+00 9.195531e+01        0
9.195531e+01 -6.393332e+02        0
       0        0 -4.822209e+01

-4.760176e+00 4.895709e+01        0
4.895709e+01 -3.329285e+02        0
       0        0 5.498488e+01

-8.147733e+00 9.285716e+01        0
9.285716e+01 -6.357943e+02        0
       0        0 6.948901e+00

-3.741858e+00 4.574112e+01        0
4.574112e+01 -2.951802e+02        0
       0        0 1.246741e+02

-1.016066e+01 1.083428e+02        0
1.083428e+02 -9.359886e+02        0
       0        0 -1.423510e+02

-1.079115e+01 1.124790e+02        0
1.124790e+02 -9.685653e+02        0
       0        0 -1.017941e+02

-5.220547e+00 5.008839e+01        0
5.008839e+01 -3.673819e+02        0
       0        0 3.848223e+00

-8.098268e+00 8.773936e+01        0
8.773936e+01 -6.421922e+02        0
       0        0 -8.536047e+01

-9.302205e+00 1.028811e+02        0
1.028811e+02 -9.074882e+02        0
       0        0 -1.662415e+02

7.021985e+01 -3.660148e+02        0
-3.660148e+02 -7.017947e+02        0
       0        0 1.596939e+03

3.427717e+01 -5.974487e+01        0
-5.974487e+01 -1.091853e+03        0
       0        0 1.313353e+03

5.776380e+01 -2.623384e+02        0
-2.623384e+02 -6.598516e+02        0
       0        0 1.429731e+03

-1.909210e+02 3.193542e+02        0
3.193542e+02 1.128070e+03        0
       0        0 2.101527e+03

-1.158761e+02 -2.264130e+02        0
-2.264130e+02 1.074662e+03        0
       0        0 2.123696e+03

-9.259490e+02 -6.263954e+02        0
-6.263954e+02 -2.805362e+03        0
       0        0 9.150496e+02

-8.424925e+02 -9.759543e+01        0
-9.759543e+01 -2.742782e+02        0
       0        0 1.604498e+03

-3.239326e+01 -1.195277e+02        0
-1.195277e+02 -2.129450e+03        0
       0        0 1.302128e+03

-1.956677e+02 -4.291928e+02        0
-4.291928e+02 -6.074450e+02        0
       0        0 1.668924e+03

-8.236311e+01 7.724058e+01        0
7.724058e+01 1.263895e+02        0
       0        0 1.467800e+03

-2.148401e+02 3.686483e+02        0
3.686483e+02 -6.182098e+02        0
       0        0 1.247430e+03

-1.713629e+02 4.525201e+02        0
4.525201e+02 -1.505282e+03        0
       0        0 1.023704e+03

-5.470516e+01 1.444042e+02        0
1.444042e+02 -1.771554e+02        0
       0        0 1.236482e+03

-1.034513e+02 3.265130e+02        0
3.265130e+02 -6.624901e+02        0
       0        0 1.095025e+03

-5.850764e+01 2.708525e+02        0
2.708525e+02 -1.127373e+03        0
       0        0 9.779504e+02

-3.508486e+01 1.524840e+02        0
1.524840e+02 -4.796648e+02        0
       0        0 9.707133e+02

-4.786395e+01 2.561083e+02        0
2.561083e+02 -6.717889e+02        0
       0        0 9.106183e+02

-2.081934e+01 1.784659e+02        0
1.784659e+02 -8.072401e+02        0
       0        0 8.751436e+02

-1.936084e+01 1.246160e+02        0
1.246160e+02 -8.473769e+02        0
       0        0 4.949725e+02

-2.592111e+01 1.392375e+02        0
1.392375e+02 -7.067393e+02        0
       0        0 7.157917e+02

-5.510365e+00 8.233372e+01        0
8.233372e+01 -4.749749e+02        0
       0        0 5.809884e+02

-1.745489e+01 1.372458e+02        0
1.372458e+02 -6.722084e+02        0
       0        0 5.323293e+02

-1.123365e+01 1.217430e+02        0
1.217430e+02 -5.996549e+02        0
       0        0 7.328854e+02

-2.876476e+01 1.889261e+02        0
1.889261e+02 -6.719804e+02        0
       0        0 7.159042e+02

-1.074143e+01 1.006221e+02        0
1.006221e+02 -9.514986e+02        0
       0        0 1.664945e+02

-1.438179e+01 1.114991e+02        0
1.114991e+02 -9.223865e+02        0
       0        0 3.122661e+02

-6.063393e-01 4.170865e+01        0
4.170865e+01 -3.869003e+02        0
       0        0 3.025611e+02

-4.716029e+00 7.550308e+01        0
7.550308e+01 -6.715531e+02        0
       0        0 2.324322e+02

-2.203528e+00 5.663234e+01        0
5.663234e+01 -4.104424e+02        0
       0        0 4.345440e+02

-9.625427e+00 1.001541e+02        0
1.001541e+02 -6.722777e+02        0
       0        0 3.698240e+02

-8.291262e+00 9.241962e+01        0
9.241962e+01 -9.511871e+02        0
       0        0 5.393487e+01

-2.097076e+00 6.104524e+01        0
6.104524e+01 -6.699829e+02        0
       0        0 1.207854e+02

-2.612128e-01 3.472278e+01        0
3.472278e+01 -3.882583e+02        0
       0        0 1.899373e+02

-6.190426e+00 8.450109e+01        0
8.450109e+01 -9.126322e+02        0
       0        0 -9.135565e+01

-6.837300e+00 8.705533e+01        0
8.705533e+01 -9.347769e+02        0
       0        0 -3.032124e+01

-1.668378e+00 3.519077e+01        0
3.519077e+01 -4.176025e+02        0
       0        0 2.970585e+01

-1.504672e+00 5.424463e+01        0
5.424463e+01 -6.643567e+02        0
       0        0 -3.147119e+01

-7.312518e-01 3.323139e+01        0
3.323139e+01 -4.017442e+02        0
       0        0 9.881598e+01

-1.196606e+00 5.461652e+01        0
5.461652e+01 -6.675645e+02        0
       0        0 3.355865e+01

-6.624404e+00 8.697897e+01        0
8.697897e+01 -8.795662e+02        0
       0        0 -1.608635e+02

-6.173344e+00 8.457708e+01        0
8.457708e+01 -8.924490e+02        0
       0        0 -1.337024e+02

-3.874388e+00 4.320956e+01        0
4.320956e+01 -4.305866e+02        0
       0        0 -4.364376e+01

-4.092472e+00 6.487814e+01        0
6.487814e+01 -6.559636e+02        0
       0        0 -1.038106e+02

-2.791601e+00 3.895167e+01        0
3.895167e+01 -4.287776e+02        0
       0        0 -1.765001e+01

-2.591053e+00 5.818019e+01        0
5.818019e+01 -6.604502e+02        0
       0        0 -7.663418e+01

-8.340820e+00 9.689168e+01        0
9.689168e+01 -8.867994e+02        0
       0        0 -1.767980e+02

-7.396866e+00 9.127503e+01        0
9.127503e+01 -8.772340e+02        0
       0        0 -1.750066e+02

-5.211199e+00 4.938552e+01        0
4.938552e+01 -3.978261e+02        0
       0        0 -3.154946e+01

-7.122147e+00 8.105868e+01        0
8.105868e+01 -6.458740e+02        0
       0        0 -1.074951e+02

-4.738058e+00 4.694794e+01        0
4.694794e+01 -4.204688e+02        0
       0        0 -4.839809e+01

-5.697127e+00 7.294211e+01        0
7.294211e+01 -6.510445e+02        0
       0        0 -1.140732e+02

2.080330e+03 -3.968315e+02        0
-3.968315e+02 1.560308e+01        0
       0        0 1.030414e+03

2.648140e+03 -1.288157e+02        0
-1.288157e+02 -1.193255e+02        0
       0        0 1.339229e+03

-1.463331e+03 7.332858e+01        0
7.332858e+01 -5.110275e+01        0
       0        0 -6.761481e+02

-3.061707e-01 -5.459939e+02        0
-5.459939e+02 6.907079e+01        0
       0        0 8.100770e+01

-3.101242e+03 6.601615e+02        0
6.601615e+02 -1.676251e+03        0
       0        0 -1.800048e+03

-3.516130e+02 -3.875440e+01        0
-3.875440e+01 -7.650962e+02        0
       0        0 -2.820684e+02

1.348662e+03 -2.923027e+02        0
-2.923027e+02 4.219654e+01        0
       0        0 6.804184e+02

2.116270e+02 -4.856079e+02        0
-4.856079e+02 1.828998e+02        0
       0        0 1.766280e+02

-6.484217e+02 -2.134702e+02        0
-2.134702e+02 2.174348e+02        0
       0        0 -2.647932e+02

4.950734e+02 -1.239987e+02        0
-1.239987e+02 1.906245e+01        0
       0        0 2.493966e+02

8.343849e+02 -1.889492e+02        0
-1.889492e+02 2.842988e+01        0
       0        0 4.236111e+02

-1.312808e+02 -2.423699e+02        0
-2.423699e+02 1.869703e+02        0
       0        0 -4.972501e+01

1.816250e+02 -2.618340e+02        0
-2.618340e+02 1.012765e+02        0
       0        0 1.084935e+02

-2.894985e+02 -2.715958e+02        0
-2.715958e+02 2.206718e+02        0
       0        0 -1.106539e+02

2.397904e+02 -3.649116e+02        0
-3.649116e+02 1.390226e+02        0
       0        0 1.564989e+02

1.276320e+02 -5.214356e+01        0
-5.214356e+01 9.914111e+00        0
       0        0 5.426085e+01

2.721137e+02 -8.132500e+01        0
-8.132500e+01 1.332238e+01        0
       0        0 1.320098e+02

-3.976938e+01 -1.305560e+02        0
-1.305560e+02 1.244921e+02        0
       0        0 -2.050841e+01

5.609556e+01 -1.204942e+02        0
-1.204942e+02 5.842108e+01        0
       0        0 2.778950e+01

-6.684781e+01 -1.869017e+02        0
-1.869017e+02 1.539746e+02        0
       0        0 -2.744800e+01

1.128934e+02 -1.818748e+02        0
-1.818748e+02 7.589182e+01        0
       0        0 6.314693e+01

3.817132e+01 -3.147147e+01        0
-3.147147e+01 7.545959e+00        0
       0        0 4.928723e+00

1.634782e+01 -7.441385e+01        0
-7.441385e+01 4.559214e+01        0
       0        0 2.997237e+00

-2.839953e+01 -8.298029e+01        0
-8.298029e+01 1.000067e+02        0
       0        0 -1.963289e+01

-3.597062e+01 -5.071914e+00        0
-5.071914e+00 5.288779e+00        0
       0        0 -3.648195e+01

-1.258286e+01 -1.661473e+01        0
-1.661473e+01 6.016583e+00        0
       0        0 -2.372523e+01

-2.167467e+01 -1.425134e+01        0
-1.425134e+01 7.404018e+01        0
       0        0 -2.136457e+01

-1.930926e+01 -1.252980e+01        0
-1.252980e+01 3.282711e+01        0
       0        0 -1.942749e+01

-2.358983e+01 -4.511864e+01        0
-4.511864e+01 8.263472e+01        0
       0        0 -2.053170e+01

-7.790902e+00 -3.986632e+01        0
-3.986632e+01 3.700157e+01        0
       0        0 -1.234299e+01

-2.259694e+03 1.026602e+03        0
1.026602e+03 -2.512652e+02        0
       0        0 -1.365620e+03

-4.432458e+03 1.647182e+03        0
1.647182e+03 -1.023310e+03        0
       0        0 -2.220722e+03

2.568795e+02 7.329713e+02        0
7.329713e+02 -2.499088e+02        0
       0        0 9.128371e+02

-8.842905e+02 1.381944e+03        0
1.381944e+03 -3.784638e+02        0
       0        0 -2.307211e+02

1.917914e+03 4.656789e+02        0
4.656789e+02 -1.634942e+02        0
       0        0 1.280921e+03

-8.770115e+02 1.368131e+03        0
1.368131e+03 -8.412773e+02        0
       0        0 -4.409344e+02

-8.381678e+02 6.813606e+02        0
6.813606e+02 -3.496902e+02        0
       0        0 -7.049060e+02

-6.954555e+02 1.104964e+03        0
1.104964e+03 -6.300371e+02        0
       0        0 -3.309100e+01

-1.064177e+03 9.058180e+02        0
9.058180e+02 -5.159844e+02        0
       0        0 6.107226e+02

3.220100e+02 -9.135340e+01        0
-9.135340e+01 -9.016506e+01        0
       0        0 6.083783e+02

-3.098821e+01 2.729788e+02        0
2.729788e+02 -2.763065e+02        0
       0        0 -1.571948e+01

-1.923322e+03 1.409069e+03        0
1.409069e+03 -1.186549e+03        0
       0        0 5.425587e+02

-5.933557e+02 6.273350e+02        0
6.273350e+02 -7.695921e+02        0
       0        0 5.999179e+02

-1.743707e+03 1.176305e+03        0
1.176305e+03 -8.342044e+02        0
       0        0 5.079088e+02

-6.105632e+02 8.317235e+02        0
8.317235e+02 -7.598399e+02        0
       0        0 2.655743e+02

2.714320e+02 -3.878349e+02        0
-3.878349e+02 3.566714e+02        0
       0        0 1.465415e+03

3.749805e+02 -3.157437e+02        0
-3.157437e+02 1.482202e+02        0
       0        0 1.112206e+03

-1.421249e+03 1.463459e+03        0
1.463459e+03 -1.784487e+03        0
       0        0 7.851670e+02

-5.682446e+02 4.292904e+02        0
4.292904e+02 -6.594898e+02        0
       0        0 1.151644e+03

-1.763414e+03 1.512659e+03        0
1.512659e+03 -1.521343e+03        0
       0        0 6.528852e+02

-5.888855e+02 4.974774e+02        0
4.974774e+02 -7.210581e+02        0
       0        0 9.091489e+02

1.215312e+02 -3.336500e+02        0
-3.336500e+02 4.772939e+02        0
       0        0 1.661987e+03

-5.183904e+02 4.012848e+02        0
4.012848e+02 -6.127664e+02        0
       0        0 1.305873e+03

-1.025166e+03 1.283135e+03        0
1.283135e+03 -1.931562e+03        0
       0        0 9.021077e+02

-7.339448e+01 -5.010695e+01        0
-5.010695e+01 3.613569e+02        0
       0        0 1.638453e+03

-4.935329e+00 -2.027554e+02        0
-2.027554e+02 4.796404e+02        0
       0        0 1.712504e+03

-3.812366e+02 7.243954e+02        0
7.243954e+02 -1.800040e+03        0
       0        0 1.019676e+03

-3.361237e+02 3.795850e+02        0
3.795850e+02 -5.833542e+02        0
       0        0 1.345060e+03

-6.621545e+02 1.019402e+03        0
1.019402e+03 -1.940520e+03        0
       0        0 9.821545e+02

-4.389800e+02 3.912465e+02        0
3.912465e+02 -5.912113e+02        0
       0        0 1.367067e+03

-9.530347e+02 8.688319e+02        0
8.688319e+02 -8.697263e+02        0
       0        0 -8.336710e+02

-1.622075e+03 7.836472e+02        0
7.836472e+02 -5.430591e+02        0
       0        0 -9.794425e+02

-7.344927e+02 1.265167e+03        0
1.265167e+03 -2.285496e+03        0
       0        0 -1.184995e+03

-2.301734e+03 2.043389e+03        0
2.043389e+03 -2.693671e+03        0
       0        0 -1.913992e+03

-5.119442e+02 6.706391e+02        0
6.706391e+02 -1.097198e+03        0
       0        0 -5.607552e+02

-6.438934e+02 7.651959e+02        0
7.651959e+02 -1.072387e+03        0
       0        0 -7.137533e+02

-4.348316e+02 6.431794e+02        0
6.431794e+02 -1.784700e+03        0
       0        0 -7.212619e+02

-4.214081e+02 8.751793e+02        0
8.751793e+02 -1.939458e+03        0
       0        0 -8.719145e+02

-3.939591e+02 3.435107e+01        0
3.435107e+01 1.863913e+02        0
       0        0 -2.193100e+02

-3.376682e+02 -1.183211e+02        0
-1.183211e+02 2.164555e+02        0
       0        0 -1.716168e+02

-5.976910e+02 1.537559e+02        0
1.537559e+02 7.350633e+01        0
       0        0 -3.590954e+02

-5.713561e+02 -4.514214e+01        0
-4.514214e+01 1.826067e+02        0
       0        0 -2.966767e+02

-8.393449e+02 4.245477e+02        0
4.245477e+02 -2.283834e+02        0
       0        0 -5.704593e+02

-9.562127e+02 1.946183e+02        0
1.946183e+02 2.800507e+01        0
       0        0 -5.212014e+02

-1.438589e+02 2.626255e+02        0
2.626255e+02 1.575823e+01        0
       0        0 -8.912920e+01

-3.245970e+02 1.687165e+02        0
1.687165e+02 1.156376e+02        0
       0        0 -1.899256e+02

-2.577565e+02 3.990856e+02        0
3.990856e+02 -1.692688e+02        0
       0        0 -1.924734e+02

-4.845778e+02 2.956010e+02        0
2.956010e+02 -5.037963e+01        0
       0        0 -3.211741e+02

-3.959588e+02 5.562342e+02        0
5.562342e+02 -5.220367e+02        0
       0        0 -3.514021e+02

-6.329160e+02 4.996259e+02        0
4.996259e+02 -4.218773e+02        0
       0        0 -5.068064e+02

-1.403090e+02 -2.082478e+01        0
-2.082478e+01 1.940696e+02        0
       0        0 -7.644965e+01

-1.155568e+02 -8.952357e+01        0
-8.952357e+01 1.759199e+02        0
       0        0 -6.259876e+01

-2.424274e+02 -1.008588e+01        0
-1.008588e+01 2.097707e+02        0
       0        0 -1.301724e+02

-1.990270e+02 -1.156097e+02        0
-1.156097e+02 2.042526e+02        0
       0        0 -1.017498e+02

-1.877029e+01 9.458728e+01        0
9.458728e+01 1.242294e+02        0
       0        0 2.610536e+00

-1.066043e+02 4.851932e+01        0
4.851932e+01 1.750742e+02        0
       0        0 -5.395944e+01

-6.597839e+01 1.620585e+02        0
1.620585e+02 9.766089e+01        0
       0        0 -2.901611e+01

-1.955050e+02 9.214837e+01        0
9.214837e+01 1.716787e+02        0
       0        0 -1.047724e+02

-2.324961e+01 -3.850109e+00        0
-3.850109e+00 1.317318e+02        0
       0        0 -2.260557e+01

-2.694502e+01 -1.058406e+01        0
-1.058406e+01 1.109788e+02        0
       0        0 -2.637187e+01

-4.024880e+01 -1.166171e+01        0
-1.166171e+01 1.443469e+02        0
       0        0 -2.947827e+01

-3.945135e+01 -3.334062e+01        0
-3.334062e+01 1.229029e+02        0
       0        0 -3.070013e+01

-7.649816e+01 -1.844137e+01        0
-1.844137e+01 1.674594e+02        0
       0        0 -4.575114e+01

-6.651710e+01 -5.978618e+01        0
-5.978618e+01 1.460094e+02        0
       0        0 -4.144705e+01

2.600738e+01 7.443906e+00        0
7.443906e+00 1.148638e+02        0
       0        0 2.628960e+01

-5.136406e+00 3.099401e+00        0
3.099401e+00 1.321811e+02        0
       0        0 -4.564226e+00

2.046944e+01 2.509472e+01        0
2.509472e+01 1.198152e+02        0
       0        0 2.407004e+01

-1.969122e+01 1.083048e+01        0
1.083048e+01 1.423663e+02        0
       0        0 -1.074719e+01

7.389359e+00 5.173517e+01        0
5.173517e+01 1.259241e+02        0
       0        0 1.770807e+01

-5.096456e+01 2.413805e+01        0
2.413805e+01 1.595016e+02        0
       0        0 -2.545937e+01

POINT_DATA     938
VECTORS DISPLACEMENT_8.000000e-01 double
5.955026e-09    4.984293e-08    0.000000e+00
6.474144e-09    4.699940e-08    0.000000e+00
5.449371e-09    5.275323e-08    0.000000e+00
-1.997255e-09    5.039379e-08    0.000000e+00
-1.195162e-09    4.698307e-08    0.000000e+00
-3.156617e-10    4.369283e-08    0.000000e+00
6.320001e-10    4.055490e-08    0.000000e+00
1.636473e-09    3.760553e-08    0.000000e+00
2.683018e-09    3.488693e-08    0.000000e+00
3.753184e-09    3.244883e-08    0.000000e+00
4.822768e-09    3.034826e-08    0.000000e+00
5.862475e-09    2.865879e-08    0.000000e+00
6.805044e-09    2.749464e-08    0.000000e+00
7.464227e-09    2.688146e-08    0.000000e+00
8.048220e-09    2.664460e-08    0.000000e+00
-3.001319e-11    9.147290e-08    0.000000e+00
-5.988758e-10    9.127891e-08    0.000000e+00
-1.129364e-10    8.984826e-08    0.000000e+00
-1.237985e-09    8.957254e-08    0.000000e+00
-2.083528e-10    8.474424e-08    0.000000e+00
-2.087559e-09    8.438741e-08    0.000000e+00
-1.702480e-10    8.155357e-08    0.000000e+00
-2.298420e-09    8.115619e-08    0.000000e+00
-1.831394e-10    8.755095e-08    0.000000e+00
-1.733369e-09    8.723269e-08    0.000000e+00
1.387720e-10    7.441993e-08    0.000000e+00
-2.299013e-09    7.394673e-08    0.000000e+00
4.207178e-10    7.062821e-08    0.000000e+00
-2.099999e-09    7.012137e-08    0.000000e+00
1.242592e-09    6.287432e-08    0.000000e+00
-1.341062e-09    6.230988e-08    0.000000e+00
1.776242e-09    5.899310e-08    0.000000e+00
-7.983169e-10    5.840590e-08    0.000000e+00
7.892768e-10    6.676463e-08    0.000000e+00
-1.777954e-09    6.622735e-08    0.000000e+00
-5.704188e-11    7.808447e-08    0.000000e+00
-2.367345e-09    7.764795e-08    0.000000e+00
4.394295e-09    5.952190e-08    0.000000e+00
3.875686e-09    6.336363e-08    0.000000e+00
3.413095e-09    6.721068e-08    0.000000e+00
3.005984e-09    7.102619e-08    0.000000e+00
2.649995e-09    7.476286e-08    0.000000e+00
2.336138e-09    7.836411e-08    0.000000e+00
2.050205e-09    8.176227e-08    0.000000e+00
1.771930e-09    8.487453e-08    0.000000e+00
1.473202e-09    8.760063e-08    0.000000e+00
1.112776e-09    8.981776e-08    0.000000e+00
6.262001e-10    9.135195e-08    0.000000e+00
7.707999e-12    9.191806e-08    0.000000e+00
-1.346919e-11    9.219048e-08    0.000000e+00
2.135328e-11    9.236151e-08    0.000000e+00
-4.973449e-10    9.358660e-08    0.000000e+00
-1.365741e-09    9.092816e-08    0.000000e+00
-2.480797e-09    8.908928e-08    0.000000e+00
-3.363344e-09    8.670848e-08    0.000000e+00
-4.027329e-09    8.384174e-08    0.000000e+00
-4.471252e-09    8.059578e-08    0.000000e+00
-4.710932e-09    7.707239e-08    0.000000e+00
-4.761676e-09    7.335594e-08    0.000000e+00
-4.639666e-09    6.951558e-08    0.000000e+00
-4.360320e-09    6.560732e-08    0.000000e+00
-3.937909e-09    6.167670e-08    0.000000e+00
-3.385298e-09    5.776149e-08    0.000000e+00
-2.713691e-09    5.389487e-08    0.000000e+00
-1.684069e-10    5.454306e-08    0.000000e+00
2.374147e-09    5.515020e-08    0.000000e+00
4.965917e-09    5.571652e-08    0.000000e+00
6.996045e-09    4.423801e-08    0.000000e+00
7.507521e-09    4.157592e-08    0.000000e+00
7.992555e-09    3.903252e-08    0.000000e+00
8.431910e-09    3.662991e-08    0.000000e+00
8.802830e-09    3.439322e-08    0.000000e+00
9.080064e-09    3.235153e-08    0.000000e+00
9.230192e-09    3.053325e-08    0.000000e+00
9.288276e-09    2.894046e-08    0.000000e+00
8.959555e-09    2.746474e-08    0.000000e+00
8.726229e-09    2.713490e-08    0.000000e+00
8.369874e-09    2.689542e-08    0.000000e+00
6.121925e-09    3.754941e-08    0.000000e+00
4.380144e-09    3.617367e-08    0.000000e+00
4.146591e-09    4.588075e-08    0.000000e+00
1.904833e-09    4.478142e-08    0.000000e+00
2.911772e-09    5.198632e-08    0.000000e+00
4.489157e-10    5.120212e-08    0.000000e+00
3.512470e-09    4.889292e-08    0.000000e+00
1.149324e-09    4.794146e-08    0.000000e+00
4.802182e-09    4.297068e-08    0.000000e+00
2.704102e-09    4.174682e-08    0.000000e+00
5.466056e-09    4.018503e-08    0.000000e+00
3.534482e-09    3.886650e-08    0.000000e+00
7.822884e-09    3.086973e-08    0.000000e+00
6.780784e-09    2.964444e-08    0.000000e+00
6.750211e-09    3.509348e-08    0.000000e+00
5.221374e-09    3.370690e-08    0.000000e+00
7.325704e-09    3.284998e-08    0.000000e+00
6.033049e-09    3.150952e-08    0.000000e+00
8.201774e-09    2.917086e-08    0.000000e+00
7.440924e-09    2.817559e-08    0.000000e+00
8.530643e-09    2.788054e-08    0.000000e+00
7.981984e-09    2.726548e-08    0.000000e+00
6.637690e-09    2.575003e-08    0.000000e+00
6.776571e-09    2.640495e-08    0.000000e+00
2.419423e-09    2.451961e-08    0.000000e+00
2.415059e-09    2.499652e-08    0.000000e+00
1.378770e-09    2.420060e-08    0.000000e+00
1.356942e-09    2.451643e-08    0.000000e+00
1.846032e-09    2.435187e-08    0.000000e+00
1.829218e-09    2.474710e-08    0.000000e+00
7.324090e-10    2.393391e-08    0.000000e+00
7.181016e-10    2.410795e-08    0.000000e+00
5.338902e-10    2.381318e-08    0.000000e+00
5.295773e-10    2.392626e-08    0.000000e+00
1.010691e-09    2.406227e-08    0.000000e+00
9.901324e-10    2.430392e-08    0.000000e+00
3.101277e-09    2.470784e-08    0.000000e+00
3.117392e-09    2.526381e-08    0.000000e+00
5.593122e-10    2.368702e-08    0.000000e+00
7.692654e-10    2.374915e-08    0.000000e+00
1.055078e-09    2.381248e-08    0.000000e+00
1.425436e-09    2.387940e-08    0.000000e+00
1.888154e-09    2.395377e-08    0.000000e+00
2.448692e-09    2.404123e-08    0.000000e+00
3.108338e-09    2.414931e-08    0.000000e+00
3.862021e-09    2.428758e-08    0.000000e+00
4.695776e-09    2.446767e-08    0.000000e+00
5.583867e-09    2.470311e-08    0.000000e+00
6.485373e-09    2.500964e-08    0.000000e+00
7.342203e-09    2.540157e-08    0.000000e+00
8.070223e-09    2.590297e-08    0.000000e+00
8.629810e-09    2.647787e-08    0.000000e+00
8.448867e-09    2.678818e-08    0.000000e+00
8.351471e-09    2.704233e-08    0.000000e+00
7.747468e-09    2.714663e-08    0.000000e+00
6.878231e-09    2.704891e-08    0.000000e+00
5.903364e-09    2.682809e-08    0.000000e+00
4.918393e-09    2.652857e-08    0.000000e+00
3.988212e-09    2.618687e-08    0.000000e+00
3.152877e-09    2.582961e-08    0.000000e+00
2.433246e-09    2.547559e-08    0.000000e+00
1.836114e-09    2.513701e-08    0.000000e+00
1.358637e-09    2.482079e-08    0.000000e+00
9.920942e-10    2.452969e-08    0.000000e+00
7.249139e-10    2.426347e-08    0.000000e+00
5.450467e-10    2.401971e-08    0.000000e+00
4.417172e-10    2.379468e-08    0.000000e+00
4.142090e-10    2.375618e-08    0.000000e+00
4.055407e-10    2.369783e-08    0.000000e+00
4.168185e-10    2.362506e-08    0.000000e+00
4.837847e-09    2.583712e-08    0.000000e+00
4.760323e-09    2.516301e-08    0.000000e+00
3.930806e-09    2.554593e-08    0.000000e+00
3.886670e-09    2.492084e-08    0.000000e+00
5.804609e-09    2.612787e-08    0.000000e+00
5.693048e-09    2.543798e-08    0.000000e+00
8.378155e-09    2.683574e-08    0.000000e+00
8.262096e-09    2.649330e-08    0.000000e+00
7.671172e-09    2.664878e-08    0.000000e+00
7.525151e-09    2.609647e-08    0.000000e+00
8.676514e-09    2.690026e-08    0.000000e+00
8.747357e-09    2.686770e-08    0.000000e+00
5.950452e-09    2.209476e-08    0.000000e+00
6.053619e-09    2.190216e-08    0.000000e+00
6.071191e-09    2.175847e-08    0.000000e+00
6.045460e-09    2.159021e-08    0.000000e+00
5.654901e-09    2.149889e-08    0.000000e+00
5.038473e-09    2.150185e-08    0.000000e+00
4.312296e-09    2.158728e-08    0.000000e+00
3.570014e-09    2.173140e-08    0.000000e+00
2.873081e-09    2.191231e-08    0.000000e+00
2.254970e-09    2.211371e-08    0.000000e+00
1.730723e-09    2.232411e-08    0.000000e+00
1.303171e-09    2.253616e-08    0.000000e+00
9.679534e-10    2.274599e-08    0.000000e+00
7.174653e-10    2.295257e-08    0.000000e+00
5.438429e-10    2.315716e-08    0.000000e+00
4.411072e-10    2.336272e-08    0.000000e+00
4.065889e-10    2.357354e-08    0.000000e+00
3.255641e-10    2.355201e-08    0.000000e+00
3.098309e-10    2.348053e-08    0.000000e+00
3.651102e-10    2.341294e-08    0.000000e+00
4.913383e-10    2.335184e-08    0.000000e+00
6.925083e-10    2.329936e-08    0.000000e+00
9.756859e-10    2.325640e-08    0.000000e+00
1.349332e-09    2.322161e-08    0.000000e+00
1.820850e-09    2.319033e-08    0.000000e+00
2.393210e-09    2.315333e-08    0.000000e+00
3.060556e-09    2.309551e-08    0.000000e+00
3.802602e-09    2.299427e-08    0.000000e+00
4.579073e-09    2.281963e-08    0.000000e+00
5.326898e-09    2.252468e-08    0.000000e+00
1.584364e-09    2.263917e-08    0.000000e+00
1.456970e-09    2.293840e-08    0.000000e+00
4.148611e-09    2.205691e-08    0.000000e+00
3.977392e-09    2.251170e-08    0.000000e+00
5.592494e-09    2.182840e-08    0.000000e+00
5.488234e-09    2.214313e-08    0.000000e+00
4.913496e-09    2.192918e-08    0.000000e+00
4.757578e-09    2.234698e-08    0.000000e+00
2.698563e-09    2.233970e-08    0.000000e+00
2.538104e-09    2.274878e-08    0.000000e+00
3.393030e-09    2.219525e-08    0.000000e+00
3.222541e-09    2.264123e-08    0.000000e+00
2.092103e-09    2.248822e-08    0.000000e+00
1.947031e-09    2.284536e-08    0.000000e+00
6.254180e-10    2.309948e-08    0.000000e+00
5.498879e-10    2.323361e-08    0.000000e+00
1.175195e-09    2.279154e-08    0.000000e+00
1.065839e-09    2.303261e-08    0.000000e+00
8.583888e-10    2.294490e-08    0.000000e+00
7.664151e-10    2.313062e-08    0.000000e+00
3.811783e-10    2.341635e-08    0.000000e+00
3.371945e-10    2.345537e-08    0.000000e+00
4.682222e-10    2.325614e-08    0.000000e+00
4.084670e-10    2.334190e-08    0.000000e+00
3.623651e-10    2.358217e-08    0.000000e+00
3.350661e-10    2.357394e-08    0.000000e+00
-9.189188e-14    -7.650505e-11    0.000000e+00
-1.028716e-11    -8.223553e-11    0.000000e+00
-2.271795e-11    -9.806736e-11    0.000000e+00
-3.990239e-11    -1.223674e-10    0.000000e+00
-6.522864e-11    -1.501427e-10    0.000000e+00
-1.038765e-10    -1.693066e-10    0.000000e+00
-1.654174e-10    -1.534422e-10    0.000000e+00
-2.673725e-10    -5.235168e-11    0.000000e+00
-4.527503e-10    2.309274e-10    0.000000e+00
-7.385369e-10    8.335423e-10    0.000000e+00
-1.426444e-09    2.072453e-09    0.000000e+00
-5.004513e-10    2.247610e-09    0.000000e+00
7.752971e-10    2.369035e-09    0.000000e+00
2.228693e-09    2.571954e-09    0.000000e+00
1.371972e-09    9.372384e-10    0.000000e+00
7.687224e-10    2.318112e-10    0.000000e+00
4.111910e-10    -5.371696e-11    0.000000e+00
2.049852e-10    -1.583430e-10    0.000000e+00
8.743053e-11    -1.811822e-10    0.000000e+00
2.499168e-11    -1.686850e-10    0.000000e+00
-3.407931e-12    -1.450653e-10    0.000000e+00
-1.140511e-11    -1.228007e-10    0.000000e+00
-8.154280e-12    -1.078424e-10    0.000000e+00
3.083464e-13    -1.028219e-10    0.000000e+00
1.608989e-13    -9.798735e-11    0.000000e+00
4.245616e-14    -9.061816e-11    0.000000e+00
5.273670e-11    -2.045045e-10    0.000000e+00
-2.429116e-11    -2.018062e-10    0.000000e+00
3.524449e-10    1.242815e-10    0.000000e+00
-1.241386e-10    1.355055e-10    0.000000e+00
5.363793e-10    7.609594e-10    0.000000e+00
-2.862396e-10    7.460820e-10    0.000000e+00
2.133110e-10    -1.208848e-10    0.000000e+00
-5.202376e-11    -1.164308e-10    0.000000e+00
1.151080e-10    -1.996036e-10    0.000000e+00
-3.062934e-11    -1.976884e-10    0.000000e+00
-3.685337e-13    -1.484627e-10    0.000000e+00
-1.732715e-11    -1.425370e-10    0.000000e+00
1.690370e-11    -1.799261e-10    0.000000e+00
-2.120778e-11    -1.753969e-10    0.000000e+00
-5.804856e-12    -1.214490e-10    0.000000e+00
-1.224808e-11    -1.147083e-10    0.000000e+00
-4.416342e-12    -1.039762e-10    0.000000e+00
-6.324226e-12    -9.683300e-11    0.000000e+00
-2.729110e-09    5.877312e-09    0.000000e+00
-2.519884e-09    9.819568e-09    0.000000e+00
-1.497719e-09    1.353633e-08    0.000000e+00
8.343064e-11    1.664454e-08    0.000000e+00
1.845305e-09    1.896194e-08    0.000000e+00
3.502351e-09    2.049295e-08    0.000000e+00
4.838928e-09    2.134545e-08    0.000000e+00
5.722500e-09    2.168550e-08    0.000000e+00
6.115528e-09    2.170667e-08    0.000000e+00
6.303123e-09    2.157289e-08    0.000000e+00
6.433386e-09    2.083847e-08    0.000000e+00
6.327334e-09    1.979798e-08    0.000000e+00
6.001494e-09    1.836010e-08    0.000000e+00
5.500452e-09    1.645111e-08    0.000000e+00
4.897262e-09    1.406725e-08    0.000000e+00
4.263003e-09    1.126389e-08    0.000000e+00
3.638194e-09    8.184002e-09    0.000000e+00
2.986864e-09    5.108242e-09    0.000000e+00
3.159375e-09    1.814411e-08    0.000000e+00
4.366705e-09    1.732994e-08    0.000000e+00
-3.813588e-10    9.197167e-09    0.000000e+00
1.565706e-09    8.654767e-09    0.000000e+00
-6.978273e-10    5.521332e-09    0.000000e+00
1.071680e-09    5.202313e-09    0.000000e+00
5.067465e-10    1.274525e-08    0.000000e+00
2.358677e-09    1.201622e-08    0.000000e+00
1.775826e-09    1.578492e-08    0.000000e+00
3.345789e-09    1.495767e-08    0.000000e+00
5.429069e-09    2.084835e-08    0.000000e+00
5.939458e-09    2.033183e-08    0.000000e+00
4.433537e-09    1.980444e-08    0.000000e+00
5.270798e-09    1.910292e-08    0.000000e+00
6.046864e-09    2.141645e-08    0.000000e+00
6.301014e-09    2.112331e-08    0.000000e+00
6.253463e-09    2.166957e-08    0.000000e+00
6.332202e-09    2.160649e-08    0.000000e+00
0.000000e+00    0.000000e+00    0.000000e+00
0.000000e+00    0.000000e+00    0.000000e+00
0.000000e+00    0.000000e+00    0.000000e+00
0.000000e+00    0.000000e+00    0.000000e+00
0.000000e+00    0.000000e+00    0.000000e+00
0.000000e+00    0.000000e+00    0.000000e+00
0.000000e+00    0.000000e+00    0.000000e+00
0.000000e+00    0.000000e+00    0.000000e+00
0.000000e+00    0.000000e+00    0.000000e+00
0.000000e+00    0.000000e+00    0.000000e+00
0.000000e+00    0.000000e+00    0.000000e+00
-1.622906e-10    3.075169e-10    0.000000e+00
-3.904468e-10    6.635654e-10    0.000000e+00
-6.599148e-10    1.072952e-09    0.000000e+00
-1.673952e-13    -5.732249e-11    0.000000e+00
-1.658032e-13    -3.539889e-11    0.000000e+00
-8.698677e-14    -1.500156e-11    0.000000e+00
-1.458111e-10    -1.164454e-10    0.000000e+00
-1.390721e-10    -6.096856e-11    0.000000e+00
-8.619326e-11    -1.798466e-11    0.000000e+00
-5.092270e-10    2.217520e-10    0.000000e+00
-4.134014e-10    1.727348e-10    0.000000e+00
-2.432426e-10    8.877879e-11    0.000000e+00
-4.688810e-10    4.285911e-10    0.000000e+00
-6.442726e-10    6.230805e-10    0.000000e+00
-2.446765e-10    1.946884e-10    0.000000e+00
-2.157341e-10    -4.111492e-11    0.000000e+00
-3.115591e-10    2.390927e-11    0.000000e+00
-2.298546e-10    -9.567776e-11    0.000000e+00
-3.457237e-10    -5.508670e-12    0.000000e+00
-1.336653e-10    -5.463203e-12    0.000000e+00
-1.914481e-10    2.613907e-11    0.000000e+00
-5.249687e-11    -8.917307e-11    0.000000e+00
-4.930213e-11    -5.206203e-11    0.000000e+00
-2.990620e-11    -1.978186e-11    0.000000e+00
-8.516743e-11    -5.999698e-11    0.000000e+00
-8.956651e-11    -1.070820e-10    0.000000e+00
-5.230785e-11    -2.088403e-11    0.000000e+00
-1.129457e-11    -3.782346e-11    0.000000e+00
-2.633923e-11    -4.369605e-11    0.000000e+00
-1.243044e-11    -6.155014e-11    0.000000e+00
-2.852837e-11    -7.260717e-11    0.000000e+00
-6.667654e-12    -1.586044e-11    0.000000e+00
-1.574811e-11    -1.762301e-11    0.000000e+00
3.660570e-09    5.543752e-08    0.000000e+00
4.684168e-09    5.761610e-08    0.000000e+00
5.210793e-09    5.423119e-08    0.000000e+00
1.100049e-09    5.485212e-08    0.000000e+00
2.076385e-09    5.706696e-08    0.000000e+00
2.644412e-09    5.356274e-08    0.000000e+00
-1.438019e-09    5.422573e-08    0.000000e+00
-4.853272e-10    5.647203e-08    0.000000e+00
1.393020e-10    5.286836e-08    0.000000e+00
-3.052159e-09    5.581479e-08    0.000000e+00
-2.356718e-09    5.213052e-08    0.000000e+00
-3.665536e-09    5.970887e-08    0.000000e+00
-2.088606e-09    5.809193e-08    0.000000e+00
-4.154517e-09    6.363507e-08    0.000000e+00
-2.635927e-09    6.200308e-08    0.000000e+00
-4.507143e-09    6.755838e-08    0.000000e+00
-3.064773e-09    6.592897e-08    0.000000e+00
-4.709836e-09    7.143736e-08    0.000000e+00
-3.364262e-09    6.983225e-08    0.000000e+00
-4.747720e-09    7.522140e-08    0.000000e+00
-3.523122e-09    7.366763e-08    0.000000e+00
-4.604944e-09    7.884802e-08    0.000000e+00
-3.529734e-09    7.737942e-08    0.000000e+00
-4.265535e-09    8.223998e-08    0.000000e+00
-3.372751e-09    8.089867e-08    0.000000e+00
-3.713953e-09    8.530358e-08    0.000000e+00
-3.041559e-09    8.414114e-08    0.000000e+00
-2.939922e-09    8.792538e-08    0.000000e+00
-2.529302e-09    8.700195e-08    0.000000e+00
-1.940828e-09    8.999693e-08    0.000000e+00
-1.829721e-09    8.936493e-08    0.000000e+00
-8.041232e-10    9.162434e-08    0.000000e+00
-9.565431e-10    9.115413e-08    0.000000e+00
1.080254e-10    9.299076e-08    0.000000e+00
1.812972e-11    9.226946e-08    0.000000e+00
-2.863264e-10    9.194979e-08    0.000000e+00
-9.111891e-12    9.209079e-08    0.000000e+00
1.855167e-12    9.195291e-08    0.000000e+00
3.302035e-10    9.175761e-08    0.000000e+00
8.931312e-10    9.068616e-08    0.000000e+00
2.718037e-10    9.146034e-08    0.000000e+00
1.310643e-09    8.878347e-08    0.000000e+00
4.699277e-10    8.987366e-08    0.000000e+00
1.635135e-09    8.629435e-08    0.000000e+00
6.178861e-10    8.760920e-08    0.000000e+00
1.920439e-09    8.336141e-08    0.000000e+00
7.574194e-10    8.483678e-08    0.000000e+00
2.200318e-09    8.009494e-08    0.000000e+00
9.182632e-10    8.168036e-08    0.000000e+00
2.498600e-09    7.658610e-08    0.000000e+00
1.120328e-09    7.824258e-08    0.000000e+00
2.832413e-09    7.290975e-08    0.000000e+00
1.377459e-09    7.460625e-08    0.000000e+00
3.213283e-09    6.912768e-08    0.000000e+00
1.698489e-09    7.083921e-08    0.000000e+00
3.647856e-09    6.529153e-08    0.000000e+00
2.088128e-09    6.699728e-08    0.000000e+00
4.138563e-09    6.144309e-08    0.000000e+00
2.547607e-09    6.312657e-08    0.000000e+00
3.075013e-09    5.926334e-08    0.000000e+00
-1.216677e-09    7.788502e-08    0.000000e+00
-2.340915e-09    7.582333e-08    0.000000e+00
-2.341925e-09    7.943824e-08    0.000000e+00
3.972632e-11    7.627257e-08    0.000000e+00
-1.147480e-10    7.984827e-08    0.000000e+00
-4.984717e-10    6.650675e-08    0.000000e+00
-1.563542e-09    6.427465e-08    0.000000e+00
-1.944168e-09    6.818569e-08    0.000000e+00
1.015790e-09    6.482210e-08    0.000000e+00
6.043733e-10    6.870377e-08    0.000000e+00
4.855691e-10    5.870657e-08    0.000000e+00
-1.072639e-09    6.035947e-08    0.000000e+00
1.509893e-09    6.093240e-08    0.000000e+00
-5.302775e-11    6.260089e-08    0.000000e+00
-8.440253e-10    7.038782e-08    0.000000e+00
-2.205939e-09    7.205191e-08    0.000000e+00
2.787800e-10    7.253724e-08    0.000000e+00
-1.084637e-09    7.419902e-08    0.000000e+00
-9.607306e-10    8.742296e-08    0.000000e+00
-1.921867e-09    8.587479e-08    0.000000e+00
-1.498909e-09    8.848685e-08    0.000000e+00
-1.959914e-10    8.620029e-08    0.000000e+00
-1.474266e-10    8.876715e-08    0.000000e+00
-1.238565e-09    8.137730e-08    0.000000e+00
-2.203323e-09    8.282069e-08    0.000000e+00
-1.900666e-10    8.318895e-08    0.000000e+00
-1.151562e-09    8.459243e-08    0.000000e+00
-6.739847e-10    8.974683e-08    0.000000e+00
-9.290050e-10    9.053496e-08    0.000000e+00
-6.851909e-11    9.074967e-08    0.000000e+00
-3.124284e-10    9.141533e-08    0.000000e+00
7.797472e-09    2.673680e-08    0.000000e+00
8.205210e-09    2.677434e-08    0.000000e+00
8.309461e-09    2.669636e-08    0.000000e+00
7.181110e-09    2.713931e-08    0.000000e+00
7.706054e-09    2.705800e-08    0.000000e+00
6.363358e-09    2.800102e-08    0.000000e+00
7.103300e-09    2.779539e-08    0.000000e+00
5.355277e-09    2.944587e-08    0.000000e+00
6.314344e-09    2.912448e-08    0.000000e+00
4.296986e-09    3.135165e-08    0.000000e+00
5.424666e-09    3.091210e-08    0.000000e+00
3.224562e-09    3.362854e-08    0.000000e+00
4.485867e-09    3.306650e-08    0.000000e+00
2.164215e-09    3.621337e-08    0.000000e+00
3.531908e-09    3.552377e-08    0.000000e+00
1.137120e-09    3.905263e-08    0.000000e+00
2.586852e-09    3.823291e-08    0.000000e+00
1.598004e-10    4.210071e-08    0.000000e+00
1.670176e-09    4.115052e-08    0.000000e+00
-7.548227e-10    4.531843e-08    0.000000e+00
7.971569e-10    4.423895e-08    0.000000e+00
-1.596554e-09    4.867192e-08    0.000000e+00
-2.008054e-11    4.746590e-08    0.000000e+00
-7.711408e-10    5.080318e-08    0.000000e+00
5.706109e-09    5.129280e-08    0.000000e+00
4.171005e-09    5.237236e-08    0.000000e+00
6.219529e-09    4.841406e-08    0.000000e+00
4.723457e-09    4.936862e-08    0.000000e+00
6.741319e-09    4.560960e-08    0.000000e+00
5.298901e-09    4.643853e-08    0.000000e+00
7.259584e-09    4.289560e-08    0.000000e+00
5.885902e-09    4.360009e-08    0.000000e+00
7.759727e-09    4.029024e-08    0.000000e+00
6.471217e-09    4.087285e-08    0.000000e+00
8.224214e-09    3.781432e-08    0.000000e+00
7.038650e-09    3.827923e-08    0.000000e+00
8.631885e-09    3.549090e-08    0.000000e+00
7.568628e-09    3.584449e-08    0.000000e+00
8.959114e-09    3.334921e-08    0.000000e+00
8.037721e-09    3.359902e-08    0.000000e+00
9.176171e-09    3.140927e-08    0.000000e+00
8.418443e-09    3.157635e-08    0.000000e+00
9.277326e-09    2.973907e-08    0.000000e+00
8.686466e-09    2.982621e-08    0.000000e+00
9.154925e-09    2.816754e-08    0.000000e+00
8.822543e-09    2.829235e-08    0.000000e+00
8.913641e-09    2.727317e-08    0.000000e+00
8.814775e-09    2.693641e-08    0.000000e+00
8.546110e-09    2.701301e-08    0.000000e+00
8.656029e-09    2.741371e-08    0.000000e+00
8.855965e-09    2.704808e-08    0.000000e+00
8.223127e-09    2.703999e-08    0.000000e+00
8.605073e-09    2.688963e-08    0.000000e+00
5.242264e-09    3.685178e-08    0.000000e+00
5.801926e-09    3.884865e-08    0.000000e+00
6.446257e-09    3.629883e-08    0.000000e+00
3.962291e-09    3.749773e-08    0.000000e+00
4.808029e-09    3.491253e-08    0.000000e+00
3.021764e-09    4.533099e-08    0.000000e+00
3.832839e-09    4.737721e-08    0.000000e+00
4.478925e-09    4.441353e-08    0.000000e+00
1.527819e-09    4.635136e-08    0.000000e+00
2.306295e-09    4.325053e-08    0.000000e+00
1.677530e-09    5.159804e-08    0.000000e+00
3.214438e-09    5.043222e-08    0.000000e+00
7.989946e-10    4.956479e-08    0.000000e+00
2.327680e-09    4.841921e-08    0.000000e+00
3.748065e-09    4.235611e-08    0.000000e+00
5.140175e-09    4.156271e-08    0.000000e+00
3.122514e-09    4.028902e-08    0.000000e+00
4.493588e-09    3.951996e-08    0.000000e+00
7.279237e-09    3.022629e-08    0.000000e+00
7.590111e-09    3.182733e-08    0.000000e+00
8.030971e-09    2.998932e-08    0.000000e+00
6.420946e-09    3.053603e-08    0.000000e+00
7.127794e-09    2.885409e-08    0.000000e+00
5.974023e-09    3.438531e-08    0.000000e+00
7.051057e-09    3.394474e-08    0.000000e+00
5.637239e-09    3.257417e-08    0.000000e+00
6.664742e-09    3.215882e-08    0.000000e+00
7.802800e-09    2.863009e-08    0.000000e+00
8.382848e-09    2.846634e-08    0.000000e+00
7.737770e-09    2.765616e-08    0.000000e+00
8.244688e-09    2.752741e-08    0.000000e+00
4.086667e-10    2.366284e-08    0.000000e+00
4.801221e-10    2.365604e-08    0.000000e+00
3.612987e-10    2.358843e-08    0.000000e+00
4.074361e-10    2.372918e-08    0.000000e+00
4.615074e-10    2.375474e-08    0.000000e+00
3.608342e-10    2.363517e-08    0.000000e+00
4.257293e-10    2.377819e-08    0.000000e+00
4.633452e-10    2.383979e-08    0.000000e+00
3.791257e-10    2.366797e-08    0.000000e+00
4.844040e-10    2.390514e-08    0.000000e+00
4.151904e-10    2.368248e-08    0.000000e+00
6.247886e-10    2.413901e-08    0.000000e+00
5.349615e-10    2.397574e-08    0.000000e+00
8.468527e-10    2.439361e-08    0.000000e+00
7.189537e-10    2.418835e-08    0.000000e+00
1.162190e-09    2.467209e-08    0.000000e+00
9.883461e-10    2.441906e-08    0.000000e+00
1.582870e-09    2.497589e-08    0.000000e+00
1.354852e-09    2.467014e-08    0.000000e+00
2.119374e-09    2.530387e-08    0.000000e+00
1.829662e-09    2.494248e-08    0.000000e+00
2.777906e-09    2.565133e-08    0.000000e+00
2.421262e-09    2.523503e-08    0.000000e+00
3.557007e-09    2.600886e-08    0.000000e+00
3.132637e-09    2.554400e-08    0.000000e+00
4.443450e-09    2.636111e-08    0.000000e+00
3.957828e-09    2.586199e-08    0.000000e+00
5.407411e-09    2.668555e-08    0.000000e+00
4.877814e-09    2.617708e-08    0.000000e+00
6.397452e-09    2.695087e-08    0.000000e+00
5.855954e-09    2.647175e-08    0.000000e+00
7.333052e-09    2.711651e-08    0.000000e+00
6.832630e-09    2.672209e-08    0.000000e+00
8.101479e-09    2.712229e-08    0.000000e+00
7.719621e-09    2.689522e-08    0.000000e+00
8.479045e-09    2.692010e-08    0.000000e+00
8.384010e-09    2.695317e-08    0.000000e+00
8.570224e-09    2.685976e-08    0.000000e+00
8.355665e-09    2.616663e-08    0.000000e+00
8.714927e-09    2.677886e-08    0.000000e+00
7.731235e-09    2.564089e-08    0.000000e+00
8.166643e-09    2.621758e-08    0.000000e+00
6.922991e-09    2.519288e-08    0.000000e+00
7.436981e-09    2.577371e-08    0.000000e+00
6.036366e-09    2.484655e-08    0.000000e+00
6.560725e-09    2.539231e-08    0.000000e+00
5.135153e-09    2.457735e-08    0.000000e+00
5.636731e-09    2.507818e-08    0.000000e+00
4.270212e-09    2.437150e-08    0.000000e+00
4.725313e-09    2.481894e-08    0.000000e+00
3.474067e-09    2.421391e-08    0.000000e+00
3.871185e-09    2.460561e-08    0.000000e+00
2.766275e-09    2.409209e-08    0.000000e+00
3.101435e-09    2.442876e-08    0.000000e+00
2.155999e-09    2.399540e-08    0.000000e+00
2.430653e-09    2.428012e-08    0.000000e+00
1.644839e-09    2.391532e-08    0.000000e+00
1.863757e-09    2.415248e-08    0.000000e+00
1.229168e-09    2.384527e-08    0.000000e+00
1.398899e-09    2.403986e-08    0.000000e+00
9.021435e-10    2.378054e-08    0.000000e+00
1.029845e-09    2.393757e-08    0.000000e+00
6.553533e-10    2.371802e-08    0.000000e+00
7.479739e-10    2.384211e-08    0.000000e+00
5.439072e-10    2.375109e-08    0.000000e+00
3.106769e-09    2.498475e-08    0.000000e+00
2.751767e-09    2.512807e-08    0.000000e+00
3.510982e-09    2.540329e-08    0.000000e+00
2.746900e-09    2.461086e-08    0.000000e+00
3.481711e-09    2.481091e-08    0.000000e+00
9.975533e-10    2.418434e-08    0.000000e+00
8.429771e-10    2.420401e-08    0.000000e+00
1.160985e-09    2.440801e-08    0.000000e+00
8.609570e-10    2.399700e-08    0.000000e+00
1.182885e-09    2.413001e-08    0.000000e+00
5.291701e-10    2.387169e-08    0.000000e+00
6.140737e-10    2.401546e-08    0.000000e+00
6.238117e-10    2.387270e-08    0.000000e+00
7.225430e-10    2.402259e-08    0.000000e+00
1.834637e-09    2.454956e-08    0.000000e+00
1.579300e-09    2.462945e-08    0.000000e+00
2.107604e-09    2.486950e-08    0.000000e+00
1.599489e-09    2.427440e-08    0.000000e+00
2.119181e-09    2.443342e-08    0.000000e+00
1.364892e-09    2.435923e-08    0.000000e+00
2.414363e-09    2.475749e-08    0.000000e+00
6.710326e-09    2.608233e-08    0.000000e+00
6.294311e-09    2.626907e-08    0.000000e+00
7.239625e-09    2.653191e-08    0.000000e+00
6.167595e-09    2.558900e-08    0.000000e+00
7.094229e-09    2.591872e-08    0.000000e+00
4.798164e-09    2.549954e-08    0.000000e+00
4.374310e-09    2.569085e-08    0.000000e+00
5.316650e-09    2.598318e-08    0.000000e+00
4.313927e-09    2.503792e-08    0.000000e+00
5.221807e-09    2.529605e-08    0.000000e+00
3.906782e-09    2.523223e-08    0.000000e+00
5.749535e-09    2.578451e-08    0.000000e+00
8.333268e-09    2.668632e-08    0.000000e+00
8.058488e-09    2.675224e-08    0.000000e+00
8.592439e-09    2.688903e-08    0.000000e+00
7.916743e-09    2.628755e-08    0.000000e+00
8.552409e-09    2.668608e-08    0.000000e+00
7.604727e-09    2.638608e-08    0.000000e+00
8.742516e-09    2.691375e-08    0.000000e+00
6.016913e-09    2.198454e-08    0.000000e+00
5.658069e-09    2.233624e-08    0.000000e+00
6.149554e-09    2.185692e-08    0.000000e+00
6.070219e-09    2.182926e-08    0.000000e+00
5.799115e-09    2.202933e-08    0.000000e+00
6.228884e-09    2.177196e-08    0.000000e+00
6.061938e-09    2.168062e-08    0.000000e+00
5.864243e-09    2.179370e-08    0.000000e+00
6.208811e-09    2.172730e-08    0.000000e+00
5.883784e-09    2.154306e-08    0.000000e+00
6.136408e-09    2.165797e-08    0.000000e+00
5.368682e-09    2.149227e-08    0.000000e+00
5.628315e-09    2.166814e-08    0.000000e+00
4.682903e-09    2.153598e-08    0.000000e+00
4.978825e-09    2.172078e-08    0.000000e+00
3.938528e-09    2.165349e-08    0.000000e+00
4.230902e-09    2.182719e-08    0.000000e+00
3.213280e-09    2.181837e-08    0.000000e+00
3.480433e-09    2.196752e-08    0.000000e+00
2.552882e-09    2.201125e-08    0.000000e+00
2.783870e-09    2.212938e-08    0.000000e+00
1.980717e-09    2.221831e-08    0.000000e+00
2.171186e-09    2.230360e-08    0.000000e+00
1.505017e-09    2.243022e-08    0.000000e+00
1.655106e-09    2.248369e-08    0.000000e+00
1.124459e-09    2.264145e-08    0.000000e+00
1.236838e-09    2.266547e-08    0.000000e+00
8.326325e-10    2.284963e-08    0.000000e+00
9.109952e-10    2.284683e-08    0.000000e+00
6.214840e-10    2.305494e-08    0.000000e+00
6.694330e-10    2.302738e-08    0.000000e+00
4.838713e-10    2.325956e-08    0.000000e+00
5.041321e-10    2.320814e-08    0.000000e+00
4.153334e-10    2.346716e-08    0.000000e+00
4.092523e-10    2.339133e-08    0.000000e+00
3.824785e-10    2.358008e-08    0.000000e+00
3.086468e-10    2.351593e-08    0.000000e+00
3.280993e-10    2.356440e-08    0.000000e+00
3.287030e-10    2.344608e-08    0.000000e+00
3.214573e-10    2.346956e-08    0.000000e+00
4.191963e-10    2.338143e-08    0.000000e+00
3.847612e-10    2.337930e-08    0.000000e+00
5.821745e-10    2.332444e-08    0.000000e+00
5.184978e-10    2.329489e-08    0.000000e+00
8.233312e-10    2.327674e-08    0.000000e+00
7.271782e-10    2.321738e-08    0.000000e+00
1.150685e-09    2.323823e-08    0.000000e+00
1.018285e-09    2.314694e-08    0.000000e+00
1.572530e-09    2.320605e-08    0.000000e+00
1.400532e-09    2.308218e-08    0.000000e+00
2.094538e-09    2.317342e-08    0.000000e+00
1.881334e-09    2.301929e-08    0.000000e+00
2.715870e-09    2.312835e-08    0.000000e+00
2.463345e-09    2.295113e-08    0.000000e+00
3.424288e-09    2.305215e-08    0.000000e+00
3.139987e-09    2.286614e-08    0.000000e+00
4.189820e-09    2.291863e-08    0.000000e+00
3.889786e-09    2.274756e-08    0.000000e+00
4.960773e-09    2.269191e-08    0.000000e+00
4.670393e-09    2.257260e-08    0.000000e+00
5.414933e-09    2.231745e-08    0.000000e+00
1.518279e-09    2.279074e-08    0.000000e+00
1.825713e-09    2.256347e-08    0.000000e+00
1.367754e-09    2.271521e-08    0.000000e+00
1.689333e-09    2.289201e-08    0.000000e+00
1.249412e-09    2.298518e-08    0.000000e+00
4.063766e-09    2.228335e-08    0.000000e+00
4.534696e-09    2.199172e-08    0.000000e+00
3.765833e-09    2.212518e-08    0.000000e+00
4.368144e-09    2.243506e-08    0.000000e+00
3.593404e-09    2.258014e-08    0.000000e+00
5.547002e-09    2.198130e-08    0.000000e+00
5.270239e-09    2.187710e-08    0.000000e+00
5.135640e-09    2.225161e-08    0.000000e+00
4.838947e-09    2.213485e-08    0.000000e+00
2.616561e-09    2.254558e-08    0.000000e+00
3.036052e-09    2.226685e-08    0.000000e+00
2.383348e-09    2.241357e-08    0.000000e+00
2.869662e-09    2.269705e-08    0.000000e+00
2.230126e-09    2.279796e-08    0.000000e+00
3.306961e-09    2.241872e-08    0.000000e+00
2.017329e-09    2.266857e-08    0.000000e+00
5.855510e-10    2.316835e-08    0.000000e+00
7.319640e-10    2.302199e-08    0.000000e+00
5.377729e-10    2.317746e-08    0.000000e+00
6.483219e-10    2.318147e-08    0.000000e+00
4.701787e-10    2.328709e-08    0.000000e+00
1.118167e-09    2.291403e-08    0.000000e+00
1.005761e-09    2.286809e-08    0.000000e+00
9.052076e-10    2.308106e-08    0.000000e+00
8.101746e-10    2.303964e-08    0.000000e+00
3.571343e-10    2.343767e-08    0.000000e+00
4.161463e-10    2.333568e-08    0.000000e+00
3.631944e-10    2.349840e-08    0.000000e+00
3.642237e-10    2.339799e-08    0.000000e+00
3.273758e-10    2.351401e-08    0.000000e+00
4.363141e-10    2.330079e-08    0.000000e+00
3.465294e-10    2.358000e-08    0.000000e+00
-5.005927e-12    -7.803219e-11    0.000000e+00
-2.724582e-14    -8.445681e-11    0.000000e+00
-1.314717e-13    -6.748336e-11    0.000000e+00
-1.605513e-11    -8.891512e-11    0.000000e+00
-8.275551e-12    -9.052021e-11    0.000000e+00
-1.166801e-11    -7.251238e-11    0.000000e+00
-3.048473e-11    -1.093474e-10    0.000000e+00
-1.747210e-11    -1.076660e-10    0.000000e+00
-2.640175e-11    -8.609879e-11    0.000000e+00
-5.121517e-11    -1.363773e-10    0.000000e+00
-2.876952e-11    -1.342342e-10    0.000000e+00
-4.783053e-11    -1.067331e-10    0.000000e+00
-8.227027e-11    -1.621136e-10    0.000000e+00
-4.382702e-11    -1.652328e-10    0.000000e+00
-8.046961e-11    -1.298680e-10    0.000000e+00
-1.307587e-10    -1.685943e-10    0.000000e+00
-6.590439e-11    -1.888998e-10    0.000000e+00
-1.306070e-10    -1.440848e-10    0.000000e+00
-2.086278e-10    -1.189668e-10    0.000000e+00
-1.021561e-10    -1.796097e-10    0.000000e+00
-2.068966e-10    -1.259712e-10    0.000000e+00
-3.468035e-10    5.486522e-11    0.000000e+00
-1.717819e-10    -8.921594e-11    0.000000e+00
-3.250873e-10    -2.609518e-11    0.000000e+00
-5.721948e-10    4.685945e-10    0.000000e+00
-3.076417e-10    1.797267e-10    0.000000e+00
-4.991685e-10    2.254242e-10    0.000000e+00
-1.034756e-09    1.283785e-09    0.000000e+00
-5.947885e-10    7.913351e-10    0.000000e+00
-7.746322e-10    7.618382e-10    0.000000e+00
-1.028835e-09    2.129383e-09    0.000000e+00
-2.248615e-09    4.043809e-09    0.000000e+00
-9.130752e-10    1.520571e-09    0.000000e+00
1.102979e-10    2.310202e-09    0.000000e+00
-4.083034e-10    1.305395e-09    0.000000e+00
-5.525879e-10    3.695415e-09    0.000000e+00
1.476694e-09    2.447555e-09    0.000000e+00
6.613703e-10    1.399455e-09    0.000000e+00
9.303844e-10    3.654740e-09    0.000000e+00
1.790481e-09    1.600725e-09    0.000000e+00
2.652357e-09    3.721639e-09    0.000000e+00
1.035860e-09    5.061628e-10    0.000000e+00
9.807777e-10    8.276932e-10    0.000000e+00
5.653738e-10    5.692995e-11    0.000000e+00
5.842458e-10    1.626590e-10    0.000000e+00
2.938110e-10    -1.201505e-10    0.000000e+00
3.290943e-10    -9.485306e-11    0.000000e+00
1.373648e-10    -1.763361e-10    0.000000e+00
1.713768e-10    -1.832479e-10    0.000000e+00
5.073343e-11    -1.774473e-10    0.000000e+00
7.782533e-11    -1.951279e-10    0.000000e+00
7.415403e-12    -1.572824e-10    0.000000e+00
2.611913e-11    -1.755003e-10    0.000000e+00
-9.376214e-12    -1.332764e-10    0.000000e+00
1.411447e-12    -1.473039e-10    0.000000e+00
-1.080394e-11    -1.141892e-10    0.000000e+00
-6.677771e-12    -1.222837e-10    0.000000e+00
-4.411247e-12    -1.039374e-10    0.000000e+00
-5.395312e-12    -1.058709e-10    0.000000e+00
2.031787e-13    -1.003009e-10    0.000000e+00
1.026605e-13    -9.496274e-11    0.000000e+00
-2.420885e-12    -9.946550e-11    0.000000e+00
-3.203395e-12    -9.218262e-11    0.000000e+00
1.695500e-11    -2.069386e-10    0.000000e+00
8.001361e-11    -2.078296e-10    0.000000e+00
3.197020e-11    -1.941230e-10    0.000000e+00
-2.633055e-11    -2.056631e-10    0.000000e+00
-2.265853e-11    -1.904916e-10    0.000000e+00
1.075971e-10    1.168459e-10    0.000000e+00
4.375789e-10    3.674800e-10    0.000000e+00
2.777092e-10    -2.974199e-11    0.000000e+00
-1.870147e-10    3.785496e-10    0.000000e+00
-7.761502e-11    -1.852039e-11    0.000000e+00
1.025652e-10    7.341599e-10    0.000000e+00
8.101854e-11    -1.278372e-10    0.000000e+00
1.591867e-10    -1.738726e-10    0.000000e+00
-3.745228e-11    -1.708256e-10    0.000000e+00
4.506818e-11    -2.043348e-10    0.000000e+00
-7.245293e-12    -1.471120e-10    0.000000e+00
6.365475e-12    -1.641188e-10    0.000000e+00
-4.259810e-12    -1.339462e-10    0.000000e+00
-1.939619e-11    -1.588155e-10    0.000000e+00
-1.491828e-11    -1.275429e-10    0.000000e+00
1.071899e-13    -1.801280e-10    0.000000e+00
-8.014662e-12    -1.191353e-10    0.000000e+00
-5.740057e-12    -1.113186e-10    0.000000e+00
-9.365390e-12    -1.043303e-10    0.000000e+00
-4.886136e-12    -1.011549e-10    0.000000e+00
-2.681334e-09    7.871440e-09    0.000000e+00
-1.617712e-09    5.663039e-09    0.000000e+00
-2.038776e-09    1.171185e-08    0.000000e+00
-1.431501e-09    9.500137e-09    0.000000e+00
-6.999429e-10    1.515860e-08    0.000000e+00
-4.700946e-10    1.313078e-08    0.000000e+00
1.001053e-09    1.787955e-08    0.000000e+00
9.442700e-10    1.621209e-08    0.000000e+00
2.731980e-09    1.979933e-08    0.000000e+00
2.513657e-09    1.855358e-08    0.000000e+00
4.240291e-09    2.097795e-08    0.000000e+00
3.976310e-09    2.015215e-08    0.000000e+00
5.352174e-09    2.155700e-08    0.000000e+00
5.140613e-09    2.110208e-08    0.000000e+00
5.985374e-09    2.172063e-08    0.000000e+00
5.890248e-09    2.155692e-08    0.000000e+00
6.189198e-09    2.169428e-08    0.000000e+00
6.395974e-09    2.123328e-08    0.000000e+00
6.335558e-09    2.158230e-08    0.000000e+00
6.412335e-09    2.035099e-08    0.000000e+00
6.387182e-09    2.097849e-08    0.000000e+00
6.199329e-09    1.911592e-08    0.000000e+00
6.152568e-09    2.006932e-08    0.000000e+00
5.787925e-09    1.744405e-08    0.000000e+00
5.650687e-09    1.874280e-08    0.000000e+00
5.236939e-09    1.529360e-08    0.000000e+00
4.938882e-09    1.690757e-08    0.000000e+00
4.620342e-09    1.268873e-08    0.000000e+00
4.113188e-09    1.453183e-08    0.000000e+00
3.997859e-09    9.724427e-09    0.000000e+00
3.285841e-09    1.165607e-08    0.000000e+00
3.373286e-09    6.604329e-09    0.000000e+00
2.555771e-09    8.424261e-09    0.000000e+00
1.967635e-09    5.140741e-09    0.000000e+00
3.770182e-09    1.774342e-08    0.000000e+00
2.502880e-09    1.703180e-08    0.000000e+00
3.847955e-09    1.903857e-08    0.000000e+00
3.893605e-09    1.619863e-08    0.000000e+00
4.864662e-09    1.827003e-08    0.000000e+00
5.877801e-10    8.920474e-09    0.000000e+00
-5.765571e-10    7.315448e-09    0.000000e+00
4.650146e-11    1.099398e-08    0.000000e+00
1.318835e-09    6.907752e-09    0.000000e+00
1.972830e-09    1.035899e-08    0.000000e+00
1.949830e-10    5.334025e-09    0.000000e+00
1.433926e-09    1.237970e-08    0.000000e+00
1.153142e-09    1.432162e-08    0.000000e+00
2.877521e-09    1.353290e-08    0.000000e+00
2.564333e-09    1.537622e-08    0.000000e+00
5.695171e-09    2.059473e-08    0.000000e+00
4.991112e-09    2.037972e-08    0.000000e+00
5.798896e-09    2.117149e-08    0.000000e+00
5.654855e-09    1.976366e-08    0.000000e+00
6.169159e-09    2.076359e-08    0.000000e+00
4.861726e-09    1.945993e-08    0.000000e+00
6.184933e-09    2.127237e-08    0.000000e+00
6.206320e-09    2.156775e-08    0.000000e+00
6.360867e-09    2.139060e-08    0.000000e+00
6.302697e-09    2.163848e-08    0.000000e+00
0.000000e+00    0.000000e+00    0.000000e+00
-3.986991e-14    -6.711772e-12    0.000000e+00
0.000000e+00    0.000000e+00    0.000000e+00
-3.418129e-12    -7.008035e-12    0.000000e+00
0.000000e+00    0.000000e+00    0.000000e+00
-8.136560e-12    -7.536486e-12    0.000000e+00
0.000000e+00    0.000000e+00    0.000000e+00
-1.561073e-11    -8.002761e-12    0.000000e+00
0.000000e+00    0.000000e+00    0.000000e+00
-2.756158e-11    -7.677232e-12    0.000000e+00
0.000000e+00    0.000000e+00    0.000000e+00
-4.585840e-11    -5.168304e-12    0.000000e+00
0.000000e+00    0.000000e+00    0.000000e+00
-7.172406e-11    2.002697e-12    0.000000e+00
0.000000e+00    0.000000e+00    0.000000e+00
-1.036310e-10    1.761234e-11    0.000000e+00
0.000000e+00    0.000000e+00    0.000000e+00
-1.326604e-10    4.626292e-11    0.000000e+00
0.000000e+00    0.000000e+00    0.000000e+00
-1.379770e-10    8.957254e-11    0.000000e+00
-6.254955e-11    1.465191e-10    0.000000e+00
-2.696509e-10    4.780840e-10    0.000000e+00
-2.204086e-10    2.551199e-10    0.000000e+00
-4.907136e-10    8.462546e-10    0.000000e+00
-4.362451e-10    5.583450e-10    0.000000e+00
-7.438545e-10    9.497405e-10    0.000000e+00
-1.663686e-13    -4.644943e-11    0.000000e+00
-5.962446e-12    -5.852945e-11    0.000000e+00
-1.257935e-13    -2.475403e-11    0.000000e+00
-5.377978e-12    -3.615619e-11    0.000000e+00
-3.157679e-12    -1.536194e-11    0.000000e+00
-1.487157e-10    -8.800908e-11    0.000000e+00
-1.837826e-10    -1.118994e-10    0.000000e+00
-1.147275e-10    -1.139024e-10    0.000000e+00
-1.178206e-10    -3.705092e-11    0.000000e+00
-1.745206e-10    -5.501869e-11    0.000000e+00
-1.094669e-10    -6.208175e-11    0.000000e+00
-1.082159e-10    -1.329872e-11    0.000000e+00
-6.754993e-11    -2.022739e-11    0.000000e+00
-4.696040e-10    2.017263e-10    0.000000e+00
-5.889326e-10    4.133852e-10    0.000000e+00
-4.231236e-10    8.813497e-11    0.000000e+00
-3.361907e-10    1.336120e-10    0.000000e+00
-4.479455e-10    2.830274e-10    0.000000e+00
-3.648548e-10    8.501638e-11    0.000000e+00
-2.555458e-10    1.379787e-10    0.000000e+00
-2.206050e-10    5.391857e-11    0.000000e+00
-5.669675e-10    5.317172e-10    0.000000e+00
-3.588637e-10    3.081508e-10    0.000000e+00
-2.617807e-10    -1.675300e-11    0.000000e+00
-2.314946e-10    -6.710268e-11    0.000000e+00
-1.821619e-10    -2.018685e-11    0.000000e+00
-3.426961e-10    1.273544e-11    0.000000e+00
-2.617342e-10    2.825714e-11    0.000000e+00
-2.833385e-10    -6.272934e-11    0.000000e+00
-1.618983e-10    7.503870e-12    0.000000e+00
-5.299139e-11    -7.055287e-11    0.000000e+00
-6.894025e-11    -9.843803e-11    0.000000e+00
-3.916833e-11    -8.039086e-11    0.000000e+00
-4.135877e-11    -3.478940e-11    0.000000e+00
-6.522892e-11    -5.643558e-11    0.000000e+00
-3.648354e-11    -4.772814e-11    0.000000e+00
-3.980437e-11    -2.065623e-11    0.000000e+00
-2.195976e-11    -1.878384e-11    0.000000e+00
-9.100429e-11    -8.330119e-11    0.000000e+00
-7.182279e-11    -3.875425e-11    0.000000e+00
-1.805732e-11    -4.038119e-11    0.000000e+00
-1.230390e-11    -4.977129e-11    0.000000e+00
-9.346447e-12    -2.632475e-11    0.000000e+00
-2.849503e-11    -5.819392e-11    0.000000e+00
-2.193132e-11    -2.992291e-11    0.000000e+00
-1.972511e-11    -6.626864e-11    0.000000e+00
-1.071766e-11    -1.670736e-11    0.000000e+00

CELL_DATA      259
TENSORS Element_Stress8.000000e-01 double
-1.252230e+03 -5.419039e+02        0
-5.419039e+02 -2.466972e+02        0
       0        0 2.261523e+02

-1.222687e+03 -4.546325e+02        0
-4.546325e+02 -2.338698e+02        0
       0        0 -5.687934e+02

-1.139994e+03 -5.391933e+02        0
-5.391933e+02 -2.648589e+02        0
       0        0 4.280750e+02

-9.900271e+02 -4.095512e+02        0
-4.095512e+02 -2.311726e+02        0
       0        0 -2.457696e+02

-1.362900e+03 -5.035633e+02        0
-5.035633e+02 -1.859726e+02        0
       0        0 1.063029e+03

-1.373033e+03 -5.381030e+02        0
-5.381030e+02 -2.111349e+02        0
       0        0 1.149279e+03

-1.448342e+03 -4.905945e+02        0
-4.905945e+02 -2.337129e+02        0
       0        0 -8.977828e+02

-1.362567e+03 -5.449407e+02        0
-5.449407e+02 -2.299769e+02        0
       0        0 2.235610e+01

-1.358058e+03 -4.735156e+02        0
-4.735156e+02 -1.646607e+02        0
       0        0 9.742056e+02

-2.609047e+03 -8.271602e+02        0
-8.271602e+02 -3.654389e+02        0
       0        0 -2.364339e+03

1.130912e+03 -3.811452e+02        0
-3.811452e+02 -6.161712e+01        0
       0        0 1.527960e+03

-2.676733e+03 -8.229447e+02        0
-8.229447e+02 -1.551484e+03        0
       0        0 -2.431001e+03

1.808830e+03 -3.005681e+02        0
-3.005681e+02 -2.453297e+02        0
       0        0 1.884667e+03

-6.113942e+03 -6.301479e+02        0
-6.301479e+02 -7.305438e+02        0
       0        0 -6.222745e+03

-7.701070e+03 -1.805417e+03        0
-1.805417e+03 -4.059264e+03        0
       0        0 -7.301230e+03

4.915182e+02 -3.319599e+02        0
-3.319599e+02 -3.697834e+01        0
       0        0 1.161114e+03

-2.457741e+03 -7.550330e+02        0
-7.550330e+02 -1.845099e+02        0
       0        0 -2.259095e+03

-5.315214e+03 -6.176810e+02        0
-6.176810e+02 -3.806186e+02        0
       0        0 -5.585301e+03

-2.250647e+03 -6.751523e+02        0
-6.751523e+02 -1.561921e+02        0
       0        0 -1.906437e+03

-4.117526e+02 -2.936955e+02        0
-2.936955e+02 -5.037339e+01        0
       0        0 7.142991e+02

-2.346826e+03 -7.093765e+02        0
-7.093765e+02 -1.585642e+02        0
       0        0 -2.100074e+03

-1.606974e+01 -2.998031e+02        0
-2.998031e+02 -4.143127e+01        0
       0        0 8.918918e+02

-4.116053e+03 -6.463371e+02        0
-6.463371e+02 -2.504407e+02        0
       0        0 -4.454061e+03

-4.670558e+03 -6.385240e+02        0
-6.385240e+02 -2.900425e+02        0
       0        0 -5.008446e+03

-7.173217e+02 -3.019939e+02        0
-3.019939e+02 -6.030520e+01        0
       0        0 6.104004e+02

-2.152400e+03 -6.468863e+02        0
-6.468863e+02 -1.600103e+02        0
       0        0 -1.688169e+03

-3.633456e+03 -6.442539e+02        0
-6.442539e+02 -2.332541e+02        0
       0        0 -3.924480e+03

-1.942532e+03 -6.028786e+02        0
-6.028786e+02 -1.740920e+02        0
       0        0 -1.207984e+03

-1.110808e+03 -3.404077e+02        0
-3.404077e+02 -8.313455e+01        0
       0        0 5.696908e+02

-2.049690e+03 -6.230668e+02        0
-6.230668e+02 -1.665227e+02        0
       0        0 -1.453413e+03

-9.462676e+02 -3.187567e+02        0
-3.187567e+02 -7.125779e+01        0
       0        0 5.660562e+02

-2.839783e+03 -6.196660e+02        0
-6.196660e+02 -2.228307e+02        0
       0        0 -2.940954e+03

-3.211341e+03 -6.346966e+02        0
-6.346966e+02 -2.255454e+02        0
       0        0 -3.420076e+03

-1.222498e+03 -3.646564e+02        0
-3.646564e+02 -9.603995e+01        0
       0        0 6.112941e+02

-1.831316e+03 -5.859027e+02        0
-5.859027e+02 -1.822875e+02        0
       0        0 -9.564226e+02

-2.509811e+03 -6.006040e+02        0
-6.006040e+02 -2.226228e+02        0
       0        0 -2.486255e+03

-1.598612e+03 -5.603228e+02        0
-5.603228e+02 -2.012268e+02        0
       0        0 -4.485625e+02

-1.331485e+03 -4.166366e+02        0
-4.166366e+02 -1.258904e+02        0
       0        0 7.736678e+02

-1.716476e+03 -5.718052e+02        0
-5.718052e+02 -1.912108e+02        0
       0        0 -7.022819e+02

-1.292501e+03 -3.902149e+02        0
-3.902149e+02 -1.101743e+02        0
       0        0 6.819807e+02

-1.940179e+03 -5.528364e+02        0
-5.528364e+02 -2.253335e+02        0
       0        0 -1.643462e+03

-2.212768e+03 -5.782980e+02        0
-5.782980e+02 -2.236874e+02        0
       0        0 -2.054438e+03

-1.349848e+03 -4.444924e+02        0
-4.444924e+02 -1.437807e+02        0
       0        0 8.778045e+02

-1.478243e+03 -5.510647e+02        0
-5.510647e+02 -2.135996e+02        0
       0        0 -1.999245e+02

-1.684130e+03 -5.234936e+02        0
-5.234936e+02 -2.269023e+02        0
       0        0 -1.251915e+03

-1.392263e+03 -5.788336e+02        0
-5.788336e+02 -2.411852e+02        0
       0        0 1.226884e+03

-1.026342e+03 -5.362185e+02        0
-5.362185e+02 -2.856341e+02        0
       0        0 6.220727e+02

-7.469732e+02 -3.534794e+02        0
-3.534794e+02 -2.246933e+02        0
       0        0 7.025861e+01

-1.470367e+03 -6.854629e+02        0
-6.854629e+02 -3.209408e+02        0
       0        0 1.339665e+03

-1.423721e+03 -6.273935e+02        0
-6.273935e+02 -2.773524e+02        0
       0        0 1.291749e+03

-2.176470e+02 -1.991845e+02        0
-1.991845e+02 -1.940836e+02        0
       0        0 6.824598e+02

-7.964849e+02 -5.282680e+02        0
-5.282680e+02 -3.357321e+02        0
       0        0 9.769577e+02

-4.903410e+02 -2.841645e+02        0
-2.841645e+02 -2.128621e+02        0
       0        0 3.797384e+02

-9.117177e+02 -5.326723e+02        0
-5.326723e+02 -3.092288e+02        0
       0        0 8.058422e+02

-1.534606e+03 -7.551601e+02        0
-7.551601e+02 -3.735127e+02        0
       0        0 1.366197e+03

-6.814380e+02 -5.227396e+02        0
-5.227396e+02 -3.648859e+02        0
       0        0 1.132494e+03

7.361137e+01 -9.650233e+01        0
-9.650233e+01 -1.656016e+02        0
       0        0 9.779257e+02

-1.723040e+03 -9.357903e+02        0
-9.357903e+02 -5.105605e+02        0
       0        0 1.336635e+03

-1.619596e+03 -8.365249e+02        0
-8.365249e+02 -4.348987e+02        0
       0        0 1.366804e+03

7.222336e+02 1.728049e+02        0
1.728049e+02 -7.280346e+01        0
       0        0 1.540067e+03

-4.644404e+02 -5.093220e+02        0
-5.093220e+02 -4.313149e+02        0
       0        0 1.378816e+03

3.858929e+02 2.605877e+01        0
2.605877e+01 -1.278175e+02        0
       0        0 1.263951e+03

-5.675806e+02 -5.173688e+02        0
-5.173688e+02 -3.961749e+02        0
       0        0 1.268977e+03

-1.858656e+03 -1.030435e+03        0
-1.030435e+03 -5.877044e+02        0
       0        0 1.271553e+03

-3.741281e+02 -4.912146e+02        0
-4.912146e+02 -5.264101e+02        0
       0        0 1.441274e+03

1.002772e+03 3.690220e+02        0
3.690220e+02 -7.097467e+00        0
       0        0 1.775054e+03

-2.021678e+03 -1.117459e+03        0
-1.117459e+03 -2.050193e+03        0
       0        0 7.134154e+02

-2.009658e+03 -1.219930e+03        0
-1.219930e+03 -9.334204e+02        0
       0        0 1.096288e+03

2.303599e+02 6.852922e+02        0
6.852922e+02 6.020327e+02        0
       0        0 1.883936e+03

-6.238983e+02 2.499446e+02        0
2.499446e+02 -5.137094e+02        0
       0        0 1.435300e+03

8.288709e+02 6.337231e+02        0
6.337231e+02 1.512559e+02        0
       0        0 1.864082e+03

-3.424418e+02 -1.823293e+02        0
-1.823293e+02 -6.831216e+02        0
       0        0 1.445908e+03

2.839585e+01 -4.866845e+01        0
-4.866845e+01 -1.399368e+03        0
       0        0 1.276637e+03

2.325490e+01 -1.792209e+02        0
-1.792209e+02 4.271769e+01        0
       0        0 1.495278e+03

3.138638e+01 -2.841745e+02        0
-2.841745e+02 5.363960e+02        0
       0        0 1.798402e+03

2.835013e+01 -9.763858e+01        0
-9.763858e+01 -5.973113e+02        0
       0        0 9.433622e+02

1.995508e+01 -3.046921e+01        0
-3.046921e+01 -4.962709e+02        0
       0        0 9.906782e+02

4.099799e+01 -1.660502e+02        0
-1.660502e+02 -6.048299e+02        0
       0        0 1.141863e+03

2.471219e+01 -4.297927e+01        0
-4.297927e+01 -7.131832e+02        0
       0        0 1.122707e+03

5.978826e+00 -2.913599e+01        0
-2.913599e+01 -5.954252e+02        0
       0        0 9.195469e+02

1.425331e+01 -9.569953e+01        0
-9.569953e+01 -3.295887e+02        0
       0        0 1.196642e+03

1.052517e+01 2.220807e+00        0
2.220807e+00 -5.889566e+02        0
       0        0 5.729662e+02

1.034765e+01 -2.381547e+00        0
-2.381547e+00 -2.601922e+02        0
       0        0 6.938148e+02

1.863346e+01 -4.184021e+01        0
-4.184021e+01 -5.922963e+02        0
       0        0 7.508566e+02

1.487194e+01 -1.613605e+01        0
-1.613605e+01 -3.494222e+02        0
       0        0 8.437435e+02

-4.268340e+00 5.669700e+01        0
5.669700e+01 -8.858606e+02        0
       0        0 4.627081e+02

5.116995e-02 2.059438e+01        0
2.059438e+01 -7.752944e+02        0
       0        0 6.733446e+02

-7.493716e-01 5.906453e+01        0
5.906453e+01 -5.869055e+02        0
       0        0 2.794242e+02

2.906769e+00 2.137488e+01        0
2.137488e+01 -2.040757e+02        0
       0        0 4.168301e+02

4.109773e+00 3.542570e+01        0
3.542570e+01 -5.872188e+02        0
       0        0 4.149789e+02

6.314686e+00 1.030983e+01        0
1.030983e+01 -2.155653e+02        0
       0        0 5.495548e+02

-9.099689e+00 9.624343e+01        0
9.624343e+01 -9.622873e+02        0
       0        0 1.493881e+02

-7.253831e+00 8.117247e+01        0
8.117247e+01 -9.433889e+02        0
       0        0 2.885762e+02

-6.417048e+00 8.322857e+01        0
8.322857e+01 -5.897450e+02        0
       0        0 7.640526e+01

-1.977012e+00 3.761543e+01        0
3.761543e+01 -2.416421e+02        0
       0        0 1.988276e+02

-4.198138e+00 7.452623e+01        0
7.452623e+01 -5.878170e+02        0
       0        0 1.668412e+02

1.440131e-01 3.052547e+01        0
3.052547e+01 -2.156229e+02        0
       0        0 2.992774e+02

-1.030576e+01 1.062930e+02        0
1.062930e+02 -9.323999e+02        0
       0        0 -3.807188e+01

-1.004852e+01 1.039862e+02        0
1.039862e+02 -9.551238e+02        0
       0        0 4.188143e+01

-7.910182e+00 8.569149e+01        0
8.569149e+01 -5.957831e+02        0
       0        0 -4.493730e+01

-4.435922e+00 4.562222e+01        0
4.562222e+01 -3.102500e+02        0
       0        0 5.123942e+01

-7.592725e+00 8.653191e+01        0
8.653191e+01 -5.924852e+02        0
       0        0 6.475556e+00

-3.486970e+00 4.262533e+01        0
4.262533e+01 -2.750731e+02        0
       0        0 1.161816e+02

-9.468532e+00 1.009627e+02        0
1.009627e+02 -8.722309e+02        0
       0        0 -1.326543e+02

-1.005608e+01 1.048172e+02        0
1.048172e+02 -9.025885e+02        0
       0        0 -9.486012e+01

-4.864933e+00 4.667647e+01        0
4.667647e+01 -3.423566e+02        0
       0        0 3.586089e+00

-7.546629e+00 8.176272e+01        0
8.176272e+01 -5.984473e+02        0
       0        0 -7.954588e+01

-8.668556e+00 9.587301e+01        0
9.587301e+01 -8.456719e+02        0
       0        0 -1.549175e+02

6.543661e+01 -3.410826e+02        0
-3.410826e+02 -6.539898e+02        0
       0        0 1.488159e+03

3.194228e+01 -5.567516e+01        0
-5.567516e+01 -1.017478e+03        0
       0        0 1.223890e+03

5.382904e+01 -2.444684e+02        0
-2.444684e+02 -6.149038e+02        0
       0        0 1.332340e+03

-1.779158e+02 2.976004e+02        0
2.976004e+02 1.051228e+03        0
       0        0 1.958375e+03

-1.079828e+02 -2.109901e+02        0
-2.109901e+02 1.001458e+03        0
       0        0 1.979034e+03

-8.628752e+02 -5.837265e+02        0
-5.837265e+02 -2.614266e+03        0
       0        0 8.527182e+02

-7.851036e+02 -9.094741e+01        0
-9.094741e+01 -2.555949e+02        0
       0        0 1.495203e+03

-3.018670e+01 -1.113857e+02        0
-1.113857e+02 -1.984396e+03        0
       0        0 1.213429e+03

-1.823392e+02 -3.999570e+02        0
-3.999570e+02 -5.660670e+02        0
       0        0 1.555240e+03

-7.675269e+01 7.197910e+01        0
7.197910e+01 1.177801e+02        0
       0        0 1.367816e+03

-2.002056e+02 3.435367e+02        0
3.435367e+02 -5.760985e+02        0
       0        0 1.162458e+03

-1.596900e+02 4.216953e+02        0
4.216953e+02 -1.402746e+03        0
       0        0 9.539711e+02

-5.097875e+01 1.345677e+02        0
1.345677e+02 -1.650879e+02        0
       0        0 1.152256e+03

-9.640444e+01 3.042716e+02        0
3.042716e+02 -6.173626e+02        0
       0        0 1.020434e+03

-5.452221e+01 2.524026e+02        0
2.524026e+02 -1.050578e+03        0
       0        0 9.113343e+02

-3.269495e+01 1.420971e+02        0
1.420971e+02 -4.469910e+02        0
       0        0 9.045902e+02

-4.460355e+01 2.386627e+02        0
2.386627e+02 -6.260279e+02        0
       0        0 8.485887e+02

-1.940116e+01 1.663092e+02        0
1.663092e+02 -7.522525e+02        0
       0        0 8.155305e+02

-1.804202e+01 1.161274e+02        0
1.161274e+02 -7.896552e+02        0
       0        0 4.612560e+02

-2.415542e+01 1.297529e+02        0
1.297529e+02 -6.585975e+02        0
       0        0 6.670334e+02

-5.135009e+00 7.672530e+01        0
7.672530e+01 -4.426206e+02        0
       0        0 5.414126e+02

-1.626590e+01 1.278969e+02        0
1.278969e+02 -6.264188e+02        0
       0        0 4.960681e+02

-1.046843e+01 1.134501e+02        0
1.134501e+02 -5.588076e+02        0
       0        0 6.829627e+02

-2.680536e+01 1.760569e+02        0
1.760569e+02 -6.262064e+02        0
       0        0 6.671382e+02

-1.000975e+01 9.376788e+01        0
9.376788e+01 -8.866844e+02        0
       0        0 1.551532e+02

-1.340213e+01 1.039040e+02        0
1.039040e+02 -8.595554e+02        0
       0        0 2.909952e+02

-5.650366e-01 3.886754e+01        0
3.886754e+01 -3.605454e+02        0
       0        0 2.819513e+02

-4.394782e+00 7.035995e+01        0
7.035995e+01 -6.258082e+02        0
       0        0 2.165993e+02

-2.053428e+00 5.277465e+01        0
5.277465e+01 -3.824838e+02        0
       0        0 4.049437e+02

-8.969762e+00 9.333183e+01        0
9.333183e+01 -6.264835e+02        0
       0        0 3.446323e+02

-7.726477e+00 8.612417e+01        0
8.612417e+01 -8.863941e+02        0
       0        0 5.026093e+01

-1.954228e+00 5.688696e+01        0
5.688696e+01 -6.243450e+02        0
       0        0 1.125577e+02

-2.434195e-01 3.235753e+01        0
3.235753e+01 -3.618109e+02        0
       0        0 1.769991e+02

-5.768746e+00 7.874504e+01        0
7.874504e+01 -8.504655e+02        0
       0        0 -8.513268e+01

-6.371556e+00 8.112529e+01        0
8.112529e+01 -8.711017e+02        0
       0        0 -2.825581e+01

-1.554731e+00 3.279364e+01        0
3.279364e+01 -3.891562e+02        0
       0        0 2.768234e+01

-1.402177e+00 5.054959e+01        0
5.054959e+01 -6.191020e+02        0
       0        0 -2.932743e+01

-6.814404e-01 3.096773e+01        0
3.096773e+01 -3.743781e+02        0
       0        0 9.208482e+01

-1.115095e+00 5.089615e+01        0
5.089615e+01 -6.220913e+02        0
       0        0 3.127270e+01

-6.173162e+00 8.105413e+01        0
8.105413e+01 -8.196518e+02        0
       0        0 -1.499058e+02

-5.752828e+00 7.881585e+01        0
7.881585e+01 -8.316571e+02        0
       0        0 -1.245949e+02

-3.610472e+00 4.026621e+01        0
4.026621e+01 -4.012559e+02        0
       0        0 -4.067083e+01

-3.813701e+00 6.045877e+01        0
6.045877e+01 -6.112807e+02        0
       0        0 -9.673923e+01

-2.601442e+00 3.629836e+01        0
3.629836e+01 -3.995701e+02        0
       0        0 -1.644773e+01

-2.414556e+00 5.421707e+01        0
5.421707e+01 -6.154616e+02        0
       0        0 -7.141401e+01

-7.772660e+00 9.029161e+01        0
9.029161e+01 -8.263923e+02        0
       0        0 -1.647548e+02

-6.893006e+00 8.505755e+01        0
8.505755e+01 -8.174785e+02        0
       0        0 -1.630854e+02

-4.856222e+00 4.602148e+01        0
4.602148e+01 -3.707269e+02        0
       0        0 -2.940037e+01

-6.637000e+00 7.553712e+01        0
7.553712e+01 -6.018783e+02        0
       0        0 -1.001728e+02

-4.415311e+00 4.374994e+01        0
4.374994e+01 -3.918273e+02        0
       0        0 -4.510131e+01

-5.309050e+00 6.797344e+01        0
6.797344e+01 -6.066966e+02        0
       0        0 -1.063027e+02

1.938622e+03 -3.698001e+02        0
-3.698001e+02 1.454023e+01        0
       0        0 9.602240e+02

2.467754e+03 -1.200410e+02        0
-1.200410e+02 -1.111972e+02        0
       0        0 1.248003e+03

-1.363652e+03 6.833358e+01        0
6.833358e+01 -4.762173e+01        0
       0        0 -6.300902e+02

-2.853149e-01 -5.088018e+02        0
-5.088018e+02 6.436582e+01        0
       0        0 7.548961e+01

-2.889992e+03 6.151926e+02        0
6.151926e+02 -1.562068e+03        0
       0        0 -1.677432e+03

-3.276618e+02 -3.611452e+01        0
-3.611452e+01 -7.129793e+02        0
       0        0 -2.628544e+02

1.256794e+03 -2.723916e+02        0
-2.723916e+02 3.932219e+01        0
       0        0 6.340696e+02

1.972113e+02 -4.525292e+02        0
-4.525292e+02 1.704410e+02        0
       0        0 1.645964e+02

-6.042525e+02 -1.989290e+02        0
-1.989290e+02 2.026235e+02        0
       0        0 -2.467560e+02

4.613499e+02 -1.155522e+02        0
-1.155522e+02 1.776395e+01        0
       0        0 2.324082e+02

7.775482e+02 -1.760784e+02        0
-1.760784e+02 2.649329e+01        0
       0        0 3.947555e+02

-1.223382e+02 -2.258602e+02        0
-2.258602e+02 1.742342e+02        0
       0        0 -4.633784e+01

1.692531e+02 -2.439984e+02        0
-2.439984e+02 9.437773e+01        0
       0        0 1.011031e+02

-2.697784e+02 -2.530953e+02        0
-2.530953e+02 2.056401e+02        0
       0        0 -1.031164e+02

2.234563e+02 -3.400545e+02        0
-3.400545e+02 1.295526e+02        0
       0        0 1.458385e+02

1.189380e+02 -4.859164e+01        0
-4.859164e+01 9.238781e+00        0
       0        0 5.056471e+01

2.535778e+02 -7.578530e+01        0
-7.578530e+01 1.241488e+01        0
       0        0 1.230176e+02

-3.706037e+01 -1.216628e+02        0
-1.216628e+02 1.160119e+02        0
       0        0 -1.911142e+01

5.227444e+01 -1.122864e+02        0
-1.122864e+02 5.444155e+01        0
       0        0 2.589653e+01

-6.229426e+01 -1.741703e+02        0
-1.741703e+02 1.434861e+02        0
       0        0 -2.557829e+01

1.052033e+02 -1.694858e+02        0
-1.694858e+02 7.072222e+01        0
       0        0 5.884548e+01

3.557116e+01 -2.932769e+01        0
-2.932769e+01 7.031942e+00        0
       0        0 4.592988e+00

1.523424e+01 -6.934492e+01        0
-6.934492e+01 4.248649e+01        0
       0        0 2.793071e+00

-2.646500e+01 -7.732783e+01        0
-7.732783e+01 9.319445e+01        0
       0        0 -1.829554e+01

-3.352037e+01 -4.726425e+00        0
-4.726425e+00 4.928518e+00        0
       0        0 -3.399687e+01

-1.172574e+01 -1.548297e+01        0
-1.548297e+01 5.606745e+00        0
       0        0 -2.210912e+01

-2.019823e+01 -1.328057e+01        0
-1.328057e+01 6.899670e+01        0
       0        0 -1.990926e+01

-1.799395e+01 -1.167630e+01        0
-1.167630e+01 3.059099e+01        0
       0        0 -1.810413e+01

-2.198294e+01 -4.204524e+01        0
-4.204524e+01 7.700581e+01        0
       0        0 -1.913312e+01

-7.260201e+00 -3.715070e+01        0
-3.715070e+01 3.448109e+01        0
       0        0 -1.150221e+01

-2.105768e+03 9.566722e+02        0
9.566722e+02 -2.341495e+02        0
       0        0 -1.272597e+03

-4.130528e+03 1.534979e+03        0
1.534979e+03 -9.536036e+02        0
       0        0 -2.069451e+03

2.393814e+02 6.830428e+02        0
6.830428e+02 -2.328855e+02        0
       0        0 8.506564e+02

-8.240543e+02 1.287809e+03        0
1.287809e+03 -3.526836e+02        0
       0        0 -2.150048e+02

1.787270e+03 4.339577e+02        0
4.339577e+02 -1.523573e+02        0
       0        0 1.193667e+03

-8.172712e+02 1.274937e+03        0
1.274937e+03 -7.839711e+02        0
       0        0 -4.108988e+02

-7.810734e+02 6.349476e+02        0
6.349476e+02 -3.258700e+02        0
       0        0 -6.568892e+02

-6.480824e+02 1.029696e+03        0
1.029696e+03 -5.871201e+02        0
       0        0 -3.083691e+01

-9.916874e+02 8.441154e+02        0
8.441154e+02 -4.808366e+02        0
       0        0 5.691214e+02

3.000753e+02 -8.513058e+01        0
-8.513058e+01 -8.402319e+01        0
       0        0 5.669367e+02

-2.887735e+01 2.543840e+02        0
2.543840e+02 -2.574850e+02        0
       0        0 -1.464870e+01

-1.792309e+03 1.313086e+03        0
1.313086e+03 -1.105723e+03        0
       0        0 5.056006e+02

-5.529375e+02 5.846021e+02        0
5.846021e+02 -7.171689e+02        0
       0        0 5.590527e+02

-1.624929e+03 1.096177e+03        0
1.096177e+03 -7.773800e+02        0
       0        0 4.733111e+02

-5.689728e+02 7.750681e+02        0
7.750681e+02 -7.080811e+02        0
       0        0 2.474839e+02

2.529426e+02 -3.614164e+02        0
-3.614164e+02 3.323757e+02        0
       0        0 1.365594e+03

3.494376e+02 -2.942359e+02        0
-2.942359e+02 1.381237e+02        0
       0        0 1.036445e+03

-1.324436e+03 1.363771e+03        0
1.363771e+03 -1.662931e+03        0
       0        0 7.316829e+02

-5.295368e+02 4.000480e+02        0
4.000480e+02 -6.145667e+02        0
       0        0 1.073196e+03

-1.643294e+03 1.409620e+03        0
1.409620e+03 -1.417712e+03        0
       0        0 6.084119e+02

-5.487718e+02 4.635902e+02        0
4.635902e+02 -6.719410e+02        0
       0        0 8.472194e+02

1.132527e+02 -3.109224e+02        0
-3.109224e+02 4.447815e+02        0
       0        0 1.548776e+03

-4.830786e+02 3.739500e+02        0
3.739500e+02 -5.710259e+02        0
       0        0 1.216920e+03

-9.553338e+02 1.195730e+03        0
1.195730e+03 -1.799988e+03        0
       0        0 8.406579e+02

-6.839499e+01 -4.669376e+01        0
-4.669376e+01 3.367419e+02        0
       0        0 1.526845e+03

-4.599144e+00 -1.889441e+02        0
-1.889441e+02 4.469682e+02        0
       0        0 1.595852e+03

-3.552675e+02 6.750510e+02        0
6.750510e+02 -1.677425e+03        0
       0        0 9.502173e+02

-3.132276e+02 3.537284e+02        0
3.537284e+02 -5.436173e+02        0
       0        0 1.253437e+03

-6.170498e+02 9.499623e+02        0
9.499623e+02 -1.808335e+03        0
       0        0 9.152520e+02

-4.090776e+02 3.645956e+02        0
3.645956e+02 -5.509391e+02        0
       0        0 1.273945e+03

-8.881158e+02 8.096487e+02        0
8.096487e+02 -8.104822e+02        0
       0        0 -7.768830e+02

-1.511583e+03 7.302666e+02        0
7.302666e+02 -5.060669e+02        0
       0        0 -9.127247e+02

-6.844604e+02 1.178986e+03        0
1.178986e+03 -2.129812e+03        0
       0        0 -1.104275e+03

-2.144945e+03 1.904197e+03        0
1.904197e+03 -2.510184e+03        0
       0        0 -1.783615e+03

-4.770715e+02 6.249564e+02        0
6.249564e+02 -1.022459e+03        0
       0        0 -5.225577e+02

-6.000327e+02 7.130722e+02        0
7.130722e+02 -9.993380e+02        0
       0        0 -6.651338e+02

-4.052117e+02 5.993673e+02        0
5.993673e+02 -1.663130e+03        0
       0        0 -6.721309e+02

-3.927026e+02 8.155638e+02        0
8.155638e+02 -1.807346e+03        0
       0        0 -8.125213e+02

-3.671234e+02 3.201114e+01        0
3.201114e+01 1.736947e+02        0
       0        0 -2.043710e+02

-3.146669e+02 -1.102613e+02        0
-1.102613e+02 2.017109e+02        0
       0        0 -1.599266e+02

-5.569774e+02 1.432823e+02        0
1.432823e+02 6.849922e+01        0
       0        0 -3.346345e+02

-5.324365e+02 -4.206715e+01        0
-4.206715e+01 1.701679e+02        0
       0        0 -2.764677e+02

-7.821703e+02 3.956284e+02        0
3.956284e+02 -2.128264e+02        0
       0        0 -5.316007e+02

-8.910773e+02 1.813613e+02        0
1.813613e+02 2.609742e+01        0
       0        0 -4.856982e+02

-1.340596e+02 2.447360e+02        0
2.447360e+02 1.468481e+01        0
       0        0 -8.305789e+01

-3.024861e+02 1.572238e+02        0
1.572238e+02 1.077606e+02        0
       0        0 -1.769882e+02

-2.401986e+02 3.719007e+02        0
3.719007e+02 -1.577385e+02        0
       0        0 -1.793625e+02

-4.515693e+02 2.754652e+02        0
2.754652e+02 -4.694786e+01        0
       0        0 -2.992963e+02

-3.689868e+02 5.183446e+02        0
5.183446e+02 -4.864766e+02        0
       0        0 -3.274653e+02

-5.898030e+02 4.655923e+02        0
4.655923e+02 -3.931399e+02        0
       0        0 -4.722837e+02

-1.307514e+02 -1.940623e+01        0
-1.940623e+01 1.808500e+02        0
       0        0 -7.124204e+01

-1.076853e+02 -8.342539e+01        0
-8.342539e+01 1.639366e+02        0
       0        0 -5.833465e+01

-2.259137e+02 -9.398850e+00        0
-9.398850e+00 1.954815e+02        0
       0        0 -1.213053e+02

-1.854697e+02 -1.077346e+02        0
-1.077346e+02 1.903393e+02        0
       0        0 -9.481877e+01

-1.749169e+01 8.814417e+01        0
8.814417e+01 1.157671e+02        0
       0        0 2.432711e+00

-9.934266e+01 4.521427e+01        0
4.521427e+01 1.631485e+02        0
       0        0 -5.028383e+01

-6.148407e+01 1.510194e+02        0
1.510194e+02 9.100842e+01        0
       0        0 -2.703959e+01

-1.821876e+02 8.587140e+01        0
8.587140e+01 1.599843e+02        0
       0        0 -9.763550e+01

-2.166589e+01 -3.587847e+00        0
-3.587847e+00 1.227585e+02        0
       0        0 -2.106572e+01

-2.510958e+01 -9.863098e+00        0
-9.863098e+00 1.034191e+02        0
       0        0 -2.457547e+01

-3.750713e+01 -1.086733e+01        0
-1.086733e+01 1.345143e+02        0
       0        0 -2.747027e+01

-3.676400e+01 -3.106952e+01        0
-3.106952e+01 1.145309e+02        0
       0        0 -2.860889e+01

-7.128726e+01 -1.718518e+01        0
-1.718518e+01 1.560524e+02        0
       0        0 -4.263466e+01

-6.198608e+01 -5.571366e+01        0
-5.571366e+01 1.360635e+02        0
       0        0 -3.862376e+01

2.423581e+01 6.936841e+00        0
6.936841e+00 1.070395e+02        0
       0        0 2.449881e+01

-4.786524e+00 2.888276e+00        0
2.888276e+00 1.231772e+02        0
       0        0 -4.253320e+00

1.907510e+01 2.338532e+01        0
2.338532e+01 1.116536e+02        0
       0        0 2.243044e+01

-1.834989e+01 1.009272e+01        0
1.009272e+01 1.326686e+02        0
       0        0 -1.001511e+01

6.886010e+00 4.821107e+01        0
4.821107e+01 1.173464e+02        0
       0        0 1.650183e+01

-4.749295e+01 2.249382e+01        0
2.249382e+01 1.486366e+02        0
       0        0 -2.372513e+01

POINT_DATA     938
VECTORS DISPLACEMENT_1.000000e+00 double
5.519730e-09    4.619955e-08    0.000000e+00
6.000901e-09    4.356387e-08    0.000000e+00
5.051036e-09    4.889711e-08    0.000000e+00
-1.851261e-09    4.671014e-08    0.000000e+00
-1.107799e-09    4.354873e-08    0.000000e+00
-2.925877e-10    4.049900e-08    0.000000e+00
5.858026e-10    3.759044e-08    0.000000e+00
1.516851e-09    3.485666e-08    0.000000e+00
2.486897e-09    3.233679e-08    0.000000e+00
3.478837e-09    3.007690e-08    0.000000e+00
4.470236e-09    2.812988e-08    0.000000e+00
5.433944e-09    2.656391e-08    0.000000e+00
6.307614e-09    2.548485e-08    0.000000e+00
6.918612e-09    2.491650e-08    0.000000e+00
7.459916e-09    2.469695e-08    0.000000e+00
-2.781931e-11    8.478648e-08    0.000000e+00
-5.550996e-10    8.460666e-08    0.000000e+00
-1.046811e-10    8.328059e-08    0.000000e+00
-1.147492e-09    8.302502e-08    0.000000e+00
-1.931228e-10    7.854966e-08    0.000000e+00
-1.934964e-09    7.821891e-08    0.000000e+00
-1.578033e-10    7.559222e-08    0.000000e+00
-2.130412e-09    7.522389e-08    0.000000e+00
-1.697524e-10    8.115121e-08    0.000000e+00
-1.606664e-09    8.085622e-08    0.000000e+00
1.286281e-10    6.898003e-08    0.000000e+00
-2.130962e-09    6.854142e-08    0.000000e+00
3.899645e-10    6.546548e-08    0.000000e+00
-1.946495e-09    6.499569e-08    0.000000e+00
1.151762e-09    5.827837e-08    0.000000e+00
-1.243034e-09    5.775519e-08    0.000000e+00
1.646403e-09    5.468086e-08    0.000000e+00
-7.399621e-10    5.413658e-08    0.000000e+00
7.315828e-10    6.188432e-08    0.000000e+00
-1.647991e-09    6.138631e-08    0.000000e+00
-5.287227e-11    7.237670e-08    0.000000e+00
-2.194299e-09    7.197210e-08    0.000000e+00
4.073084e-09    5.517101e-08    0.000000e+00
3.592384e-09    5.873192e-08    0.000000e+00
3.163607e-09    6.229776e-08    0.000000e+00
2.786255e-09    6.583437e-08    0.000000e+00
2.456287e-09    6.929789e-08    0.000000e+00
2.165373e-09    7.263590e-08    0.000000e+00
1.900341e-09    7.578567e-08    0.000000e+00
1.642407e-09    7.867043e-08    0.000000e+00
1.365515e-09    8.119726e-08    0.000000e+00
1.031435e-09    8.325232e-08    0.000000e+00
5.804265e-10    8.467437e-08    0.000000e+00
7.144565e-12    8.519910e-08    0.000000e+00
-1.248463e-11    8.545160e-08    0.000000e+00
1.979241e-11    8.561014e-08    0.000000e+00
-4.609903e-10    8.674567e-08    0.000000e+00
-1.265909e-09    8.428156e-08    0.000000e+00
-2.299457e-09    8.257710e-08    0.000000e+00
-3.117493e-09    8.037032e-08    0.000000e+00
-3.732942e-09    7.771314e-08    0.000000e+00
-4.144416e-09    7.470445e-08    0.000000e+00
-4.366575e-09    7.143860e-08    0.000000e+00
-4.413610e-09    6.799382e-08    0.000000e+00
-4.300519e-09    6.443418e-08    0.000000e+00
-4.041593e-09    6.081160e-08    0.000000e+00
-3.650058e-09    5.716830e-08    0.000000e+00
-3.137841e-09    5.353928e-08    0.000000e+00
-2.515327e-09    4.995530e-08    0.000000e+00
-1.560968e-10    5.055611e-08    0.000000e+00
2.200603e-09    5.111887e-08    0.000000e+00
4.602922e-09    5.164379e-08    0.000000e+00
6.484653e-09    4.100433e-08    0.000000e+00
6.958741e-09    3.853684e-08    0.000000e+00
7.408320e-09    3.617934e-08    0.000000e+00
7.815560e-09    3.395236e-08    0.000000e+00
8.159367e-09    3.187916e-08    0.000000e+00
8.416335e-09    2.998672e-08    0.000000e+00
8.555490e-09    2.830135e-08    0.000000e+00
8.609328e-09    2.682499e-08    0.000000e+00
8.304636e-09    2.545714e-08    0.000000e+00
8.088365e-09    2.515141e-08    0.000000e+00
7.758059e-09    2.492944e-08    0.000000e+00
5.674429e-09    3.480465e-08    0.000000e+00
4.059968e-09    3.352948e-08    0.000000e+00
3.843487e-09    4.252699e-08    0.000000e+00
1.765595e-09    4.150802e-08    0.000000e+00
2.698929e-09    4.818626e-08    0.000000e+00
4.161011e-10    4.745938e-08    0.000000e+00
3.255718e-09    4.531898e-08    0.000000e+00
1.065311e-09    4.443707e-08    0.000000e+00
4.451155e-09    3.982964e-08    0.000000e+00
2.506439e-09    3.869524e-08    0.000000e+00
5.066502e-09    3.724762e-08    0.000000e+00
3.276121e-09    3.602546e-08    0.000000e+00
7.251053e-09    2.861324e-08    0.000000e+00
6.285127e-09    2.747751e-08    0.000000e+00
6.256789e-09    3.252824e-08    0.000000e+00
4.839706e-09    3.124302e-08    0.000000e+00
6.790214e-09    3.044874e-08    0.000000e+00
5.592049e-09    2.920626e-08    0.000000e+00
7.602246e-09    2.703855e-08    0.000000e+00
6.897012e-09    2.611603e-08    0.000000e+00
7.907076e-09    2.584255e-08    0.000000e+00
7.398523e-09    2.527245e-08    0.000000e+00
6.152493e-09    2.386777e-08    0.000000e+00
6.281222e-09    2.447481e-08    0.000000e+00
2.242570e-09    2.272729e-08    0.000000e+00
2.238525e-09    2.316934e-08    0.000000e+00
1.277986e-09    2.243160e-08    0.000000e+00
1.257753e-09    2.272435e-08    0.000000e+00
1.711092e-09    2.257182e-08    0.000000e+00
1.695507e-09    2.293815e-08    0.000000e+00
6.788718e-10    2.218440e-08    0.000000e+00
6.656103e-10    2.234572e-08    0.000000e+00
4.948643e-10    2.207250e-08    0.000000e+00
4.908666e-10    2.217731e-08    0.000000e+00
9.368125e-10    2.230338e-08    0.000000e+00
9.177564e-10    2.252737e-08    0.000000e+00
2.874582e-09    2.290176e-08    0.000000e+00
2.889519e-09    2.341709e-08    0.000000e+00
5.184280e-10    2.195556e-08    0.000000e+00
7.130342e-10    2.201315e-08    0.000000e+00
9.779542e-10    2.207185e-08    0.000000e+00
1.321241e-09    2.213388e-08    0.000000e+00
1.750135e-09    2.220282e-08    0.000000e+00
2.269699e-09    2.228388e-08    0.000000e+00
2.881127e-09    2.238406e-08    0.000000e+00
3.579718e-09    2.251222e-08    0.000000e+00
4.352528e-09    2.267915e-08    0.000000e+00
5.175701e-09    2.289738e-08    0.000000e+00
6.011310e-09    2.318150e-08    0.000000e+00
6.805508e-09    2.354478e-08    0.000000e+00
7.480312e-09    2.400954e-08    0.000000e+00
7.998994e-09    2.454241e-08    0.000000e+00
7.831278e-09    2.483003e-08    0.000000e+00
7.741000e-09    2.506560e-08    0.000000e+00
7.181149e-09    2.516228e-08    0.000000e+00
6.375451e-09    2.507170e-08    0.000000e+00
5.471844e-09    2.486703e-08    0.000000e+00
4.558871e-09    2.458940e-08    0.000000e+00
3.696685e-09    2.427268e-08    0.000000e+00
2.922411e-09    2.394154e-08    0.000000e+00
2.255383e-09    2.361339e-08    0.000000e+00
1.701899e-09    2.329956e-08    0.000000e+00
1.259325e-09    2.300645e-08    0.000000e+00
9.195747e-10    2.273664e-08    0.000000e+00
6.719246e-10    2.248987e-08    0.000000e+00
5.052052e-10    2.226394e-08    0.000000e+00
4.094289e-10    2.205535e-08    0.000000e+00
3.839314e-10    2.201966e-08    0.000000e+00
3.758967e-10    2.196559e-08    0.000000e+00
3.863502e-10    2.189813e-08    0.000000e+00
4.484213e-09    2.394849e-08    0.000000e+00
4.412356e-09    2.332366e-08    0.000000e+00
3.643475e-09    2.367859e-08    0.000000e+00
3.602565e-09    2.309919e-08    0.000000e+00
5.380308e-09    2.421800e-08    0.000000e+00
5.276902e-09    2.357854e-08    0.000000e+00
7.765734e-09    2.487412e-08    0.000000e+00
7.658159e-09    2.455671e-08    0.000000e+00
7.110430e-09    2.470083e-08    0.000000e+00
6.975083e-09    2.418889e-08    0.000000e+00
8.042284e-09    2.493393e-08    0.000000e+00
8.107949e-09    2.490375e-08    0.000000e+00
5.515490e-09    2.047969e-08    0.000000e+00
5.611116e-09    2.030117e-08    0.000000e+00
5.627403e-09    2.016799e-08    0.000000e+00
5.603553e-09    2.001202e-08    0.000000e+00
5.241542e-09    1.992738e-08    0.000000e+00
4.670174e-09    1.993012e-08    0.000000e+00
3.997079e-09    2.000931e-08    0.000000e+00
3.309055e-09    2.014289e-08    0.000000e+00
2.663067e-09    2.031058e-08    0.000000e+00
2.090138e-09    2.049726e-08    0.000000e+00
1.604212e-09    2.069228e-08    0.000000e+00
1.207912e-09    2.088883e-08    0.000000e+00
8.971986e-10    2.108332e-08    0.000000e+00
6.650205e-10    2.127480e-08    0.000000e+00
5.040895e-10    2.146443e-08    0.000000e+00
4.088635e-10    2.165497e-08    0.000000e+00
3.768684e-10    2.185038e-08    0.000000e+00
3.017663e-10    2.183042e-08    0.000000e+00
2.871831e-10    2.176416e-08    0.000000e+00
3.384216e-10    2.170152e-08    0.000000e+00
4.554228e-10    2.164488e-08    0.000000e+00
6.418878e-10    2.159624e-08    0.000000e+00
9.043659e-10    2.155642e-08    0.000000e+00
1.250699e-09    2.152417e-08    0.000000e+00
1.687751e-09    2.149518e-08    0.000000e+00
2.218273e-09    2.146089e-08    0.000000e+00
2.836838e-09    2.140729e-08    0.000000e+00
3.524642e-09    2.131345e-08    0.000000e+00
4.244355e-09    2.115158e-08    0.000000e+00
4.937516e-09    2.087819e-08    0.000000e+00
1.468552e-09    2.098431e-08    0.000000e+00
1.350470e-09    2.126167e-08    0.000000e+00
3.845358e-09    2.044461e-08    0.000000e+00
3.686655e-09    2.086615e-08    0.000000e+00
5.183698e-09    2.023280e-08    0.000000e+00
5.087059e-09    2.052452e-08    0.000000e+00
4.554333e-09    2.032621e-08    0.000000e+00
4.409812e-09    2.071347e-08    0.000000e+00
2.501305e-09    2.070672e-08    0.000000e+00
2.352576e-09    2.108591e-08    0.000000e+00
3.145009e-09    2.057284e-08    0.000000e+00
2.986982e-09    2.098622e-08    0.000000e+00
1.939176e-09    2.084439e-08    0.000000e+00
1.804708e-09    2.117543e-08    0.000000e+00
5.797016e-10    2.141097e-08    0.000000e+00
5.096925e-10    2.153530e-08    0.000000e+00
1.089291e-09    2.112554e-08    0.000000e+00
9.879291e-10    2.134899e-08    0.000000e+00
7.956429e-10    2.126769e-08    0.000000e+00
7.103923e-10    2.143983e-08    0.000000e+00
3.533152e-10    2.170468e-08    0.000000e+00
3.125464e-10    2.174085e-08    0.000000e+00
4.339964e-10    2.155618e-08    0.000000e+00
3.786091e-10    2.163567e-08    0.000000e+00
3.358772e-10    2.185838e-08    0.000000e+00
3.105737e-10    2.185075e-08    0.000000e+00
-8.517483e-14    -7.091274e-11    0.000000e+00
-9.535196e-12    -7.622433e-11    0.000000e+00
-2.105733e-11    -9.089890e-11    0.000000e+00
-3.698564e-11    -1.134227e-10    0.000000e+00
-6.046060e-11    -1.391677e-10    0.000000e+00
-9.628339e-11    -1.569307e-10    0.000000e+00
-1.533258e-10    -1.422260e-10    0.000000e+00
-2.478283e-10    -4.852492e-11    0.000000e+00
-4.196554e-10    2.140472e-10    0.000000e+00
-6.845518e-10    7.726126e-10    0.000000e+00
-1.322175e-09    1.920962e-09    0.000000e+00
-4.638697e-10    2.083316e-09    0.000000e+00
7.186250e-10    2.195865e-09    0.000000e+00
2.065782e-09    2.383951e-09    0.000000e+00
1.271684e-09    8.687287e-10    0.000000e+00
7.125308e-10    2.148664e-10    0.000000e+00
3.811340e-10    -4.979039e-11    0.000000e+00
1.900013e-10    -1.467686e-10    0.000000e+00
8.103959e-11    -1.679382e-10    0.000000e+00
2.316485e-11    -1.563546e-10    0.000000e+00
-3.158820e-12    -1.344614e-10    0.000000e+00
-1.057142e-11    -1.138243e-10    0.000000e+00
-7.558224e-12    -9.995943e-11    0.000000e+00
2.858071e-13    -9.530591e-11    0.000000e+00
1.491377e-13    -9.082474e-11    0.000000e+00
3.935273e-14    -8.399421e-11    0.000000e+00
4.888178e-11    -1.895558e-10    0.000000e+00
-2.251554e-11    -1.870547e-10    0.000000e+00
3.266821e-10    1.151969e-10    0.000000e+00
-1.150644e-10    1.256004e-10    0.000000e+00
4.971714e-10    7.053353e-10    0.000000e+00
-2.653163e-10    6.915454e-10    0.000000e+00
1.977186e-10    -1.120484e-10    0.000000e+00
-4.822096e-11    -1.079200e-10    0.000000e+00
1.066940e-10    -1.850132e-10    0.000000e+00
-2.839041e-11    -1.832379e-10    0.000000e+00
-3.415948e-13    -1.376104e-10    0.000000e+00
-1.606058e-11    -1.321179e-10    0.000000e+00
1.566808e-11    -1.667740e-10    0.000000e+00
-1.965754e-11    -1.625759e-10    0.000000e+00
-5.380537e-12    -1.125714e-10    0.000000e+00
-1.135277e-11    -1.063235e-10    0.000000e+00
-4.093519e-12    -9.637580e-11    0.000000e+00
-5.861942e-12    -8.975477e-11    0.000000e+00
-2.529619e-09    5.447696e-09    0.000000e+00
-2.335687e-09    9.101784e-09    0.000000e+00
-1.388240e-09    1.254686e-08    0.000000e+00
7.733208e-11    1.542787e-08    0.000000e+00
1.710418e-09    1.757587e-08    0.000000e+00
3.246339e-09    1.899497e-08    0.000000e+00
4.485216e-09    1.978516e-08    0.000000e+00
5.304200e-09    2.010034e-08    0.000000e+00
5.668499e-09    2.011997e-08    0.000000e+00
5.842381e-09    1.999597e-08    0.000000e+00
5.963123e-09    1.931524e-08    0.000000e+00
5.864822e-09    1.835080e-08    0.000000e+00
5.562801e-09    1.701803e-08    0.000000e+00
5.098383e-09    1.524857e-08    0.000000e+00
4.539285e-09    1.303898e-08    0.000000e+00
3.951389e-09    1.044053e-08    0.000000e+00
3.372252e-09    7.585774e-09    0.000000e+00
2.768532e-09    4.734843e-09    0.000000e+00
2.928433e-09    1.681783e-08    0.000000e+00
4.047510e-09    1.606317e-08    0.000000e+00
-3.534825e-10    8.524879e-09    0.000000e+00
1.451257e-09    8.022127e-09    0.000000e+00
-6.468180e-10    5.117737e-09    0.000000e+00
9.933434e-10    4.822038e-09    0.000000e+00
4.697047e-10    1.181361e-08    0.000000e+00
2.186264e-09    1.113787e-08    0.000000e+00
1.646017e-09    1.463108e-08    0.000000e+00
3.101221e-09    1.386431e-08    0.000000e+00
5.032219e-09    1.932439e-08    0.000000e+00
5.505299e-09    1.884563e-08    0.000000e+00
4.109458e-09    1.835679e-08    0.000000e+00
4.885516e-09    1.770654e-08    0.000000e+00
5.604855e-09    1.985097e-08    0.000000e+00
5.840427e-09    1.957925e-08    0.000000e+00
5.796351e-09    2.008558e-08    0.000000e+00
5.869335e-09    2.002711e-08    0.000000e+00
0.000000e+00    0.000000e+00    0.000000e+00
0.000000e+00    0.000000e+00    0.000000e+00
0.000000e+00    0.000000e+00    0.000000e+00
0.000000e+00    0.000000e+00    0.000000e+00
0.000000e+00    0.000000e+00    0.000000e+00
0.000000e+00    0.000000e+00    0.000000e+00
0.000000e+00    0.000000e+00    0.000000e+00
0.000000e+00    0.000000e+00    0.000000e+00
0.000000e+00    0.000000e+00    0.000000e+00
0.000000e+00    0.000000e+00    0.000000e+00
0.000000e+00    0.000000e+00    0.000000e+00
-1.504276e-10    2.850382e-10    0.000000e+00
-3.619062e-10    6.150605e-10    0.000000e+00
-6.116768e-10    9.945220e-10    0.000000e+00
-1.551591e-13    -5.313237e-11    0.000000e+00
-1.536834e-13    -3.281133e-11    0.000000e+00
-8.062827e-14    -1.390499e-11    0.000000e+00
-1.351527e-10    -1.079335e-10    0.000000e+00
-1.289063e-10    -5.651192e-11    0.000000e+00
-7.989276e-11    -1.667003e-11    0.000000e+00
-4.720039e-10    2.055426e-10    0.000000e+00
-3.831828e-10    1.601083e-10    0.000000e+00
-2.254622e-10    8.228930e-11    0.000000e+00
-4.346071e-10    3.972622e-10    0.000000e+00
-5.971780e-10    5.775350e-10    0.000000e+00
-2.267913e-10    1.804572e-10    0.000000e+00
-1.999645e-10    -3.810953e-11    0.000000e+00
-2.887849e-10    2.216156e-11    0.000000e+00
-2.130529e-10    -8.868398e-11    0.000000e+00
-3.204522e-10    -5.106001e-12    0.000000e+00
-1.238947e-10    -5.063857e-12    0.000000e+00
-1.774537e-10    2.422837e-11    0.000000e+00
-4.865949e-11    -8.265476e-11    0.000000e+00
-4.569827e-11    -4.825644e-11    0.000000e+00
-2.772014e-11    -1.833586e-11    0.000000e+00
-7.894192e-11    -5.561136e-11    0.000000e+00
-8.301944e-11    -9.925463e-11    0.000000e+00
-4.848429e-11    -1.935746e-11    0.000000e+00
-1.046897e-11    -3.505867e-11    0.000000e+00
-2.441390e-11    -4.050199e-11    0.000000e+00
-1.152180e-11    -5.705099e-11    0.000000e+00
-2.644302e-11    -6.729978e-11    0.000000e+00
-6.180266e-12    -1.470108e-11    0.000000e+00
-1.459697e-11    -1.633481e-11    0.000000e+00
3.392992e-09    5.138519e-08    0.000000e+00
4.341768e-09    5.340452e-08    0.000000e+00
4.829898e-09    5.026704e-08    0.000000e+00
1.019638e-09    5.084258e-08    0.000000e+00
1.924607e-09    5.289552e-08    0.000000e+00
2.451112e-09    4.964745e-08    0.000000e+00
-1.332904e-09    5.026198e-08    0.000000e+00
-4.498511e-10    5.234407e-08    0.000000e+00
1.291194e-10    4.900383e-08    0.000000e+00
-2.829054e-09    5.173487e-08    0.000000e+00
-2.184449e-09    4.831992e-08    0.000000e+00
-3.397595e-09    5.534431e-08    0.000000e+00
-1.935934e-09    5.384556e-08    0.000000e+00
-3.850833e-09    5.898352e-08    0.000000e+00
-2.443248e-09    5.747082e-08    0.000000e+00
-4.177683e-09    6.262005e-08    0.000000e+00
-2.840746e-09    6.110973e-08    0.000000e+00
-4.365560e-09    6.621548e-08    0.000000e+00
-3.118344e-09    6.472770e-08    0.000000e+00
-4.400674e-09    6.972292e-08    0.000000e+00
-3.265591e-09    6.828273e-08    0.000000e+00
-4.268335e-09    7.308444e-08    0.000000e+00
-3.271720e-09    7.172319e-08    0.000000e+00
-3.953736e-09    7.622845e-08    0.000000e+00
-3.126212e-09    7.498519e-08    0.000000e+00
-3.442473e-09    7.906811e-08    0.000000e+00
-2.819229e-09    7.799065e-08    0.000000e+00
-2.725021e-09    8.149827e-08    0.000000e+00
-2.344417e-09    8.064234e-08    0.000000e+00
-1.798958e-09    8.341839e-08    0.000000e+00
-1.695974e-09    8.283259e-08    0.000000e+00
-7.453440e-10    8.492685e-08    0.000000e+00
-8.866223e-10    8.449101e-08    0.000000e+00
1.001291e-10    8.619339e-08    0.000000e+00
1.680448e-11    8.552481e-08    0.000000e+00
-2.653967e-10    8.522851e-08    0.000000e+00
-8.445837e-12    8.535920e-08    0.000000e+00
1.719559e-12    8.523140e-08    0.000000e+00
3.060665e-10    8.505037e-08    0.000000e+00
8.278457e-10    8.405724e-08    0.000000e+00
2.519356e-10    8.477484e-08    0.000000e+00
1.214838e-09    8.229364e-08    0.000000e+00
4.355773e-10    8.330413e-08    0.000000e+00
1.515611e-09    7.998646e-08    0.000000e+00
5.727203e-10    8.120520e-08    0.000000e+00
1.780060e-09    7.726791e-08    0.000000e+00
7.020541e-10    7.863544e-08    0.000000e+00
2.039481e-09    7.424022e-08    0.000000e+00
8.511406e-10    7.570975e-08    0.000000e+00
2.315959e-09    7.098786e-08    0.000000e+00
1.038435e-09    7.252326e-08    0.000000e+00
2.625372e-09    6.758024e-08    0.000000e+00
1.276771e-09    6.915273e-08    0.000000e+00
2.978401e-09    6.407463e-08    0.000000e+00
1.574334e-09    6.566105e-08    0.000000e+00
3.381207e-09    6.051890e-08    0.000000e+00
1.935491e-09    6.209996e-08    0.000000e+00
3.836045e-09    5.695176e-08    0.000000e+00
2.361384e-09    5.851219e-08    0.000000e+00
2.850238e-09    5.493135e-08    0.000000e+00
-1.127741e-09    7.219184e-08    0.000000e+00
-2.169800e-09    7.028085e-08    0.000000e+00
-2.170736e-09    7.363152e-08    0.000000e+00
3.682243e-11    7.069725e-08    0.000000e+00
-1.063602e-10    7.401158e-08    0.000000e+00
-4.620348e-10    6.164529e-08    0.000000e+00
-1.449251e-09    5.957634e-08    0.000000e+00
-1.802054e-09    6.320150e-08    0.000000e+00
9.415385e-10    6.008378e-08    0.000000e+00
5.601952e-10    6.368171e-08    0.000000e+00
4.500753e-10    5.441528e-08    0.000000e+00
-9.942317e-10    5.594736e-08    0.000000e+00
1.399524e-09    5.647841e-08    0.000000e+00
-4.915157e-11    5.802493e-08    0.000000e+00
-7.823293e-10    6.524266e-08    0.000000e+00
-2.044691e-09    6.678511e-08    0.000000e+00
2.584019e-10    6.723496e-08    0.000000e+00
-1.005353e-09    6.877527e-08    0.000000e+00
-8.905038e-10    8.103257e-08    0.000000e+00
-1.781384e-09    7.959758e-08    0.000000e+00
-1.389343e-09    8.201870e-08    0.000000e+00
-1.816649e-10    7.989928e-08    0.000000e+00
-1.366501e-10    8.227851e-08    0.000000e+00
-1.148030e-09    7.542884e-08    0.000000e+00
-2.042266e-09    7.676672e-08    0.000000e+00
-1.761732e-10    7.710806e-08    0.000000e+00
-1.067386e-09    7.840895e-08    0.000000e+00
-6.247182e-10    8.318658e-08    0.000000e+00
-8.610972e-10    8.391710e-08    0.000000e+00
-6.351053e-11    8.411612e-08    0.000000e+00
-2.895907e-10    8.473311e-08    0.000000e+00
7.227498e-09    2.478242e-08    0.000000e+00
7.605431e-09    2.481721e-08    0.000000e+00
7.702061e-09    2.474492e-08    0.000000e+00
6.656190e-09    2.515550e-08    0.000000e+00
7.142762e-09    2.508013e-08    0.000000e+00
5.898214e-09    2.595422e-08    0.000000e+00
6.584067e-09    2.576362e-08    0.000000e+00
4.963820e-09    2.729345e-08    0.000000e+00
5.852783e-09    2.699556e-08    0.000000e+00
3.982888e-09    2.905992e-08    0.000000e+00
5.028138e-09    2.865251e-08    0.000000e+00
2.988855e-09    3.117038e-08    0.000000e+00
4.157962e-09    3.064943e-08    0.000000e+00
2.006017e-09    3.356627e-08    0.000000e+00
3.273735e-09    3.292708e-08    0.000000e+00
1.053999e-09    3.619799e-08    0.000000e+00
2.397760e-09    3.543819e-08    0.000000e+00
1.481194e-10    3.902326e-08    0.000000e+00
1.548091e-09    3.814253e-08    0.000000e+00
-6.996472e-10    4.200578e-08    0.000000e+00
7.388869e-10    4.100521e-08    0.000000e+00
-1.479850e-09    4.511414e-08    0.000000e+00
-1.861271e-11    4.399627e-08    0.000000e+00
-7.147724e-10    4.708960e-08    0.000000e+00
5.289008e-09    4.754343e-08    0.000000e+00
3.866115e-09    4.854408e-08    0.000000e+00
5.764898e-09    4.487512e-08    0.000000e+00
4.378185e-09    4.575991e-08    0.000000e+00
6.248546e-09    4.227566e-08    0.000000e+00
4.911565e-09    4.304400e-08    0.000000e+00
6.728927e-09    3.976004e-08    0.000000e+00
5.455658e-09    4.041304e-08    0.000000e+00
7.192512e-09    3.734513e-08    0.000000e+00
5.998188e-09    3.788516e-08    0.000000e+00
7.623046e-09    3.505020e-08    0.000000e+00
6.524144e-09    3.548112e-08    0.000000e+00
8.000918e-09    3.289661e-08    0.000000e+00
7.015381e-09    3.322436e-08    0.000000e+00
8.304226e-09    3.091147e-08    0.000000e+00
7.450185e-09    3.114302e-08    0.000000e+00
8.505418e-09    2.911334e-08    0.000000e+00
7.803078e-09    2.926820e-08    0.000000e+00
8.599178e-09    2.756522e-08    0.000000e+00
8.051508e-09    2.764599e-08    0.000000e+00
8.485724e-09    2.610857e-08    0.000000e+00
8.177639e-09    2.622426e-08    0.000000e+00
8.262077e-09    2.527958e-08    0.000000e+00
8.170439e-09    2.496743e-08    0.000000e+00
7.921412e-09    2.503843e-08    0.000000e+00
8.023296e-09    2.540984e-08    0.000000e+00
8.208617e-09    2.507094e-08    0.000000e+00
7.622039e-09    2.506344e-08    0.000000e+00
7.976065e-09    2.492407e-08    0.000000e+00
4.859068e-09    3.415802e-08    0.000000e+00
5.377821e-09    3.600892e-08    0.000000e+00
5.975053e-09    3.364548e-08    0.000000e+00
3.672658e-09    3.475675e-08    0.000000e+00
4.456575e-09    3.236051e-08    0.000000e+00
2.800881e-09    4.201742e-08    0.000000e+00
3.552669e-09    4.391406e-08    0.000000e+00
4.151527e-09    4.116702e-08    0.000000e+00
1.416140e-09    4.296320e-08    0.000000e+00
2.137711e-09    4.008903e-08    0.000000e+00
1.554907e-09    4.782636e-08    0.000000e+00
2.979471e-09    4.674576e-08    0.000000e+00
7.405903e-10    4.594173e-08    0.000000e+00
2.157533e-09    4.487990e-08    0.000000e+00
3.474092e-09    3.925999e-08    0.000000e+00
4.764442e-09    3.852459e-08    0.000000e+00
2.894266e-09    3.734400e-08    0.000000e+00
4.165119e-09    3.663116e-08    0.000000e+00
6.747145e-09    2.801683e-08    0.000000e+00
7.035295e-09    2.950084e-08    0.000000e+00
7.443928e-09    2.779718e-08    0.000000e+00
5.951592e-09    2.830393e-08    0.000000e+00
6.606772e-09    2.674493e-08    0.000000e+00
5.537338e-09    3.187184e-08    0.000000e+00
6.535644e-09    3.146347e-08    0.000000e+00
5.225172e-09    3.019309e-08    0.000000e+00
6.177567e-09    2.980810e-08    0.000000e+00
7.232436e-09    2.653730e-08    0.000000e+00
7.770084e-09    2.638553e-08    0.000000e+00
7.172160e-09    2.563457e-08    0.000000e+00
7.642023e-09    2.551523e-08    0.000000e+00
3.787942e-10    2.193315e-08    0.000000e+00
4.450265e-10    2.192685e-08    0.000000e+00
3.348887e-10    2.186418e-08    0.000000e+00
3.776536e-10    2.199464e-08    0.000000e+00
4.277724e-10    2.201833e-08    0.000000e+00
3.344582e-10    2.190750e-08    0.000000e+00
3.946096e-10    2.204006e-08    0.000000e+00
4.294759e-10    2.209717e-08    0.000000e+00
3.514127e-10    2.193790e-08    0.000000e+00
4.489953e-10    2.215773e-08    0.000000e+00
3.848411e-10    2.195135e-08    0.000000e+00
5.791182e-10    2.237452e-08    0.000000e+00
4.958572e-10    2.222318e-08    0.000000e+00
7.849500e-10    2.261051e-08    0.000000e+00
6.664001e-10    2.242024e-08    0.000000e+00
1.077237e-09    2.286863e-08    0.000000e+00
9.161007e-10    2.263409e-08    0.000000e+00
1.467166e-09    2.315022e-08    0.000000e+00
1.255816e-09    2.286682e-08    0.000000e+00
1.964453e-09    2.345422e-08    0.000000e+00
1.695918e-09    2.311926e-08    0.000000e+00
2.574848e-09    2.377628e-08    0.000000e+00
2.244274e-09    2.339042e-08    0.000000e+00
3.296999e-09    2.410769e-08    0.000000e+00
2.903649e-09    2.367680e-08    0.000000e+00
4.118646e-09    2.443419e-08    0.000000e+00
3.668522e-09    2.397155e-08    0.000000e+00
5.012144e-09    2.473491e-08    0.000000e+00
4.521259e-09    2.426361e-08    0.000000e+00
5.929816e-09    2.498084e-08    0.000000e+00
5.427900e-09    2.453674e-08    0.000000e+00
6.797026e-09    2.513436e-08    0.000000e+00
6.333183e-09    2.476877e-08    0.000000e+00
7.509282e-09    2.513972e-08    0.000000e+00
7.155338e-09    2.492925e-08    0.000000e+00
7.859250e-09    2.495232e-08    0.000000e+00
7.771161e-09    2.498296e-08    0.000000e+00
7.943764e-09    2.489638e-08    0.000000e+00
7.744888e-09    2.425392e-08    0.000000e+00
8.077890e-09    2.482139e-08    0.000000e+00
7.166103e-09    2.376661e-08    0.000000e+00
7.569683e-09    2.430115e-08    0.000000e+00
6.416939e-09    2.335135e-08    0.000000e+00
6.893357e-09    2.388972e-08    0.000000e+00
5.595124e-09    2.303034e-08    0.000000e+00
6.081153e-09    2.353620e-08    0.000000e+00
4.759787e-09    2.278081e-08    0.000000e+00
5.224701e-09    2.324503e-08    0.000000e+00
3.958071e-09    2.259001e-08    0.000000e+00
4.379905e-09    2.300475e-08    0.000000e+00
3.220122e-09    2.244394e-08    0.000000e+00
3.588212e-09    2.280700e-08    0.000000e+00
2.564068e-09    2.233103e-08    0.000000e+00
2.874729e-09    2.264309e-08    0.000000e+00
1.998402e-09    2.224140e-08    0.000000e+00
2.252979e-09    2.250531e-08    0.000000e+00
1.524605e-09    2.216717e-08    0.000000e+00
1.727522e-09    2.238699e-08    0.000000e+00
1.139319e-09    2.210225e-08    0.000000e+00
1.296643e-09    2.228261e-08    0.000000e+00
8.361993e-10    2.204224e-08    0.000000e+00
9.545665e-10    2.218780e-08    0.000000e+00
6.074488e-10    2.198430e-08    0.000000e+00
6.932990e-10    2.209931e-08    0.000000e+00
5.041491e-10    2.201495e-08    0.000000e+00
2.879673e-09    2.315843e-08    0.000000e+00
2.550620e-09    2.329127e-08    0.000000e+00
3.254339e-09    2.354637e-08    0.000000e+00
2.546109e-09    2.281187e-08    0.000000e+00
3.227208e-09    2.299730e-08    0.000000e+00
9.246348e-10    2.241653e-08    0.000000e+00
7.813577e-10    2.243476e-08    0.000000e+00
1.076120e-09    2.262385e-08    0.000000e+00
7.980234e-10    2.224288e-08    0.000000e+00
1.096419e-09    2.236617e-08    0.000000e+00
4.904891e-10    2.212673e-08    0.000000e+00
5.691866e-10    2.226000e-08    0.000000e+00
5.782128e-10    2.212767e-08    0.000000e+00
6.697270e-10    2.226660e-08    0.000000e+00
1.700530e-09    2.275506e-08    0.000000e+00
1.463858e-09    2.282910e-08    0.000000e+00
1.953544e-09    2.305160e-08    0.000000e+00
1.482571e-09    2.250001e-08    0.000000e+00
1.964274e-09    2.264740e-08    0.000000e+00
1.265122e-09    2.257864e-08    0.000000e+00
2.237879e-09    2.294779e-08    0.000000e+00
6.219819e-09    2.417578e-08    0.000000e+00
5.834213e-09    2.434887e-08    0.000000e+00
6.710428e-09    2.459249e-08    0.000000e+00
5.716760e-09    2.371851e-08    0.000000e+00
6.575660e-09    2.402413e-08    0.000000e+00
4.447431e-09    2.363559e-08    0.000000e+00
4.054559e-09    2.381292e-08    0.000000e+00
4.928017e-09    2.408388e-08    0.000000e+00
3.998591e-09    2.320772e-08    0.000000e+00
4.840107e-09    2.344698e-08    0.000000e+00
3.621207e-09    2.338782e-08    0.000000e+00
5.329259e-09    2.389973e-08    0.000000e+00
7.724128e-09    2.473562e-08    0.000000e+00
7.469434e-09    2.479672e-08    0.000000e+00
7.964355e-09    2.492352e-08    0.000000e+00
7.338050e-09    2.436600e-08    0.000000e+00
7.927251e-09    2.473540e-08    0.000000e+00
7.048842e-09    2.445733e-08    0.000000e+00
8.103461e-09    2.494643e-08    0.000000e+00
5.577093e-09    2.037753e-08    0.000000e+00
5.244479e-09    2.070352e-08    0.000000e+00
5.700038e-09    2.025924e-08    0.000000e+00
5.626502e-09    2.023360e-08    0.000000e+00
5.375215e-09    2.041905e-08    0.000000e+00
5.773570e-09    2.018049e-08    0.000000e+00
5.618826e-09    2.009582e-08    0.000000e+00
5.435582e-09    2.020064e-08    0.000000e+00
5.754964e-09    2.013909e-08    0.000000e+00
5.453695e-09    1.996832e-08    0.000000e+00
5.687853e-09    2.007483e-08    0.000000e+00
4.976246e-09    1.992124e-08    0.000000e+00
5.216900e-09    2.008426e-08    0.000000e+00
4.340595e-09    1.996176e-08    0.000000e+00
4.614886e-09    2.013305e-08    0.000000e+00
3.650632e-09    2.007067e-08    0.000000e+00
3.921634e-09    2.023168e-08    0.000000e+00
2.978398e-09    2.022351e-08    0.000000e+00
3.226022e-09    2.036175e-08    0.000000e+00
2.366273e-09    2.040228e-08    0.000000e+00
2.580376e-09    2.051178e-08    0.000000e+00
1.835932e-09    2.059421e-08    0.000000e+00
2.012478e-09    2.067327e-08    0.000000e+00
1.395004e-09    2.079063e-08    0.000000e+00
1.534122e-09    2.084019e-08    0.000000e+00
1.042264e-09    2.098642e-08    0.000000e+00
1.146429e-09    2.100869e-08    0.000000e+00
7.717693e-10    2.117939e-08    0.000000e+00
8.444039e-10    2.117679e-08    0.000000e+00
5.760552e-10    2.136969e-08    0.000000e+00
6.204993e-10    2.134414e-08    0.000000e+00
4.485016e-10    2.155935e-08    0.000000e+00
4.672814e-10    2.151169e-08    0.000000e+00
3.849736e-10    2.175178e-08    0.000000e+00
3.793371e-10    2.168149e-08    0.000000e+00
3.545203e-10    2.185644e-08    0.000000e+00
2.860856e-10    2.179698e-08    0.000000e+00
3.041162e-10    2.184191e-08    0.000000e+00
3.046757e-10    2.173223e-08    0.000000e+00
2.979597e-10    2.175400e-08    0.000000e+00
3.885541e-10    2.167231e-08    0.000000e+00
3.566362e-10    2.167033e-08    0.000000e+00
5.396191e-10    2.161949e-08    0.000000e+00
4.805970e-10    2.159209e-08    0.000000e+00
7.631479e-10    2.157527e-08    0.000000e+00
6.740234e-10    2.152025e-08    0.000000e+00
1.066573e-09    2.153957e-08    0.000000e+00
9.438512e-10    2.145496e-08    0.000000e+00
1.457582e-09    2.150975e-08    0.000000e+00
1.298157e-09    2.139494e-08    0.000000e+00
1.941433e-09    2.147951e-08    0.000000e+00
1.743814e-09    2.133664e-08    0.000000e+00
2.517348e-09    2.143773e-08    0.000000e+00
2.283281e-09    2.127346e-08    0.000000e+00
3.173982e-09    2.136710e-08    0.000000e+00
2.910463e-09    2.119469e-08    0.000000e+00
3.883555e-09    2.124334e-08    0.000000e+00
3.605453e-09    2.108477e-08    0.000000e+00
4.598154e-09    2.103319e-08    0.000000e+00
4.329000e-09    2.092260e-08    0.000000e+00
5.019116e-09    2.068611e-08    0.000000e+00
1.407297e-09    2.112480e-08    0.000000e+00
1.692258e-09    2.091414e-08    0.000000e+00
1.267774e-09    2.105479e-08    0.000000e+00
1.565847e-09    2.121867e-08    0.000000e+00
1.158083e-09    2.130503e-08    0.000000e+00
3.766715e-09    2.065450e-08    0.000000e+00
4.203222e-09    2.038419e-08    0.000000e+00
3.490561e-09    2.050789e-08    0.000000e+00
4.048844e-09    2.079512e-08    0.000000e+00
3.330736e-09    2.092959e-08    0.000000e+00
5.141531e-09    2.037452e-08    0.000000e+00
4.884999e-09    2.027794e-08    0.000000e+00
4.760238e-09    2.062507e-08    0.000000e+00
4.485233e-09    2.051685e-08    0.000000e+00
2.425298e-09    2.089756e-08    0.000000e+00
2.814125e-09    2.063921e-08    0.000000e+00
2.209132e-09    2.077519e-08    0.000000e+00
2.659897e-09    2.103795e-08    0.000000e+00
2.067110e-09    2.113149e-08    0.000000e+00
3.065231e-09    2.077998e-08    0.000000e+00
1.869867e-09    2.101156e-08    0.000000e+00
5.427488e-10    2.147481e-08    0.000000e+00
6.784594e-10    2.133914e-08    0.000000e+00
4.984632e-10    2.148325e-08    0.000000e+00
6.009313e-10    2.148696e-08    0.000000e+00
4.358099e-10    2.158487e-08    0.000000e+00
1.036432e-09    2.123908e-08    0.000000e+00
9.322429e-10    2.119649e-08    0.000000e+00
8.390394e-10    2.139389e-08    0.000000e+00
7.509530e-10    2.135551e-08    0.000000e+00
3.310287e-10    2.172444e-08    0.000000e+00
3.857271e-10    2.162990e-08    0.000000e+00
3.366459e-10    2.178073e-08    0.000000e+00
3.375999e-10    2.168766e-08    0.000000e+00
3.034455e-10    2.179520e-08    0.000000e+00
4.044207e-10    2.159756e-08    0.000000e+00
3.211990e-10    2.185636e-08    0.000000e+00
-4.640007e-12    -7.232825e-11    0.000000e+00
-2.525422e-14    -7.828324e-11    0.000000e+00
-1.218615e-13    -6.255051e-11    0.000000e+00
-1.488155e-11    -8.241567e-11    0.000000e+00
-7.670630e-12    -8.390343e-11    0.000000e+00
-1.081511e-11    -6.721192e-11    0.000000e+00
-2.825638e-11    -1.013544e-10    0.000000e+00
-1.619493e-11    -9.979586e-11    0.000000e+00
-2.447186e-11    -7.980520e-11    0.000000e+00
-4.747148e-11    -1.264085e-10    0.000000e+00
-2.666655e-11    -1.244221e-10    0.000000e+00
-4.433425e-11    -9.893116e-11    0.000000e+00
-7.625653e-11    -1.502635e-10    0.000000e+00
-4.062338e-11    -1.531547e-10    0.000000e+00
-7.458750e-11    -1.203750e-10    0.000000e+00
-1.212006e-10    -1.562705e-10    0.000000e+00
-6.108696e-11    -1.750918e-10    0.000000e+00
-1.210600e-10    -1.335526e-10    0.000000e+00
-1.933776e-10    -1.102706e-10    0.000000e+00
-9.468879e-11    -1.664807e-10    0.000000e+00
-1.917730e-10    -1.167630e-10    0.000000e+00
-3.214531e-10    5.085472e-11    0.000000e+00
-1.592251e-10    -8.269450e-11    0.000000e+00
-3.013243e-10    -2.418769e-11    0.000000e+00
-5.303689e-10    4.343415e-10    0.000000e+00
-2.851539e-10    1.665892e-10    0.000000e+00
-4.626807e-10    2.089463e-10    0.000000e+00
-9.591177e-10    1.189944e-09    0.000000e+00
-5.513111e-10    7.334906e-10    0.000000e+00
-7.180087e-10    7.061498e-10    0.000000e+00
-9.536299e-10    1.973731e-09    0.000000e+00
-2.084248e-09    3.748217e-09    0.000000e+00
-8.463318e-10    1.409421e-09    0.000000e+00
1.022354e-10    2.141332e-09    0.000000e+00
-3.784575e-10    1.209974e-09    0.000000e+00
-5.121952e-10    3.425290e-09    0.000000e+00
1.368752e-09    2.268645e-09    0.000000e+00
6.130259e-10    1.297159e-09    0.000000e+00
8.623758e-10    3.387588e-09    0.000000e+00
1.659602e-09    1.483716e-09    0.000000e+00
2.458477e-09    3.449597e-09    0.000000e+00
9.601418e-10    4.691636e-10    0.000000e+00
9.090854e-10    7.671911e-10    0.000000e+00
5.240465e-10    5.276852e-11    0.000000e+00
5.415390e-10    1.507691e-10    0.000000e+00
2.723342e-10    -1.113678e-10    0.000000e+00
3.050384e-10    -8.791955e-11    0.000000e+00
1.273238e-10    -1.634464e-10    0.000000e+00
1.588496e-10    -1.698529e-10    0.000000e+00
4.702495e-11    -1.644764e-10    0.000000e+00
7.213651e-11    -1.808646e-10    0.000000e+00
6.873357e-12    -1.457855e-10    0.000000e+00
2.420990e-11    -1.626717e-10    0.000000e+00
-8.690838e-12    -1.235342e-10    0.000000e+00
1.308274e-12    -1.365364e-10    0.000000e+00
-1.001420e-11    -1.058423e-10    0.000000e+00
-6.189643e-12    -1.133451e-10    0.000000e+00
-4.088797e-12    -9.633985e-11    0.000000e+00
-5.000929e-12    -9.813204e-11    0.000000e+00
1.883269e-13    -9.296919e-11    0.000000e+00
9.515633e-14    -8.802122e-11    0.000000e+00
-2.243925e-12    -9.219484e-11    0.000000e+00
-2.969236e-12    -8.544432e-11    0.000000e+00
1.571563e-11    -1.918120e-10    0.000000e+00
7.416483e-11    -1.926378e-10    0.000000e+00
2.963326e-11    -1.799331e-10    0.000000e+00
-2.440586e-11    -1.906297e-10    0.000000e+00
-2.100225e-11    -1.765672e-10    0.000000e+00
9.973201e-11    1.083048e-10    0.000000e+00
4.055930e-10    3.406182e-10    0.000000e+00
2.574094e-10    -2.756793e-11    0.000000e+00
-1.733444e-10    3.508787e-10    0.000000e+00
-7.194157e-11    -1.716660e-11    0.000000e+00
9.506794e-11    6.804948e-10    0.000000e+00
7.509630e-11    -1.184926e-10    0.000000e+00
1.475506e-10    -1.611629e-10    0.000000e+00
-3.471462e-11    -1.583387e-10    0.000000e+00
4.177382e-11    -1.893985e-10    0.000000e+00
-6.715682e-12    -1.363585e-10    0.000000e+00
5.900176e-12    -1.521222e-10    0.000000e+00
-3.948429e-12    -1.241551e-10    0.000000e+00
-1.797838e-11    -1.472066e-10    0.000000e+00
-1.382780e-11    -1.182198e-10    0.000000e+00
9.935459e-14    -1.669611e-10    0.000000e+00
-7.428811e-12    -1.104268e-10    0.000000e+00
-5.320474e-12    -1.031815e-10    0.000000e+00
-8.680805e-12    -9.670406e-11    0.000000e+00
-4.528972e-12    -9.376077e-11    0.000000e+00
-2.485336e-09    7.296058e-09    0.000000e+00
-1.499462e-09    5.249086e-09    0.000000e+00
-1.889747e-09    1.085575e-08    0.000000e+00
-1.326862e-09    8.805702e-09    0.000000e+00
-6.487789e-10    1.405055e-08    0.000000e+00
-4.357319e-10    1.217095e-08    0.000000e+00
9.278784e-10    1.657260e-08    0.000000e+00
8.752464e-10    1.502703e-08    0.000000e+00
2.532279e-09    1.835205e-08    0.000000e+00
2.329915e-09    1.719737e-08    0.000000e+00
3.930337e-09    1.944452e-08    0.000000e+00
3.685653e-09    1.867908e-08    0.000000e+00
4.960944e-09    1.998124e-08    0.000000e+00
4.764848e-09    1.955958e-08    0.000000e+00
5.547859e-09    2.013291e-08    0.000000e+00
5.459686e-09    1.998116e-08    0.000000e+00
5.736784e-09    2.010849e-08    0.000000e+00
5.928446e-09    1.968118e-08    0.000000e+00
5.872446e-09    2.000469e-08    0.000000e+00
5.943610e-09    1.886339e-08    0.000000e+00
5.920296e-09    1.944502e-08    0.000000e+00
5.746174e-09    1.771859e-08    0.000000e+00
5.702831e-09    1.860231e-08    0.000000e+00
5.364843e-09    1.616894e-08    0.000000e+00
5.237637e-09    1.737275e-08    0.000000e+00
4.854133e-09    1.417568e-08    0.000000e+00
4.577863e-09    1.567167e-08    0.000000e+00
4.282607e-09    1.176122e-08    0.000000e+00
3.812525e-09    1.346959e-08    0.000000e+00
3.705627e-09    9.013598e-09    0.000000e+00
3.045655e-09    1.080404e-08    0.000000e+00
3.126708e-09    6.121570e-09    0.000000e+00
2.368951e-09    7.808470e-09    0.000000e+00
1.823806e-09    4.764966e-09    0.000000e+00
3.494592e-09    1.644643e-08    0.000000e+00
2.319926e-09    1.578682e-08    0.000000e+00
3.566680e-09    1.764690e-08    0.000000e+00
3.608993e-09    1.501455e-08    0.000000e+00
4.509068e-09    1.693454e-08    0.000000e+00
5.448149e-10    8.268412e-09    0.000000e+00
-5.344124e-10    6.780708e-09    0.000000e+00
4.310233e-11    1.019034e-08    0.000000e+00
1.222432e-09    6.402814e-09    0.000000e+00
1.828621e-09    9.601773e-09    0.000000e+00
1.807302e-10    4.944122e-09    0.000000e+00
1.329110e-09    1.147477e-08    0.000000e+00
1.068851e-09    1.327475e-08    0.000000e+00
2.667182e-09    1.254368e-08    0.000000e+00
2.376887e-09    1.425226e-08    0.000000e+00
5.278870e-09    1.908931e-08    0.000000e+00
4.626275e-09    1.889002e-08    0.000000e+00
5.375012e-09    1.962391e-08    0.000000e+00
5.241500e-09    1.831899e-08    0.000000e+00
5.718210e-09    1.924583e-08    0.000000e+00
4.506347e-09    1.803746e-08    0.000000e+00
5.732831e-09    1.971741e-08    0.000000e+00
5.752654e-09    1.999120e-08    0.000000e+00
5.895905e-09    1.982701e-08    0.000000e+00
5.841987e-09    2.005676e-08    0.000000e+00
0.000000e+00    0.000000e+00    0.000000e+00
-3.695552e-14    -6.221159e-12    0.000000e+00
0.000000e+00    0.000000e+00    0.000000e+00
-3.168273e-12    -6.495767e-12    0.000000e+00
0.000000e+00    0.000000e+00    0.000000e+00
-7.541799e-12    -6.985589e-12    0.000000e+00
0.000000e+00    0.000000e+00    0.000000e+00
-1.446963e-11    -7.417781e-12    0.000000e+00
0.000000e+00    0.000000e+00    0.000000e+00
-2.554690e-11    -7.116047e-12    0.000000e+00
0.000000e+00    0.000000e+00    0.000000e+00
-4.250628e-11    -4.790515e-12    0.000000e+00
0.000000e+00    0.000000e+00    0.000000e+00
-6.648122e-11    1.856305e-12    0.000000e+00
0.000000e+00    0.000000e+00    0.000000e+00
-9.605582e-11    1.632492e-11    0.000000e+00
0.000000e+00    0.000000e+00    0.000000e+00
-1.229632e-10    4.288123e-11    0.000000e+00
0.000000e+00    0.000000e+00    0.000000e+00
-1.278913e-10    8.302503e-11    0.000000e+00
-5.797734e-11    1.358090e-10    0.000000e+00
-2.499402e-10    4.431373e-10    0.000000e+00
-2.042973e-10    2.364714e-10    0.000000e+00
-4.548438e-10    7.843957e-10    0.000000e+00
-4.043567e-10    5.175314e-10    0.000000e+00
-6.894808e-10    8.803171e-10    0.000000e+00
-1.542075e-13    -4.305410e-11    0.000000e+00
-5.526608e-12    -5.425110e-11    0.000000e+00
-1.165983e-13    -2.294457e-11    0.000000e+00
-4.984863e-12    -3.351327e-11    0.000000e+00
-2.926861e-12    -1.423902e-11    0.000000e+00
-1.378450e-10    -8.157585e-11    0.000000e+00
-1.703486e-10    -1.037198e-10    0.000000e+00
-1.063412e-10    -1.055764e-10    0.000000e+00
-1.092082e-10    -3.434260e-11    0.000000e+00
-1.617636e-10    -5.099697e-11    0.000000e+00
-1.014652e-10    -5.754374e-11    0.000000e+00
-1.003056e-10    -1.232662e-11    0.000000e+00
-6.261221e-11    -1.874882e-11    0.000000e+00
-4.352772e-10    1.869807e-10    0.000000e+00
-5.458832e-10    3.831678e-10    0.000000e+00
-3.921944e-10    8.169254e-11    0.000000e+00
-3.116161e-10    1.238453e-10    0.000000e+00
-4.152019e-10    2.623389e-10    0.000000e+00
-3.381849e-10    7.880191e-11    0.000000e+00
-2.368661e-10    1.278928e-10    0.000000e+00
-2.044794e-10    4.997726e-11    0.000000e+00
-5.255237e-10    4.928501e-10    0.000000e+00
-3.326318e-10    2.856258e-10    0.000000e+00
-2.426452e-10    -1.552840e-11    0.000000e+00
-2.145730e-10    -6.219766e-11    0.000000e+00
-1.688464e-10    -1.871125e-11    0.000000e+00
-3.176459e-10    1.180451e-11    0.000000e+00
-2.426022e-10    2.619162e-11    0.000000e+00
-2.626272e-10    -5.814399e-11    0.000000e+00
-1.500639e-10    6.955357e-12    0.000000e+00
-4.911786e-11    -6.539564e-11    0.000000e+00
-6.390090e-11    -9.124247e-11    0.000000e+00
-3.630523e-11    -7.451450e-11    0.000000e+00
-3.833556e-11    -3.224639e-11    0.000000e+00
-6.046086e-11    -5.231029e-11    0.000000e+00
-3.381670e-11    -4.423934e-11    0.000000e+00
-3.689478e-11    -1.914631e-11    0.000000e+00
-2.035456e-11    -1.741079e-11    0.000000e+00
-8.435212e-11    -7.721210e-11    0.000000e+00
-6.657273e-11    -3.592141e-11    0.000000e+00
-1.673738e-11    -3.742943e-11    0.000000e+00
-1.140452e-11    -4.613315e-11    0.000000e+00
-8.663247e-12    -2.440048e-11    0.000000e+00
-2.641212e-11    -5.394010e-11    0.000000e+00
-2.032820e-11    -2.773562e-11    0.000000e+00
-1.828325e-11    -6.142458e-11    0.000000e+00
-9.934226e-12    -1.548609e-11    0.000000e+00

CELL_DATA      259
TENSORS Element_Stress1.000000e+00 double
-1.160695e+03 -5.022922e+02        0
-5.022922e+02 -2.286643e+02        0
       0        0 2.096212e+02

-1.133312e+03 -4.214001e+02        0
-4.214001e+02 -2.167745e+02        0
       0        0 -5.272161e+02

-1.056663e+03 -4.997798e+02        0
-4.997798e+02 -2.454984e+02        0
       0        0 3.967838e+02

-9.176588e+02 -3.796141e+02        0
-3.796141e+02 -2.142745e+02        0
       0        0 -2.278045e+02

-1.263275e+03 -4.667542e+02        0
-4.667542e+02 -1.723785e+02        0
       0        0 9.853246e+02

-1.272668e+03 -4.987691e+02        0
-4.987691e+02 -1.957015e+02        0
       0        0 1.065270e+03

-1.342472e+03 -4.547334e+02        0
-4.547334e+02 -2.166291e+02        0
       0        0 -8.321573e+02

-1.262967e+03 -5.051070e+02        0
-5.051070e+02 -2.131662e+02        0
       0        0 2.072193e+01

-1.258788e+03 -4.389029e+02        0
-4.389029e+02 -1.526245e+02        0
       0        0 9.029938e+02

-2.418332e+03 -7.666970e+02        0
-7.666970e+02 -3.387263e+02        0
       0        0 -2.191512e+03

1.048245e+03 -3.532845e+02        0
-3.532845e+02 -5.711307e+01        0
       0        0 1.416271e+03

-2.481071e+03 -7.627897e+02        0
-7.627897e+02 -1.438075e+03        0
       0        0 -2.253302e+03

1.676609e+03 -2.785973e+02        0
-2.785973e+02 -2.273968e+02        0
       0        0 1.746903e+03

-5.667029e+03 -5.840858e+02        0
-5.840858e+02 -6.771430e+02        0
       0        0 -5.767879e+03

-7.138143e+03 -1.673446e+03        0
-1.673446e+03 -3.762542e+03        0
       0        0 -6.767530e+03

4.555895e+02 -3.076946e+02        0
-3.076946e+02 -3.427532e+01        0
       0        0 1.076240e+03

-2.278087e+03 -6.998421e+02        0
-6.998421e+02 -1.710227e+02        0
       0        0 -2.093961e+03

-4.926686e+03 -5.725302e+02        0
-5.725302e+02 -3.527964e+02        0
       0        0 -5.177030e+03

-2.086131e+03 -6.258005e+02        0
-6.258005e+02 -1.447749e+02        0
       0        0 -1.767082e+03

-3.816545e+02 -2.722271e+02        0
-2.722271e+02 -4.669123e+01        0
       0        0 6.620858e+02

-2.175280e+03 -6.575230e+02        0
-6.575230e+02 -1.469736e+02        0
       0        0 -1.946565e+03

-1.489508e+01 -2.778883e+02        0
-2.778883e+02 -3.840275e+01        0
       0        0 8.266969e+02

-3.815181e+03 -5.990916e+02        0
-5.990916e+02 -2.321342e+02        0
       0        0 -4.128481e+03

-4.329152e+03 -5.918496e+02        0
-5.918496e+02 -2.688412e+02        0
       0        0 -4.642342e+03

-6.648875e+02 -2.799190e+02        0
-2.799190e+02 -5.589705e+01        0
       0        0 5.657818e+02

-1.995065e+03 -5.996007e+02        0
-5.996007e+02 -1.483140e+02        0
       0        0 -1.564769e+03

-3.367860e+03 -5.971607e+02        0
-5.971607e+02 -2.162038e+02        0
       0        0 -3.637611e+03

-1.800538e+03 -5.588098e+02        0
-5.588098e+02 -1.613664e+02        0
       0        0 -1.119683e+03

-1.029611e+03 -3.155248e+02        0
-3.155248e+02 -7.705764e+01        0
       0        0 5.280479e+02

-1.899863e+03 -5.775223e+02        0
-5.775223e+02 -1.543503e+02        0
       0        0 -1.347173e+03

-8.770980e+02 -2.954565e+02        0
-2.954565e+02 -6.604904e+01        0
       0        0 5.246790e+02

-2.632203e+03 -5.743701e+02        0
-5.743701e+02 -2.065423e+02        0
       0        0 -2.725978e+03

-2.976601e+03 -5.883020e+02        0
-5.883020e+02 -2.090587e+02        0
       0        0 -3.170078e+03

-1.133137e+03 -3.380010e+02        0
-3.380010e+02 -8.901969e+01        0
       0        0 5.666101e+02

-1.697452e+03 -5.430747e+02        0
-5.430747e+02 -1.689627e+02        0
       0        0 -8.865107e+02

-2.326351e+03 -5.567015e+02        0
-5.567015e+02 -2.063497e+02        0
       0        0 -2.304516e+03

-1.481758e+03 -5.193647e+02        0
-5.193647e+02 -1.865177e+02        0
       0        0 -4.157738e+02

-1.234157e+03 -3.861816e+02        0
-3.861816e+02 -1.166882e+02        0
       0        0 7.171148e+02

-1.591006e+03 -5.300078e+02        0
-5.300078e+02 -1.772338e+02        0
       0        0 -6.509470e+02

-1.198022e+03 -3.616912e+02        0
-3.616912e+02 -1.021209e+02        0
       0        0 6.321298e+02

-1.798357e+03 -5.124255e+02        0
-5.124255e+02 -2.088622e+02        0
       0        0 -1.523329e+03

-2.051021e+03 -5.360259e+02        0
-5.360259e+02 -2.073364e+02        0
       0        0 -1.904264e+03

-1.251177e+03 -4.120012e+02        0
-4.120012e+02 -1.332708e+02        0
       0        0 8.136393e+02

-1.370188e+03 -5.107834e+02        0
-5.107834e+02 -1.979860e+02        0
       0        0 -1.853105e+02

-1.561025e+03 -4.852276e+02        0
-4.852276e+02 -2.103164e+02        0
       0        0 -1.160403e+03

-1.290492e+03 -5.365224e+02        0
-5.365224e+02 -2.235552e+02        0
       0        0 1.137202e+03

-9.513196e+02 -4.970223e+02        0
-4.970223e+02 -2.647550e+02        0
       0        0 5.766008e+02

-6.923715e+02 -3.276410e+02        0
-3.276410e+02 -2.082688e+02        0
       0        0 6.512289e+01

-1.362887e+03 -6.353574e+02        0
-6.353574e+02 -2.974808e+02        0
       0        0 1.241739e+03

-1.319650e+03 -5.815327e+02        0
-5.815327e+02 -2.570787e+02        0
       0        0 1.197326e+03

-2.017376e+02 -1.846247e+02        0
-1.846247e+02 -1.798966e+02        0
       0        0 6.325738e+02

-7.382640e+02 -4.896530e+02        0
-4.896530e+02 -3.111910e+02        0
       0        0 9.055447e+02

-4.544984e+02 -2.633928e+02        0
-2.633928e+02 -1.973024e+02        0
       0        0 3.519806e+02

-8.450736e+02 -4.937354e+02        0
-4.937354e+02 -2.866250e+02        0
       0        0 7.469373e+02

-1.422431e+03 -6.999599e+02        0
-6.999599e+02 -3.462099e+02        0
       0        0 1.266332e+03

-6.316268e+02 -4.845287e+02        0
-4.845287e+02 -3.382137e+02        0
       0        0 1.049711e+03

6.823057e+01 -8.944827e+01        0
-8.944827e+01 -1.534966e+02        0
       0        0 9.064420e+02

-1.597091e+03 -8.673865e+02        0
-8.673865e+02 -4.732399e+02        0
       0        0 1.238931e+03

-1.501208e+03 -7.753772e+02        0
-7.753772e+02 -4.031088e+02        0
       0        0 1.266894e+03

6.694403e+02 1.601733e+02        0
1.601733e+02 -6.748172e+01        0
       0        0 1.427492e+03

-4.304910e+02 -4.720919e+02        0
-4.720919e+02 -3.997870e+02        0
       0        0 1.278028e+03

3.576852e+02 2.415395e+01        0
2.415395e+01 -1.184744e+02        0
       0        0 1.171560e+03

-5.260919e+02 -4.795505e+02        0
-4.795505e+02 -3.672156e+02        0
       0        0 1.176219e+03

-1.722793e+03 -9.551132e+02        0
-9.551132e+02 -5.447448e+02        0
       0        0 1.178606e+03

-3.467803e+02 -4.553081e+02        0
-4.553081e+02 -4.879310e+02        0
       0        0 1.335921e+03

9.294720e+02 3.420475e+02        0
3.420475e+02 -6.578661e+00        0
       0        0 1.645303e+03

-1.873899e+03 -1.035775e+03        0
-1.035775e+03 -1.900330e+03        0
       0        0 6.612667e+02

-1.862757e+03 -1.130756e+03        0
-1.130756e+03 -8.651899e+02        0
       0        0 1.016152e+03

2.135212e+02 6.351992e+02        0
6.351992e+02 5.580257e+02        0
       0        0 1.746226e+03

-5.782930e+02 2.316743e+02        0
2.316743e+02 -4.761586e+02        0
       0        0 1.330383e+03

7.682827e+02 5.873996e+02        0
5.873996e+02 1.401995e+02        0
       0        0 1.727823e+03

-3.174102e+02 -1.690015e+02        0
-1.690015e+02 -6.331872e+02        0
       0        0 1.340216e+03

2.632019e+01 -4.511092e+01        0
-4.511092e+01 -1.297078e+03        0
       0        0 1.183318e+03

2.155503e+01 -1.661203e+02        0
-1.661203e+02 3.959514e+01        0
       0        0 1.385977e+03

2.909212e+01 -2.634021e+02        0
-2.634021e+02 4.971869e+02        0
       0        0 1.666944e+03

2.627781e+01 -9.050147e+01        0
-9.050147e+01 -5.536494e+02        0
       0        0 8.744050e+02

1.849641e+01 -2.824199e+01        0
-2.824199e+01 -4.599949e+02        0
       0        0 9.182623e+02

3.800115e+01 -1.539124e+02        0
-1.539124e+02 -5.606185e+02        0
       0        0 1.058396e+03

2.290580e+01 -3.983760e+01        0
-3.983760e+01 -6.610514e+02        0
       0        0 1.040640e+03

5.541790e+00 -2.700623e+01        0
-2.700623e+01 -5.519012e+02        0
       0        0 8.523305e+02

1.321143e+01 -8.870415e+01        0
-8.870415e+01 -3.054967e+02        0
       0        0 1.109170e+03

9.755808e+00 2.058472e+00        0
2.058472e+00 -5.459054e+02        0
       0        0 5.310839e+02

9.591264e+00 -2.207462e+00        0
-2.207462e+00 -2.411729e+02        0
       0        0 6.430988e+02

1.727140e+01 -3.878180e+01        0
-3.878180e+01 -5.490010e+02        0
       0        0 6.959710e+02

1.378484e+01 -1.495655e+01        0
-1.495655e+01 -3.238804e+02        0
       0        0 7.820681e+02

-3.956336e+00 5.255260e+01        0
5.255260e+01 -8.211066e+02        0
       0        0 4.288854e+02

4.742956e-02 1.908899e+01        0
1.908899e+01 -7.186225e+02        0
       0        0 6.241249e+02

-6.945945e-01 5.474707e+01        0
5.474707e+01 -5.440043e+02        0
       0        0 2.589991e+02

2.694292e+00 1.981243e+01        0
1.981243e+01 -1.891584e+02        0
       0        0 3.863609e+02

3.809359e+00 3.283618e+01        0
3.283618e+01 -5.442947e+02        0
       0        0 3.846451e+02

5.853099e+00 9.556213e+00        0
9.556213e+00 -1.998081e+02        0
       0        0 5.093838e+02

-8.434526e+00 8.920829e+01        0
8.920829e+01 -8.919466e+02        0
       0        0 1.384682e+02

-6.723595e+00 7.523898e+01        0
7.523898e+01 -8.744297e+02        0
       0        0 2.674820e+02

-5.947979e+00 7.714479e+01        0
7.714479e+01 -5.466362e+02        0
       0        0 7.082024e+01

-1.832497e+00 3.486584e+01        0
3.486584e+01 -2.239787e+02        0
       0        0 1.842939e+02

-3.891266e+00 6.907856e+01        0
6.907856e+01 -5.448491e+02        0
       0        0 1.546455e+02

1.334861e-01 2.829414e+01        0
2.829414e+01 -1.998614e+02        0
       0        0 2.774010e+02

-9.552436e+00 9.852330e+01        0
9.852330e+01 -8.642440e+02        0
       0        0 -3.528892e+01

-9.314002e+00 9.638512e+01        0
9.638512e+01 -8.853068e+02        0
       0        0 3.882001e+01

-7.331969e+00 7.942767e+01        0
7.942767e+01 -5.522330e+02        0
       0        0 -4.165250e+01

-4.111668e+00 4.228736e+01        0
4.228736e+01 -2.875716e+02        0
       0        0 4.749396e+01

-7.037717e+00 8.020666e+01        0
8.020666e+01 -5.491761e+02        0
       0        0 6.002210e+00

-3.232082e+00 3.950953e+01        0
3.950953e+01 -2.549660e+02        0
       0        0 1.076890e+02

-8.776408e+00 9.358257e+01        0
9.358257e+01 -8.084731e+02        0
       0        0 -1.229576e+02

-9.321003e+00 9.715530e+01        0
9.715530e+01 -8.366117e+02        0
       0        0 -8.792610e+01

-4.509320e+00 4.326455e+01        0
4.326455e+01 -3.173312e+02        0
       0        0 3.323956e+00

-6.994991e+00 7.578609e+01        0
7.578609e+01 -5.547024e+02        0
       0        0 -7.373129e+01

-8.034908e+00 8.886495e+01        0
8.886495e+01 -7.838555e+02        0
       0        0 -1.435934e+02

6.065337e+01 -3.161503e+02        0
-3.161503e+02 -6.061849e+02        0
       0        0 1.379378e+03

2.960738e+01 -5.160546e+01        0
-5.160546e+01 -9.431029e+02        0
       0        0 1.134427e+03

4.989428e+01 -2.265985e+02        0
-2.265985e+02 -5.699560e+02        0
       0        0 1.234950e+03

-1.649106e+02 2.758466e+02        0
2.758466e+02 9.743865e+02        0
       0        0 1.815223e+03

-1.000896e+02 -1.955673e+02        0
-1.955673e+02 9.282545e+02        0
       0        0 1.834372e+03

-7.998013e+02 -5.410577e+02        0
-5.410577e+02 -2.423170e+03        0
       0        0 7.903868e+02

-7.277146e+02 -8.429940e+01        0
-8.429940e+01 -2.369116e+02        0
       0        0 1.385908e+03

-2.798013e+01 -1.032437e+02        0
-1.032437e+02 -1.839342e+03        0
       0        0 1.124731e+03

-1.690107e+02 -3.707212e+02        0
-3.707212e+02 -5.246891e+02        0
       0        0 1.441556e+03

-7.114227e+01 6.671762e+01        0
6.671762e+01 1.091707e+02        0
       0        0 1.267832e+03

-1.855711e+02 3.184251e+02        0
3.184251e+02 -5.339873e+02        0
       0        0 1.077485e+03

-1.480171e+02 3.908705e+02        0
3.908705e+02 -1.300209e+03        0
       0        0 8.842384e+02

-4.725234e+01 1.247311e+02        0
1.247311e+02 -1.530204e+02        0
       0        0 1.068029e+03

-8.935753e+01 2.820301e+02        0
2.820301e+02 -5.722350e+02        0
       0        0 9.458429e+02

-5.053678e+01 2.339526e+02        0
2.339526e+02 -9.737837e+02        0
       0        0 8.447182e+02

-3.030504e+01 1.317101e+02        0
1.317101e+02 -4.143171e+02        0
       0        0 8.384671e+02

-4.134315e+01 2.212171e+02        0
2.212171e+02 -5.802670e+02        0
       0        0 7.865592e+02

-1.798299e+01 1.541524e+02        0
1.541524e+02 -6.972648e+02        0
       0        0 7.559174e+02

-1.672319e+01 1.076388e+02        0
1.076388e+02 -7.319336e+02        0
       0        0 4.275394e+02

-2.238972e+01 1.202683e+02        0
1.202683e+02 -6.104558e+02        0
       0        0 6.182750e+02

-4.759654e+00 7.111689e+01        0
7.111689e+01 -4.102662e+02        0
       0        0 5.018368e+02

-1.507690e+01 1.185480e+02        0
1.185480e+02 -5.806293e+02        0
       0        0 4.598068e+02

-9.703220e+00 1.051572e+02        0
1.051572e+02 -5.179602e+02        0
       0        0 6.330399e+02

-2.484596e+01 1.631876e+02        0
1.631876e+02 -5.804324e+02        0
       0        0 6.183722e+02

-9.278063e+00 8.691370e+01        0
8.691370e+01 -8.218701e+02        0
       0        0 1.438120e+02

-1.242247e+01 9.630889e+01        0
9.630889e+01 -7.967242e+02        0
       0        0 2.697242e+02

-5.237340e-01 3.602643e+01        0
3.602643e+01 -3.341905e+02        0
       0        0 2.613414e+02

-4.073535e+00 6.521683e+01        0
6.521683e+01 -5.800633e+02        0
       0        0 2.007665e+02

-1.903328e+00 4.891697e+01        0
4.891697e+01 -3.545253e+02        0
       0        0 3.753434e+02

-8.314096e+00 8.650953e+01        0
8.650953e+01 -5.806892e+02        0
       0        0 3.194406e+02

-7.161692e+00 7.982873e+01        0
7.982873e+01 -8.216010e+02        0
       0        0 4.658699e+01

-1.811379e+00 5.272868e+01        0
5.272868e+01 -5.787070e+02        0
       0        0 1.043300e+02

-2.256262e-01 2.999228e+01        0
2.999228e+01 -3.353635e+02        0
       0        0 1.640609e+02

-5.347067e+00 7.298899e+01        0
7.298899e+01 -7.882987e+02        0
       0        0 -7.890971e+01

-5.905813e+00 7.519525e+01        0
7.519525e+01 -8.074265e+02        0
       0        0 -2.619039e+01

-1.441084e+00 3.039651e+01        0
3.039651e+01 -3.607099e+02        0
       0        0 2.565884e+01

-1.299681e+00 4.685455e+01        0
4.685455e+01 -5.738473e+02        0
       0        0 -2.718367e+01

-6.316289e-01 2.870407e+01        0
2.870407e+01 -3.470121e+02        0
       0        0 8.535367e+01

-1.033585e+00 4.717578e+01        0
4.717578e+01 -5.766181e+02        0
       0        0 2.898675e+01

-5.721920e+00 7.512929e+01        0
7.512929e+01 -7.597375e+02        0
       0        0 -1.389481e+02

-5.332311e+00 7.305463e+01        0
7.305463e+01 -7.708652e+02        0
       0        0 -1.154873e+02

-3.346556e+00 3.732286e+01        0
3.732286e+01 -3.719251e+02        0
       0        0 -3.769790e+01

-3.534929e+00 5.603939e+01        0
5.603939e+01 -5.665977e+02        0
       0        0 -8.966785e+01

-2.411284e+00 3.364505e+01        0
3.364505e+01 -3.703626e+02        0
       0        0 -1.524544e+01

-2.238058e+00 5.025395e+01        0
5.025395e+01 -5.704730e+02        0
       0        0 -6.619383e+01

-7.204499e+00 8.369154e+01        0
8.369154e+01 -7.659853e+02        0
       0        0 -1.527117e+02

-6.389146e+00 7.884007e+01        0
7.884007e+01 -7.577231e+02        0
       0        0 -1.511643e+02

-4.501245e+00 4.265743e+01        0
4.265743e+01 -3.436278e+02        0
       0        0 -2.725128e+01

-6.151853e+00 7.001556e+01        0
7.001556e+01 -5.578826e+02        0
       0        0 -9.285042e+01

-4.092564e+00 4.055194e+01        0
4.055194e+01 -3.631858e+02        0
       0        0 -4.180452e+01

-4.920973e+00 6.300476e+01        0
6.300476e+01 -5.623487e+02        0
       0        0 -9.853228e+01

1.796914e+03 -3.427687e+02        0
-3.427687e+02 1.347738e+01        0
       0        0 8.900342e+02

2.287367e+03 -1.112664e+02        0
-1.112664e+02 -1.030690e+02        0
       0        0 1.156777e+03

-1.263972e+03 6.333858e+01        0
6.333858e+01 -4.414071e+01        0
       0        0 -5.840323e+02

-2.644591e-01 -4.716098e+02        0
-4.716098e+02 5.966086e+01        0
       0        0 6.997152e+01

-2.678741e+03 5.702236e+02        0
5.702236e+02 -1.447885e+03        0
       0        0 -1.554817e+03

-3.037106e+02 -3.347465e+01        0
-3.347465e+01 -6.608624e+02        0
       0        0 -2.436405e+02

1.164925e+03 -2.524805e+02        0
-2.524805e+02 3.644785e+01        0
       0        0 5.877208e+02

1.827957e+02 -4.194506e+02        0
-4.194506e+02 1.579822e+02        0
       0        0 1.525649e+02

-5.600832e+02 -1.843878e+02        0
-1.843878e+02 1.878123e+02        0
       0        0 -2.287188e+02

4.276265e+02 -1.071056e+02        0
-1.071056e+02 1.646545e+01        0
       0        0 2.154198e+02

7.207115e+02 -1.632075e+02        0
-1.632075e+02 2.455671e+01        0
       0        0 3.658999e+02

-1.133956e+02 -2.093504e+02        0
-2.093504e+02 1.614982e+02        0
       0        0 -4.295067e+01

1.568812e+02 -2.261628e+02        0
-2.261628e+02 8.747897e+01        0
       0        0 9.371277e+01

-2.500583e+02 -2.345947e+02        0
-2.345947e+02 1.906083e+02        0
       0        0 -9.557885e+01

2.071223e+02 -3.151975e+02        0
-3.151975e+02 1.200827e+02        0
       0        0 1.351781e+02

1.102440e+02 -4.503972e+01        0
-4.503972e+01 8.563451e+00        0
       0        0 4.686856e+01

2.350420e+02 -7.024560e+01        0
-7.024560e+01 1.150739e+01        0
       0        0 1.140253e+02

-3.435136e+01 -1.127696e+02        0
-1.127696e+02 1.075317e+02        0
       0        0 -1.771443e+01

4.845331e+01 -1.040785e+02        0
-1.040785e+02 5.046202e+01        0
       0        0 2.400357e+01

-5.774072e+01 -1.614390e+02        0
-1.614390e+02 1.329977e+02        0
       0        0 -2.370859e+01

9.751322e+01 -1.570969e+02        0
-1.570969e+02 6.555262e+01        0
       0        0 5.454404e+01

3.297100e+01 -2.718392e+01        0
-2.718392e+01 6.517926e+00        0
       0        0 4.257253e+00

1.412066e+01 -6.427600e+01        0
-6.427600e+01 3.938084e+01        0
       0        0 2.588905e+00

-2.453048e+01 -7.167537e+01        0
-7.167537e+01 8.638219e+01        0
       0        0 -1.695818e+01

-3.107012e+01 -4.380936e+00        0
-4.380936e+00 4.568256e+00        0
       0        0 -3.151179e+01

-1.086862e+01 -1.435121e+01        0
-1.435121e+01 5.196907e+00        0
       0        0 -2.049300e+01

-1.872180e+01 -1.230979e+01        0
-1.230979e+01 6.395323e+01        0
       0        0 -1.845394e+01

-1.667864e+01 -1.082279e+01        0
-1.082279e+01 2.835487e+01        0
       0        0 -1.678077e+01

-2.037605e+01 -3.897185e+01        0
-3.897185e+01 7.137689e+01        0
       0        0 -1.773454e+01

-6.729499e+00 -3.443509e+01        0
-3.443509e+01 3.196062e+01        0
       0        0 -1.066143e+01

-1.951842e+03 8.867420e+02        0
8.867420e+02 -2.170338e+02        0
       0        0 -1.179573e+03

-3.828597e+03 1.422776e+03        0
1.422776e+03 -8.838978e+02        0
       0        0 -1.918179e+03

2.218832e+02 6.331142e+02        0
6.331142e+02 -2.158622e+02        0
       0        0 7.884757e+02

-7.638181e+02 1.193674e+03        0
1.193674e+03 -3.269034e+02        0
       0        0 -1.992886e+02

1.656625e+03 4.022366e+02        0
4.022366e+02 -1.412204e+02        0
       0        0 1.106413e+03

-7.575308e+02 1.181742e+03        0
1.181742e+03 -7.266649e+02        0
       0        0 -3.808632e+02

-7.239790e+02 5.885347e+02        0
5.885347e+02 -3.020498e+02        0
       0        0 -6.088723e+02

-6.007093e+02 9.544276e+02        0
9.544276e+02 -5.442032e+02        0
       0        0 -2.858281e+01

-9.191977e+02 7.824128e+02        0
7.824128e+02 -4.456887e+02        0
       0        0 5.275201e+02

2.781406e+02 -7.890776e+01        0
-7.890776e+01 -7.788132e+01        0
       0        0 5.254952e+02

-2.676650e+01 2.357892e+02        0
2.357892e+02 -2.386635e+02        0
       0        0 -1.357792e+01

-1.661296e+03 1.217103e+03        0
1.217103e+03 -1.024898e+03        0
       0        0 4.686426e+02

-5.125192e+02 5.418693e+02        0
5.418693e+02 -6.647458e+02        0
       0        0 5.181874e+02

-1.506151e+03 1.016049e+03        0
1.016049e+03 -7.205556e+02        0
       0        0 4.387133e+02

-5.273824e+02 7.184127e+02        0
7.184127e+02 -6.563223e+02        0
       0        0 2.293935e+02

2.344532e+02 -3.349978e+02        0
-3.349978e+02 3.080799e+02        0
       0        0 1.265773e+03

3.238946e+02 -2.727280e+02        0
-2.727280e+02 1.280273e+02        0
       0        0 9.606837e+02

-1.227623e+03 1.264083e+03        0
1.264083e+03 -1.541376e+03        0
       0        0 6.781989e+02

-4.908291e+02 3.708055e+02        0
3.708055e+02 -5.696435e+02        0
       0        0 9.947482e+02

-1.523173e+03 1.306580e+03        0
1.306580e+03 -1.314081e+03        0
       0        0 5.639386e+02

-5.086580e+02 4.297030e+02        0
4.297030e+02 -6.228239e+02        0
       0        0 7.852899e+02

1.049742e+02 -2.881948e+02        0
-2.881948e+02 4.122692e+02        0
       0        0 1.435565e+03

-4.477669e+02 3.466153e+02        0
3.466153e+02 -5.292854e+02        0
       0        0 1.127966e+03

-8.855014e+02 1.108326e+03        0
1.108326e+03 -1.668414e+03        0
       0        0 7.792080e+02

-6.339550e+01 -4.328057e+01        0
-4.328057e+01 3.121270e+02        0
       0        0 1.415237e+03

-4.262958e+00 -1.751328e+02        0
-1.751328e+02 4.142960e+02        0
       0        0 1.479199e+03

-3.292984e+02 6.257065e+02        0
6.257065e+02 -1.554810e+03        0
       0        0 8.807589e+02

-2.903315e+02 3.278718e+02        0
3.278718e+02 -5.038803e+02        0
       0        0 1.161814e+03

-5.719451e+02 8.805226e+02        0
8.805226e+02 -1.676151e+03        0
       0        0 8.483496e+02

-3.791751e+02 3.379446e+02        0
3.379446e+02 -5.106669e+02        0
       0        0 1.180823e+03

-8.231969e+02 7.504656e+02        0
7.504656e+02 -7.512382e+02        0
       0        0 -7.200949e+02

-1.401090e+03 6.768861e+02        0
6.768861e+02 -4.690748e+02        0
       0        0 -8.460070e+02

-6.344282e+02 1.092806e+03        0
1.092806e+03 -1.974128e+03        0
       0        0 -1.023555e+03

-1.988155e+03 1.765006e+03        0
1.765006e+03 -2.326696e+03        0
       0        0 -1.653238e+03

-4.421989e+02 5.792738e+02        0
5.792738e+02 -9.477204e+02        0
       0        0 -4.843601e+02

-5.561719e+02 6.609485e+02        0
6.609485e+02 -9.262890e+02        0
       0        0 -6.165143e+02

-3.755918e+02 5.555551e+02        0
5.555551e+02 -1.541560e+03        0
       0        0 -6.229999e+02

-3.639971e+02 7.559483e+02        0
7.559483e+02 -1.675234e+03        0
       0        0 -7.531282e+02

-3.402876e+02 2.967122e+01        0
2.967122e+01 1.609980e+02        0
       0        0 -1.894320e+02

-2.916656e+02 -1.022015e+02        0
-1.022015e+02 1.869664e+02        0
       0        0 -1.482364e+02

-5.162639e+02 1.328088e+02        0
1.328088e+02 6.349211e+01        0
       0        0 -3.101736e+02

-4.935168e+02 -3.899215e+01        0
-3.899215e+01 1.577291e+02        0
       0        0 -2.562586e+02

-7.249958e+02 3.667090e+02        0
3.667090e+02 -1.972694e+02        0
       0        0 -4.927421e+02

-8.259419e+02 1.681043e+02        0
1.681043e+02 2.418977e+01        0
       0        0 -4.501950e+02

-1.242602e+02 2.268465e+02        0
2.268465e+02 1.361139e+01        0
       0        0 -7.698658e+01

-2.803752e+02 1.457312e+02        0
1.457312e+02 9.988360e+01        0
       0        0 -1.640509e+02

-2.226407e+02 3.447157e+02        0
3.447157e+02 -1.462083e+02        0
       0        0 -1.662516e+02

-4.185608e+02 2.553295e+02        0
2.553295e+02 -4.351610e+01        0
       0        0 -2.774186e+02

-3.420149e+02 4.804550e+02        0
4.804550e+02 -4.509165e+02        0
       0        0 -3.035284e+02

-5.466899e+02 4.315588e+02        0
4.315588e+02 -3.644024e+02        0
       0        0 -4.377611e+02

-1.211938e+02 -1.798769e+01        0
-1.798769e+01 1.676303e+02        0
       0        0 -6.603444e+01

-9.981380e+01 -7.732722e+01        0
-7.732722e+01 1.519533e+02        0
       0        0 -5.407055e+01

-2.094001e+02 -8.711819e+00        0
-8.711819e+00 1.811923e+02        0
       0        0 -1.124382e+02

-1.719123e+02 -9.985947e+01        0
-9.985947e+01 1.764260e+02        0
       0        0 -8.788777e+01

-1.621309e+01 8.170107e+01        0
8.170107e+01 1.073049e+02        0
       0        0 2.254886e+00

-9.208098e+01 4.190923e+01        0
4.190923e+01 1.512228e+02        0
       0        0 -4.660821e+01

-5.698975e+01 1.399802e+02        0
1.399802e+02 8.435595e+01        0
       0        0 -2.506307e+01

-1.688701e+02 7.959443e+01        0
7.959443e+01 1.482899e+02        0
       0        0 -9.049861e+01

-2.008217e+01 -3.325585e+00        0
-3.325585e+00 1.137852e+02        0
       0        0 -1.952587e+01

-2.327414e+01 -9.142132e+00        0
-9.142132e+00 9.585946e+01        0
       0        0 -2.277907e+01

-3.476546e+01 -1.007296e+01        0
-1.007296e+01 1.246816e+02        0
       0        0 -2.546226e+01

-3.407665e+01 -2.879842e+01        0
-2.879842e+01 1.061590e+02        0
       0        0 -2.651766e+01

-6.607635e+01 -1.592899e+01        0
-1.592899e+01 1.446454e+02        0
       0        0 -3.951818e+01

-5.745507e+01 -5.164114e+01        0
-5.164114e+01 1.261176e+02        0
       0        0 -3.580046e+01

2.246424e+01 6.429777e+00        0
6.429777e+00 9.921518e+01        0
       0        0 2.270801e+01

-4.436642e+00 2.677151e+00        0
2.677151e+00 1.141732e+02        0
       0        0 -3.942413e+00

1.768076e+01 2.167591e+01        0
2.167591e+01 1.034921e+02        0
       0        0 2.079083e+01

-1.700856e+01 9.354974e+00        0
9.354974e+00 1.229709e+02        0
       0        0 -9.283033e+00

6.382661e+00 4.468697e+01        0
4.468697e+01 1.087687e+02        0
       0        0 1.529559e+01

-4.402134e+01 2.084958e+01        0
2.084958e+01 1.377717e+02        0
       0        0 -2.199089e+01

POINT_DATA     938
VECTORS DISPLACEMENT_1.200000e+00 double
5.084433e-09    4.255616e-08    0.000000e+00
5.527658e-09    4.012834e-08    0.000000e+00
4.652702e-09    4.504099e-08    0.000000e+00
-1.705267e-09    4.302649e-08    0.000000e+00
-1.020436e-09    4.011440e-08    0.000000e+00
-2.695136e-10    3.730517e-08    0.000000e+00
5.396051e-10    3.462599e-08    0.000000e+00
1.397230e-09    3.210780e-08    0.000000e+00
2.290776e-09    2.978665e-08    0.000000e+00
3.204489e-09    2.770498e-08    0.000000e+00
4.117705e-09    2.591150e-08    0.000000e+00
5.005413e-09    2.446903e-08    0.000000e+00
5.810183e-09    2.347507e-08    0.000000e+00
6.372997e-09    2.295154e-08    0.000000e+00
6.871613e-09    2.274930e-08    0.000000e+00
-2.562542e-11    7.810005e-08    0.000000e+00
-5.113233e-10    7.793442e-08    0.000000e+00
-9.642572e-11    7.671292e-08    0.000000e+00
-1.056998e-09    7.647751e-08    0.000000e+00
-1.778928e-10    7.235508e-08    0.000000e+00
-1.782369e-09    7.205042e-08    0.000000e+00
-1.453586e-10    6.963088e-08    0.000000e+00
-1.962403e-09    6.929159e-08    0.000000e+00
-1.563654e-10    7.475147e-08    0.000000e+00
-1.479960e-09    7.447974e-08    0.000000e+00
1.184843e-10    6.354013e-08    0.000000e+00
-1.962910e-09    6.313611e-08    0.000000e+00
3.592111e-10    6.030274e-08    0.000000e+00
-1.792990e-09    5.987000e-08    0.000000e+00
1.060932e-09    5.368243e-08    0.000000e+00
-1.145006e-09    5.320051e-08    0.000000e+00
1.516565e-09    5.036862e-08    0.000000e+00
-6.816072e-10    4.986727e-08    0.000000e+00
6.738888e-10    5.700400e-08    0.000000e+00
-1.518027e-09    5.654527e-08    0.000000e+00
-4.870266e-11    6.666894e-08    0.000000e+00
-2.021252e-09    6.629624e-08    0.000000e+00
3.751872e-09    5.082012e-08    0.000000e+00
3.309081e-09    5.410021e-08    0.000000e+00
2.914119e-09    5.738484e-08    0.000000e+00
2.566525e-09    6.064254e-08    0.000000e+00
2.262580e-09    6.383293e-08    0.000000e+00
1.994608e-09    6.690770e-08    0.000000e+00
1.750476e-09    6.980906e-08    0.000000e+00
1.512884e-09    7.246633e-08    0.000000e+00
1.257828e-09    7.479389e-08    0.000000e+00
9.500940e-10    7.668688e-08    0.000000e+00
5.346530e-10    7.799679e-08    0.000000e+00
6.581131e-12    7.848013e-08    0.000000e+00
-1.150007e-11    7.871272e-08    0.000000e+00
1.823154e-11    7.885876e-08    0.000000e+00
-4.246357e-10    7.990474e-08    0.000000e+00
-1.166077e-09    7.763495e-08    0.000000e+00
-2.118118e-09    7.606491e-08    0.000000e+00
-2.871641e-09    7.403217e-08    0.000000e+00
-3.438555e-09    7.158453e-08    0.000000e+00
-3.817579e-09    6.881311e-08    0.000000e+00
-4.022219e-09    6.580482e-08    0.000000e+00
-4.065545e-09    6.263169e-08    0.000000e+00
-3.961372e-09    5.935278e-08    0.000000e+00
-3.722865e-09    5.601588e-08    0.000000e+00
-3.362208e-09    5.265990e-08    0.000000e+00
-2.890385e-09    4.931707e-08    0.000000e+00
-2.316964e-09    4.601573e-08    0.000000e+00
-1.437867e-10    4.656916e-08    0.000000e+00
2.027059e-09    4.708754e-08    0.000000e+00
4.239927e-09    4.757106e-08    0.000000e+00
5.973261e-09    3.777065e-08    0.000000e+00
6.409962e-09    3.549775e-08    0.000000e+00
6.824086e-09    3.332617e-08    0.000000e+00
7.199210e-09    3.127481e-08    0.000000e+00
7.515904e-09    2.936511e-08    0.000000e+00
7.752607e-09    2.762191e-08    0.000000e+00
7.880787e-09    2.606945e-08    0.000000e+00
7.930380e-09    2.470952e-08    0.000000e+00
7.649716e-09    2.344954e-08    0.000000e+00
7.450501e-09    2.316792e-08    0.000000e+00
7.146243e-09    2.296345e-08    0.000000e+00
5.226933e-09    3.205989e-08    0.000000e+00
3.739791e-09    3.088528e-08    0.000000e+00
3.540382e-09    3.917323e-08    0.000000e+00
1.626356e-09    3.823461e-08    0.000000e+00
2.486087e-09    4.438620e-08    0.000000e+00
3.832866e-10    4.371664e-08    0.000000e+00
2.998966e-09    4.174504e-08    0.000000e+00
9.812988e-10    4.093268e-08    0.000000e+00
4.100128e-09    3.668860e-08    0.000000e+00
2.308777e-09    3.564366e-08    0.000000e+00
4.666948e-09    3.431020e-08    0.000000e+00
3.017760e-09    3.318443e-08    0.000000e+00
6.679221e-09    2.635674e-08    0.000000e+00
5.789469e-09    2.531058e-08    0.000000e+00
5.763367e-09    2.996300e-08    0.000000e+00
4.458037e-09    2.877913e-08    0.000000e+00
6.254725e-09    2.804749e-08    0.000000e+00
5.151050e-09    2.690300e-08    0.000000e+00
7.002718e-09    2.490624e-08    0.000000e+00
6.353101e-09    2.405647e-08    0.000000e+00
7.283509e-09    2.380456e-08    0.000000e+00
6.815061e-09    2.327941e-08    0.000000e+00
5.667296e-09    2.198552e-08    0.000000e+00
5.785873e-09    2.254468e-08    0.000000e+00
2.065716e-09    2.093498e-08    0.000000e+00
2.061990e-09    2.134216e-08    0.000000e+00
1.177201e-09    2.066261e-08    0.000000e+00
1.158564e-09    2.093226e-08    0.000000e+00
1.576152e-09    2.079176e-08    0.000000e+00
1.561796e-09    2.112921e-08    0.000000e+00
6.253347e-10    2.043490e-08    0.000000e+00
6.131190e-10    2.058350e-08    0.000000e+00
4.558383e-10    2.033182e-08    0.000000e+00
4.521559e-10    2.042837e-08    0.000000e+00
8.629336e-10    2.054449e-08    0.000000e+00
8.453804e-10    2.075081e-08    0.000000e+00
2.647887e-09    2.109569e-08    0.000000e+00
2.661646e-09    2.157037e-08    0.000000e+00
4.775437e-10    2.022411e-08    0.000000e+00
6.568030e-10    2.027715e-08    0.000000e+00
9.008309e-10    2.033123e-08    0.000000e+00
1.217045e-09    2.038836e-08    0.000000e+00
1.612116e-09    2.045186e-08    0.000000e+00
2.090706e-09    2.052653e-08    0.000000e+00
2.653916e-09    2.061881e-08    0.000000e+00
3.297415e-09    2.073686e-08    0.000000e+00
4.009279e-09    2.089062e-08    0.000000e+00
4.767536e-09    2.109165e-08    0.000000e+00
5.537247e-09    2.135336e-08    0.000000e+00
6.268813e-09    2.168799e-08    0.000000e+00
6.890400e-09    2.211610e-08    0.000000e+00
7.368178e-09    2.260695e-08    0.000000e+00
7.213688e-09    2.287189e-08    0.000000e+00
7.130530e-09    2.308888e-08    0.000000e+00
6.614829e-09    2.317794e-08    0.000000e+00
5.872670e-09    2.309450e-08    0.000000e+00
5.040324e-09    2.290597e-08    0.000000e+00
4.199350e-09    2.265023e-08    0.000000e+00
3.405157e-09    2.235849e-08    0.000000e+00
2.691944e-09    2.205346e-08    0.000000e+00
2.077519e-09    2.175119e-08    0.000000e+00
1.567684e-09    2.146211e-08    0.000000e+00
1.160012e-09    2.119212e-08    0.000000e+00
8.470553e-10    2.094358e-08    0.000000e+00
6.189354e-10    2.071628e-08    0.000000e+00
4.653638e-10    2.050816e-08    0.000000e+00
3.771405e-10    2.031603e-08    0.000000e+00
3.536538e-10    2.028315e-08    0.000000e+00
3.462528e-10    2.023334e-08    0.000000e+00
3.558818e-10    2.017120e-08    0.000000e+00
4.130579e-09    2.205987e-08    0.000000e+00
4.064389e-09    2.148431e-08    0.000000e+00
3.356143e-09    2.181125e-08    0.000000e+00
3.318460e-09    2.127755e-08    0.000000e+00
4.956007e-09    2.230812e-08    0.000000e+00
4.860755e-09    2.171909e-08    0.000000e+00
7.153314e-09    2.291250e-08    0.000000e+00
7.054222e-09    2.262012e-08    0.000000e+00
6.549688e-09    2.275288e-08    0.000000e+00
6.425014e-09    2.228130e-08    0.000000e+00
7.408054e-09    2.296759e-08    0.000000e+00
7.468541e-09    2.293979e-08    0.000000e+00
5.080528e-09    1.886462e-08    0.000000e+00
5.168613e-09    1.870018e-08    0.000000e+00
5.183615e-09    1.857750e-08    0.000000e+00
5.161646e-09    1.843384e-08    0.000000e+00
4.828184e-09    1.835587e-08    0.000000e+00
4.301875e-09    1.835839e-08    0.000000e+00
3.681861e-09    1.843134e-08    0.000000e+00
3.048097e-09    1.855439e-08    0.000000e+00
2.453052e-09    1.870885e-08    0.000000e+00
1.925305e-09    1.888081e-08    0.000000e+00
1.477700e-09    1.906045e-08    0.000000e+00
1.112654e-09    1.924149e-08    0.000000e+00
8.264438e-10    1.942065e-08    0.000000e+00
6.125757e-10    1.959703e-08    0.000000e+00
4.643360e-10    1.977171e-08    0.000000e+00
3.766197e-10    1.994722e-08    0.000000e+00
3.471478e-10    2.012722e-08    0.000000e+00
2.779684e-10    2.010883e-08    0.000000e+00
2.645353e-10    2.004780e-08    0.000000e+00
3.117330e-10    1.999009e-08    0.000000e+00
4.195073e-10    1.993792e-08    0.000000e+00
5.912673e-10    1.989312e-08    0.000000e+00
8.330459e-10    1.985644e-08    0.000000e+00
1.152067e-09    1.982673e-08    0.000000e+00
1.554652e-09    1.980003e-08    0.000000e+00
2.043335e-09    1.976844e-08    0.000000e+00
2.613119e-09    1.971907e-08    0.000000e+00
3.246682e-09    1.963263e-08    0.000000e+00
3.909637e-09    1.948353e-08    0.000000e+00
4.548134e-09    1.923170e-08    0.000000e+00
1.352739e-09    1.932945e-08    0.000000e+00
1.243969e-09    1.958493e-08    0.000000e+00
3.542106e-09    1.883231e-08    0.000000e+00
3.395919e-09    1.922061e-08    0.000000e+00
4.774901e-09    1.863720e-08    0.000000e+00
4.685883e-09    1.890592e-08    0.000000e+00
4.195169e-09    1.872325e-08    0.000000e+00
4.062046e-09    1.907997e-08    0.000000e+00
2.304048e-09    1.907375e-08    0.000000e+00
2.167047e-09    1.942303e-08    0.000000e+00
2.896988e-09    1.895043e-08    0.000000e+00
2.751423e-09    1.933120e-08    0.000000e+00
1.786249e-09    1.920056e-08    0.000000e+00
1.662386e-09    1.950549e-08    0.000000e+00
5.339852e-10    1.972246e-08    0.000000e+00
4.694972e-10    1.983698e-08    0.000000e+00
1.003388e-09    1.945954e-08    0.000000e+00
9.100192e-10    1.966537e-08    0.000000e+00
7.328970e-10    1.959048e-08    0.000000e+00
6.543694e-10    1.974905e-08    0.000000e+00
3.254521e-10    1.999301e-08    0.000000e+00
2.878984e-10    2.002632e-08    0.000000e+00
3.997707e-10    1.985622e-08    0.000000e+00
3.487513e-10    1.992944e-08    0.000000e+00
3.093893e-10    2.013459e-08    0.000000e+00
2.860812e-10    2.012756e-08    0.000000e+00
-7.845778e-14    -6.532042e-11    0.000000e+00
-8.783232e-12    -7.021314e-11    0.000000e+00
-1.939671e-11    -8.373044e-11    0.000000e+00
-3.406888e-11    -1.044780e-10    0.000000e+00
-5.569257e-11    -1.281927e-10    0.000000e+00
-8.869029e-11    -1.445549e-10    0.000000e+00
-1.412342e-10    -1.310098e-10    0.000000e+00
-2.282841e-10    -4.469815e-11    0.000000e+00
-3.865606e-10    1.971671e-10    0.000000e+00
-6.305668e-10    7.116829e-10    0.000000e+00
-1.217905e-09    1.769471e-09    0.000000e+00
-4.272880e-10    1.919021e-09    0.000000e+00
6.619528e-10    2.022694e-09    0.000000e+00
1.902870e-09    2.195948e-09    0.000000e+00
1.171397e-09    8.002191e-10    0.000000e+00
6.563393e-10    1.979217e-10    0.000000e+00
3.510771e-10    -4.586383e-11    0.000000e+00
1.750174e-10    -1.351941e-10    0.000000e+00
7.464865e-11    -1.546943e-10    0.000000e+00
2.133803e-11    -1.440242e-10    0.000000e+00
-2.909710e-12    -1.238575e-10    0.000000e+00
-9.737740e-12    -1.048479e-10    0.000000e+00
-6.962168e-12    -9.207644e-11    0.000000e+00
2.632678e-13    -8.778990e-11    0.000000e+00
1.373764e-13    -8.366212e-11    0.000000e+00
3.624930e-14    -7.737027e-11    0.000000e+00
4.502687e-11    -1.746071e-10    0.000000e+00
-2.073992e-11    -1.723032e-10    0.000000e+00
3.009193e-10    1.061122e-10    0.000000e+00
-1.059902e-10    1.156953e-10    0.000000e+00
4.579635e-10    6.497112e-10    0.000000e+00
-2.443929e-10    6.370088e-10    0.000000e+00
1.821261e-10    -1.032121e-10    0.000000e+00
-4.441817e-11    -9.940920e-11    0.000000e+00
9.827987e-11    -1.704227e-10    0.000000e+00
-2.615149e-11    -1.687874e-10    0.000000e+00
-3.146560e-13    -1.267582e-10    0.000000e+00
-1.479401e-11    -1.216988e-10    0.000000e+00
1.443247e-11    -1.536219e-10    0.000000e+00
-1.810731e-11    -1.497548e-10    0.000000e+00
-4.956218e-12    -1.036938e-10    0.000000e+00
-1.045747e-11    -9.793858e-11    0.000000e+00
-3.770696e-12    -8.877542e-11    0.000000e+00
-5.399658e-12    -8.267653e-11    0.000000e+00
-2.330129e-09    5.018080e-09    0.000000e+00
-2.151490e-09    8.384000e-09    0.000000e+00
-1.278760e-09    1.155739e-08    0.000000e+00
7.123352e-11    1.421120e-08    0.000000e+00
1.575531e-09    1.618980e-08    0.000000e+00
2.990326e-09    1.749699e-08    0.000000e+00
4.131503e-09    1.822486e-08    0.000000e+00
4.885901e-09    1.851519e-08    0.000000e+00
5.221471e-09    1.853327e-08    0.000000e+00
5.381640e-09    1.841905e-08    0.000000e+00
5.492860e-09    1.779200e-08    0.000000e+00
5.402311e-09    1.690362e-08    0.000000e+00
5.124107e-09    1.567595e-08    0.000000e+00
4.696315e-09    1.404604e-08    0.000000e+00
4.181308e-09    1.201070e-08    0.000000e+00
3.639775e-09    9.617166e-09    0.000000e+00
3.106310e-09    6.987545e-09    0.000000e+00
2.550200e-09    4.361444e-09    0.000000e+00
2.697491e-09    1.549154e-08    0.000000e+00
3.728316e-09    1.479639e-08    0.000000e+00
-3.256062e-10    7.852590e-09    0.000000e+00
1.336808e-09    7.389486e-09    0.000000e+00
-5.958087e-10    4.714143e-09    0.000000e+00
9.150064e-10    4.441763e-09    0.000000e+00
4.326628e-10    1.088197e-08    0.000000e+00
2.013851e-09    1.025952e-08    0.000000e+00
1.516209e-09    1.347725e-08    0.000000e+00
2.856653e-09    1.277094e-08    0.000000e+00
4.635369e-09    1.780043e-08    0.000000e+00
5.071141e-09    1.735943e-08    0.000000e+00
3.785378e-09    1.690914e-08    0.000000e+00
4.500235e-09    1.631017e-08    0.000000e+00
5.162845e-09    1.828548e-08    0.000000e+00
5.379840e-09    1.803519e-08    0.000000e+00
5.339240e-09    1.850159e-08    0.000000e+00
5.406468e-09    1.844774e-08    0.000000e+00
0.000000e+00    0.000000e+00    0.000000e+00
0.000000e+00    0.000000e+00    0.000000e+00
0.000000e+00    0.000000e+00    0.000000e+00
0.000000e+00    0.000000e+00    0.000000e+00
0.000000e+00    0.000000e+00    0.000000e+00
0.000000e+00    0.000000e+00    0.000000e+00
0.000000e+00    0.000000e+00    0.000000e+00
0.000000e+00    0.000000e+00    0.000000e+00
0.000000e+00    0.000000e+00    0.000000e+00
0.000000e+00    0.000000e+00    0.000000e+00
0.000000e+00    0.000000e+00    0.000000e+00
-1.385646e-10    2.625595e-10    0.000000e+00
-3.333656e-10    5.665557e-10    0.000000e+00
-5.634388e-10    9.160921e-10    0.000000e+00
-1.429229e-13    -4.894225e-11    0.000000e+00
-1.415637e-13    -3.022377e-11    0.000000e+00
-7.426977e-14    -1.280841e-11    0.000000e+00
-1.244943e-10    -9.942170e-11    0.000000e+00
-1.187405e-10    -5.205528e-11    0.000000e+00
-7.359227e-11    -1.535540e-11    0.000000e+00
-4.347808e-10    1.893331e-10    0.000000e+00
-3.529643e-10    1.474819e-10    0.000000e+00
-2.076818e-10    7.579981e-11    0.000000e+00
-4.003331e-10    3.659334e-10    0.000000e+00
-5.500834e-10    5.319895e-10    0.000000e+00
-2.089061e-10    1.662260e-10    0.000000e+00
-1.841949e-10    -3.510414e-11    0.000000e+00
-2.660108e-10    2.041386e-11    0.000000e+00
-1.962511e-10    -8.169019e-11    0.000000e+00
-2.951807e-10    -4.703332e-12    0.000000e+00
-1.141242e-10    -4.664512e-12    0.000000e+00
-1.634594e-10    2.231768e-11    0.000000e+00
-4.482211e-11    -7.613644e-11    0.000000e+00
-4.209442e-11    -4.445084e-11    0.000000e+00
-2.553407e-11    -1.688986e-11    0.000000e+00
-7.271641e-11    -5.122574e-11    0.000000e+00
-7.647237e-11    -9.142722e-11    0.000000e+00
-4.466072e-11    -1.783090e-11    0.000000e+00
-9.643368e-12    -3.229387e-11    0.000000e+00
-2.248858e-11    -3.730792e-11    0.000000e+00
-1.061317e-11    -5.255184e-11    0.000000e+00
-2.435767e-11    -6.199239e-11    0.000000e+00
-5.692879e-12    -1.354172e-11    0.000000e+00
-1.344582e-11    -1.504662e-11    0.000000e+00
3.125414e-09    4.733285e-08    0.000000e+00
3.999368e-09    4.919294e-08    0.000000e+00
4.449003e-09    4.630288e-08    0.000000e+00
9.392277e-10    4.683304e-08    0.000000e+00
1.772829e-09    4.872408e-08    0.000000e+00
2.257813e-09    4.573216e-08    0.000000e+00
-1.227788e-09    4.629822e-08    0.000000e+00
-4.143749e-10    4.821612e-08    0.000000e+00
1.189368e-10    4.513929e-08    0.000000e+00
-2.605949e-09    4.765496e-08    0.000000e+00
-2.012179e-09    4.450932e-08    0.000000e+00
-3.129654e-09    5.097975e-08    0.000000e+00
-1.783263e-09    4.959920e-08    0.000000e+00
-3.547149e-09    5.433197e-08    0.000000e+00
-2.250568e-09    5.293856e-08    0.000000e+00
-3.848223e-09    5.768171e-08    0.000000e+00
-2.616720e-09    5.629050e-08    0.000000e+00
-4.021284e-09    6.099360e-08    0.000000e+00
-2.872425e-09    5.962315e-08    0.000000e+00
-4.053629e-09    6.422444e-08    0.000000e+00
-3.008061e-09    6.289782e-08    0.000000e+00
-3.931726e-09    6.732086e-08    0.000000e+00
-3.013706e-09    6.606696e-08    0.000000e+00
-3.641936e-09    7.021693e-08    0.000000e+00
-2.879673e-09    6.907172e-08    0.000000e+00
-3.170993e-09    7.283265e-08    0.000000e+00
-2.596899e-09    7.184016e-08    0.000000e+00
-2.510121e-09    7.507116e-08    0.000000e+00
-2.159532e-09    7.428273e-08    0.000000e+00
-1.657089e-09    7.683986e-08    0.000000e+00
-1.562226e-09    7.630026e-08    0.000000e+00
-6.865647e-10    7.822936e-08    0.000000e+00
-8.167016e-10    7.782789e-08    0.000000e+00
9.223268e-11    7.939601e-08    0.000000e+00
1.547925e-11    7.878016e-08    0.000000e+00
-2.444670e-10    7.850722e-08    0.000000e+00
-7.779782e-12    7.862761e-08    0.000000e+00
1.583952e-12    7.850988e-08    0.000000e+00
2.819296e-10    7.834314e-08    0.000000e+00
7.625602e-10    7.742833e-08    0.000000e+00
2.320675e-10    7.808933e-08    0.000000e+00
1.119034e-09    7.580381e-08    0.000000e+00
4.012268e-10    7.673461e-08    0.000000e+00
1.396087e-09    7.367858e-08    0.000000e+00
5.275545e-10    7.480120e-08    0.000000e+00
1.639681e-09    7.117442e-08    0.000000e+00
6.466887e-10    7.243410e-08    0.000000e+00
1.878643e-09    6.838549e-08    0.000000e+00
7.840180e-10    6.973913e-08    0.000000e+00
2.133318e-09    6.538962e-08    0.000000e+00
9.565418e-10    6.680394e-08    0.000000e+00
2.418330e-09    6.225073e-08    0.000000e+00
1.176082e-09    6.369922e-08    0.000000e+00
2.743518e-09    5.902159e-08    0.000000e+00
1.450179e-09    6.048289e-08    0.000000e+00
3.114559e-09    5.574626e-08    0.000000e+00
1.782855e-09    5.720264e-08    0.000000e+00
3.533527e-09    5.246044e-08    0.000000e+00
2.175161e-09    5.389780e-08    0.000000e+00
2.625463e-09    5.059936e-08    0.000000e+00
-1.038805e-09    6.649865e-08    0.000000e+00
-1.998686e-09    6.473837e-08    0.000000e+00
-1.999548e-09    6.782480e-08    0.000000e+00
3.391854e-11    6.512193e-08    0.000000e+00
-9.797245e-11    6.817488e-08    0.000000e+00
-4.255978e-10    5.678382e-08    0.000000e+00
-1.334960e-09    5.487804e-08    0.000000e+00
-1.659941e-09    5.821731e-08    0.000000e+00
8.672869e-10    5.534546e-08    0.000000e+00
5.160171e-10    5.865965e-08    0.000000e+00
4.145815e-10    5.012399e-08    0.000000e+00
-9.158247e-10    5.153524e-08    0.000000e+00
1.289155e-09    5.202441e-08    0.000000e+00
-4.527538e-11    5.344898e-08    0.000000e+00
-7.206334e-10    6.009750e-08    0.000000e+00
-1.883442e-09    6.151831e-08    0.000000e+00
2.380238e-10    6.193268e-08    0.000000e+00
-9.260689e-10    6.335152e-08    0.000000e+00
-8.202769e-10    7.464219e-08    0.000000e+00
-1.640900e-09    7.332036e-08    0.000000e+00
-1.279777e-09    7.555055e-08    0.000000e+00
-1.673385e-10    7.359827e-08    0.000000e+00
-1.258736e-10    7.578987e-08    0.000000e+00
-1.057494e-09    6.948038e-08    0.000000e+00
-1.881209e-09    7.071275e-08    0.000000e+00
-1.622799e-10    7.102717e-08    0.000000e+00
-9.832099e-10    7.222547e-08    0.000000e+00
-5.754517e-10    7.662633e-08    0.000000e+00
-7.931895e-10    7.729923e-08    0.000000e+00
-5.850197e-11    7.748256e-08    0.000000e+00
-2.667530e-10    7.805090e-08    0.000000e+00
6.657524e-09    2.282803e-08    0.000000e+00
7.005652e-09    2.286008e-08    0.000000e+00
7.094662e-09    2.279349e-08    0.000000e+00
6.131270e-09    2.317169e-08    0.000000e+00
6.579470e-09    2.310227e-08    0.000000e+00
5.433069e-09    2.390742e-08    0.000000e+00
6.064835e-09    2.373186e-08    0.000000e+00
4.572364e-09    2.514104e-08    0.000000e+00
5.391221e-09    2.486664e-08    0.000000e+00
3.668790e-09    2.676820e-08    0.000000e+00
4.631609e-09    2.639292e-08    0.000000e+00
2.753148e-09    2.871223e-08    0.000000e+00
3.830057e-09    2.823235e-08    0.000000e+00
1.847819e-09    3.091917e-08    0.000000e+00
3.015562e-09    3.033039e-08    0.000000e+00
9.708790e-10    3.334335e-08    0.000000e+00
2.208668e-09    3.264347e-08    0.000000e+00
1.364384e-10    3.594582e-08    0.000000e+00
1.426005e-09    3.513453e-08    0.000000e+00
-6.444716e-10    3.869312e-08    0.000000e+00
6.806168e-10    3.777146e-08    0.000000e+00
-1.363146e-09    4.155635e-08    0.000000e+00
-1.714487e-11    4.052664e-08    0.000000e+00
-6.584041e-10    4.337602e-08    0.000000e+00
4.871907e-09    4.379407e-08    0.000000e+00
3.561226e-09    4.471580e-08    0.000000e+00
5.310267e-09    4.133618e-08    0.000000e+00
4.032913e-09    4.215119e-08    0.000000e+00
5.755774e-09    3.894172e-08    0.000000e+00
4.524230e-09    3.964947e-08    0.000000e+00
6.198271e-09    3.662449e-08    0.000000e+00
5.025414e-09    3.722599e-08    0.000000e+00
6.625297e-09    3.440002e-08    0.000000e+00
5.525159e-09    3.489746e-08    0.000000e+00
7.021878e-09    3.228607e-08    0.000000e+00
6.009637e-09    3.268301e-08    0.000000e+00
7.369950e-09    3.030232e-08    0.000000e+00
6.462135e-09    3.060422e-08    0.000000e+00
7.649339e-09    2.847373e-08    0.000000e+00
6.862649e-09    2.868702e-08    0.000000e+00
7.834664e-09    2.681740e-08    0.000000e+00
7.187712e-09    2.696005e-08    0.000000e+00
7.921031e-09    2.539137e-08    0.000000e+00
7.416551e-09    2.546577e-08    0.000000e+00
7.816524e-09    2.404960e-08    0.000000e+00
7.532735e-09    2.415616e-08    0.000000e+00
7.610514e-09    2.328598e-08    0.000000e+00
7.526102e-09    2.299845e-08    0.000000e+00
7.296714e-09    2.306385e-08    0.000000e+00
7.390564e-09    2.340597e-08    0.000000e+00
7.561270e-09    2.309379e-08    0.000000e+00
7.020950e-09    2.308689e-08    0.000000e+00
7.347058e-09    2.295851e-08    0.000000e+00
4.475873e-09    3.146425e-08    0.000000e+00
4.953716e-09    3.316919e-08    0.000000e+00
5.503849e-09    3.099213e-08    0.000000e+00
3.383025e-09    3.201576e-08    0.000000e+00
4.105121e-09    2.980850e-08    0.000000e+00
2.579998e-09    3.870385e-08    0.000000e+00
3.272498e-09    4.045092e-08    0.000000e+00
3.824130e-09    3.792051e-08    0.000000e+00
1.304460e-09    3.957504e-08    0.000000e+00
1.969127e-09    3.692754e-08    0.000000e+00
1.432284e-09    4.405468e-08    0.000000e+00
2.744505e-09    4.305930e-08    0.000000e+00
6.821859e-10    4.231868e-08    0.000000e+00
1.987385e-09    4.134058e-08    0.000000e+00
3.200118e-09    3.616387e-08    0.000000e+00
4.388709e-09    3.548647e-08    0.000000e+00
2.666019e-09    3.439898e-08    0.000000e+00
3.836649e-09    3.374235e-08    0.000000e+00
6.215052e-09    2.580737e-08    0.000000e+00
6.480478e-09    2.717435e-08    0.000000e+00
6.856886e-09    2.560504e-08    0.000000e+00
5.482238e-09    2.607183e-08    0.000000e+00
6.085749e-09    2.463578e-08    0.000000e+00
5.100653e-09    2.935836e-08    0.000000e+00
6.020231e-09    2.898220e-08    0.000000e+00
4.813105e-09    2.781200e-08    0.000000e+00
5.690392e-09    2.745738e-08    0.000000e+00
6.662072e-09    2.444452e-08    0.000000e+00
7.157320e-09    2.430471e-08    0.000000e+00
6.606549e-09    2.361298e-08    0.000000e+00
7.039358e-09    2.350305e-08    0.000000e+00
3.489218e-10    2.020346e-08    0.000000e+00
4.099309e-10    2.019765e-08    0.000000e+00
3.084787e-10    2.013993e-08    0.000000e+00
3.478711e-10    2.026010e-08    0.000000e+00
3.940375e-10    2.028192e-08    0.000000e+00
3.080821e-10    2.017984e-08    0.000000e+00
3.634899e-10    2.030194e-08    0.000000e+00
3.956066e-10    2.035454e-08    0.000000e+00
3.236996e-10    2.020784e-08    0.000000e+00
4.135867e-10    2.041033e-08    0.000000e+00
3.544918e-10    2.022023e-08    0.000000e+00
5.334479e-10    2.061002e-08    0.000000e+00
4.567530e-10    2.047062e-08    0.000000e+00
7.230474e-10    2.082740e-08    0.000000e+00
6.138465e-10    2.065214e-08    0.000000e+00
9.922844e-10    2.106517e-08    0.000000e+00
8.438552e-10    2.084912e-08    0.000000e+00
1.351463e-09    2.132455e-08    0.000000e+00
1.156780e-09    2.106350e-08    0.000000e+00
1.809533e-09    2.160458e-08    0.000000e+00
1.562175e-09    2.129603e-08    0.000000e+00
2.371791e-09    2.190124e-08    0.000000e+00
2.067287e-09    2.154581e-08    0.000000e+00
3.036992e-09    2.220651e-08    0.000000e+00
2.674662e-09    2.180960e-08    0.000000e+00
3.793841e-09    2.250726e-08    0.000000e+00
3.379215e-09    2.208111e-08    0.000000e+00
4.616876e-09    2.278427e-08    0.000000e+00
4.164703e-09    2.235013e-08    0.000000e+00
5.462179e-09    2.301080e-08    0.000000e+00
4.999845e-09    2.260172e-08    0.000000e+00
6.261000e-09    2.315222e-08    0.000000e+00
5.833736e-09    2.281546e-08    0.000000e+00
6.917086e-09    2.315716e-08    0.000000e+00
6.591054e-09    2.296328e-08    0.000000e+00
7.239454e-09    2.298453e-08    0.000000e+00
7.158313e-09    2.301276e-08    0.000000e+00
7.317304e-09    2.293300e-08    0.000000e+00
7.134111e-09    2.234121e-08    0.000000e+00
7.440852e-09    2.286393e-08    0.000000e+00
6.600970e-09    2.189233e-08    0.000000e+00
6.972723e-09    2.238471e-08    0.000000e+00
5.910887e-09    2.150981e-08    0.000000e+00
6.349734e-09    2.200573e-08    0.000000e+00
5.153882e-09    2.121412e-08    0.000000e+00
5.601582e-09    2.168009e-08    0.000000e+00
4.384421e-09    2.098427e-08    0.000000e+00
4.812672e-09    2.141188e-08    0.000000e+00
3.645930e-09    2.080851e-08    0.000000e+00
4.034498e-09    2.119055e-08    0.000000e+00
2.966177e-09    2.067397e-08    0.000000e+00
3.305238e-09    2.100840e-08    0.000000e+00
2.361861e-09    2.056996e-08    0.000000e+00
2.648022e-09    2.085741e-08    0.000000e+00
1.840804e-09    2.048741e-08    0.000000e+00
2.075305e-09    2.073050e-08    0.000000e+00
1.404372e-09    2.041903e-08    0.000000e+00
1.591286e-09    2.062151e-08    0.000000e+00
1.049470e-09    2.035922e-08    0.000000e+00
1.194388e-09    2.052536e-08    0.000000e+00
7.702550e-10    2.030395e-08    0.000000e+00
8.792876e-10    2.043802e-08    0.000000e+00
5.595442e-10    2.025057e-08    0.000000e+00
6.386241e-10    2.035652e-08    0.000000e+00
4.643909e-10    2.027881e-08    0.000000e+00
2.652576e-09    2.133211e-08    0.000000e+00
2.349473e-09    2.145448e-08    0.000000e+00
2.997695e-09    2.168946e-08    0.000000e+00
2.345318e-09    2.101288e-08    0.000000e+00
2.972704e-09    2.118369e-08    0.000000e+00
8.517163e-10    2.064872e-08    0.000000e+00
7.197384e-10    2.066551e-08    0.000000e+00
9.912550e-10    2.083969e-08    0.000000e+00
7.350897e-10    2.048877e-08    0.000000e+00
1.009954e-09    2.060233e-08    0.000000e+00
4.518082e-10    2.038178e-08    0.000000e+00
5.242994e-10    2.050453e-08    0.000000e+00
5.326138e-10    2.038264e-08    0.000000e+00
6.169111e-10    2.051062e-08    0.000000e+00
1.566423e-09    2.096055e-08    0.000000e+00
1.348415e-09    2.102876e-08    0.000000e+00
1.799484e-09    2.123371e-08    0.000000e+00
1.365653e-09    2.072561e-08    0.000000e+00
1.809368e-09    2.086138e-08    0.000000e+00
1.165352e-09    2.079804e-08    0.000000e+00
2.061396e-09    2.113808e-08    0.000000e+00
5.729313e-09    2.226923e-08    0.000000e+00
5.374116e-09    2.242867e-08    0.000000e+00
6.181230e-09    2.265308e-08    0.000000e+00
5.265925e-09    2.184802e-08    0.000000e+00
6.057091e-09    2.212954e-08    0.000000e+00
4.096699e-09    2.177164e-08    0.000000e+00
3.734809e-09    2.193498e-08    0.000000e+00
4.539384e-09    2.218458e-08    0.000000e+00
3.683254e-09    2.137751e-08    0.000000e+00
4.458407e-09    2.159791e-08    0.000000e+00
3.335631e-09    2.154341e-08    0.000000e+00
4.908984e-09    2.201495e-08    0.000000e+00
7.114989e-09    2.278492e-08    0.000000e+00
6.880380e-09    2.284120e-08    0.000000e+00
7.336271e-09    2.295800e-08    0.000000e+00
6.759357e-09    2.244445e-08    0.000000e+00
7.302092e-09    2.278472e-08    0.000000e+00
6.492957e-09    2.252858e-08    0.000000e+00
7.464407e-09    2.297911e-08    0.000000e+00
5.137273e-09    1.877052e-08    0.000000e+00
4.830889e-09    1.907080e-08    0.000000e+00
5.250522e-09    1.866155e-08    0.000000e+00
5.182785e-09    1.863794e-08    0.000000e+00
4.951316e-09    1.880876e-08    0.000000e+00
5.318255e-09    1.858902e-08    0.000000e+00
5.175715e-09    1.851103e-08    0.000000e+00
5.006922e-09    1.860758e-08    0.000000e+00
5.301116e-09    1.855088e-08    0.000000e+00
5.023606e-09    1.839358e-08    0.000000e+00
5.239298e-09    1.849169e-08    0.000000e+00
4.583809e-09    1.835022e-08    0.000000e+00
4.805485e-09    1.850037e-08    0.000000e+00
3.998288e-09    1.838753e-08    0.000000e+00
4.250947e-09    1.854532e-08    0.000000e+00
3.362737e-09    1.848786e-08    0.000000e+00
3.612367e-09    1.863617e-08    0.000000e+00
2.743515e-09    1.862864e-08    0.000000e+00
2.971612e-09    1.875598e-08    0.000000e+00
2.179664e-09    1.879332e-08    0.000000e+00
2.376883e-09    1.889419e-08    0.000000e+00
1.691146e-09    1.897011e-08    0.000000e+00
1.853770e-09    1.904294e-08    0.000000e+00
1.284991e-09    1.915104e-08    0.000000e+00
1.413139e-09    1.919669e-08    0.000000e+00
9.600689e-10    1.933139e-08    0.000000e+00
1.056019e-09    1.935190e-08    0.000000e+00
7.109061e-10    1.950914e-08    0.000000e+00
7.778126e-10    1.950675e-08    0.000000e+00
5.306264e-10    1.968444e-08    0.000000e+00
5.715655e-10    1.966090e-08    0.000000e+00
4.131319e-10    1.985914e-08    0.000000e+00
4.304307e-10    1.981523e-08    0.000000e+00
3.546138e-10    2.003639e-08    0.000000e+00
3.494218e-10    1.997164e-08    0.000000e+00
3.265622e-10    2.013280e-08    0.000000e+00
2.635243e-10    2.007803e-08    0.000000e+00
2.801330e-10    2.011941e-08    0.000000e+00
2.806484e-10    2.001839e-08    0.000000e+00
2.744620e-10    2.003844e-08    0.000000e+00
3.579120e-10    1.996319e-08    0.000000e+00
3.285112e-10    1.996137e-08    0.000000e+00
4.970637e-10    1.991453e-08    0.000000e+00
4.426962e-10    1.988930e-08    0.000000e+00
7.029646e-10    1.987381e-08    0.000000e+00
6.208687e-10    1.982312e-08    0.000000e+00
9.824613e-10    1.984092e-08    0.000000e+00
8.694173e-10    1.976298e-08    0.000000e+00
1.342635e-09    1.981345e-08    0.000000e+00
1.195782e-09    1.970769e-08    0.000000e+00
1.788328e-09    1.978559e-08    0.000000e+00
1.606293e-09    1.965400e-08    0.000000e+00
2.318825e-09    1.974711e-08    0.000000e+00
2.103217e-09    1.959580e-08    0.000000e+00
2.923676e-09    1.968205e-08    0.000000e+00
2.680938e-09    1.952323e-08    0.000000e+00
3.577291e-09    1.956805e-08    0.000000e+00
3.321120e-09    1.942199e-08    0.000000e+00
4.235535e-09    1.937448e-08    0.000000e+00
3.987607e-09    1.927261e-08    0.000000e+00
4.623299e-09    1.905476e-08    0.000000e+00
1.296314e-09    1.945886e-08    0.000000e+00
1.558803e-09    1.926481e-08    0.000000e+00
1.167795e-09    1.939437e-08    0.000000e+00
1.442361e-09    1.954533e-08    0.000000e+00
1.066755e-09    1.962487e-08    0.000000e+00
3.469665e-09    1.902565e-08    0.000000e+00
3.871748e-09    1.877665e-08    0.000000e+00
3.215289e-09    1.889060e-08    0.000000e+00
3.729544e-09    1.915518e-08    0.000000e+00
3.068068e-09    1.927905e-08    0.000000e+00
4.736060e-09    1.876775e-08    0.000000e+00
4.499758e-09    1.867878e-08    0.000000e+00
4.384837e-09    1.899854e-08    0.000000e+00
4.131519e-09    1.889885e-08    0.000000e+00
2.234034e-09    1.924954e-08    0.000000e+00
2.592197e-09    1.901156e-08    0.000000e+00
2.034915e-09    1.913682e-08    0.000000e+00
2.450133e-09    1.937886e-08    0.000000e+00
1.904094e-09    1.946502e-08    0.000000e+00
2.823501e-09    1.914123e-08    0.000000e+00
1.722406e-09    1.935455e-08    0.000000e+00
4.999466e-10    1.978126e-08    0.000000e+00
6.249548e-10    1.965630e-08    0.000000e+00
4.591534e-10    1.978904e-08    0.000000e+00
5.535407e-10    1.979246e-08    0.000000e+00
4.014411e-10    1.988265e-08    0.000000e+00
9.546971e-10    1.956412e-08    0.000000e+00
8.587245e-10    1.952489e-08    0.000000e+00
7.728711e-10    1.970673e-08    0.000000e+00
6.917314e-10    1.967137e-08    0.000000e+00
3.049231e-10    2.001121e-08    0.000000e+00
3.553080e-10    1.992413e-08    0.000000e+00
3.100974e-10    2.006306e-08    0.000000e+00
3.109761e-10    1.997733e-08    0.000000e+00
2.795152e-10    2.007638e-08    0.000000e+00
3.725273e-10    1.989434e-08    0.000000e+00
2.958686e-10    2.013273e-08    0.000000e+00
-4.274087e-12    -6.662430e-11    0.000000e+00
-2.326262e-14    -7.210967e-11    0.000000e+00
-1.122512e-13    -5.761766e-11    0.000000e+00
-1.370796e-11    -7.591621e-11    0.000000e+00
-7.065709e-12    -7.728664e-11    0.000000e+00
-9.962207e-12    -6.191146e-11    0.000000e+00
-2.602802e-11    -9.336136e-11    0.000000e+00
-1.491777e-11    -9.192577e-11    0.000000e+00
-2.254196e-11    -7.351161e-11    0.000000e+00
-4.372779e-11    -1.164397e-10    0.000000e+00
-2.456357e-11    -1.146099e-10    0.000000e+00
-4.083796e-11    -9.112926e-11    0.000000e+00
-7.024280e-11    -1.384135e-10    0.000000e+00
-3.741975e-11    -1.410766e-10    0.000000e+00
-6.870539e-11    -1.108820e-10    0.000000e+00
-1.116425e-10    -1.439467e-10    0.000000e+00
-5.626952e-11    -1.612837e-10    0.000000e+00
-1.115130e-10    -1.230204e-10    0.000000e+00
-1.781275e-10    -1.015745e-10    0.000000e+00
-8.722145e-11    -1.533517e-10    0.000000e+00
-1.766494e-10    -1.075549e-10    0.000000e+00
-2.961027e-10    4.684422e-11    0.000000e+00
-1.466683e-10    -7.617305e-11    0.000000e+00
-2.775613e-10    -2.228021e-11    0.000000e+00
-4.885430e-10    4.000885e-10    0.000000e+00
-2.626661e-10    1.534516e-10    0.000000e+00
-4.261928e-10    1.924684e-10    0.000000e+00
-8.834798e-10    1.096103e-09    0.000000e+00
-5.078336e-10    6.756461e-10    0.000000e+00
-6.613852e-10    6.504615e-10    0.000000e+00
-8.784248e-10    1.818079e-09    0.000000e+00
-1.919880e-09    3.452626e-09    0.000000e+00
-7.795885e-10    1.298272e-09    0.000000e+00
9.417295e-11    1.972463e-09    0.000000e+00
-3.486116e-10    1.114553e-09    0.000000e+00
-4.718025e-10    3.155165e-09    0.000000e+00
1.260809e-09    2.089735e-09    0.000000e+00
5.646815e-10    1.194862e-09    0.000000e+00
7.943672e-10    3.120437e-09    0.000000e+00
1.528722e-09    1.366708e-09    0.000000e+00
2.264596e-09    3.177555e-09    0.000000e+00
8.844231e-10    4.321645e-10    0.000000e+00
8.373932e-10    7.066889e-10    0.000000e+00
4.827192e-10    4.860710e-11    0.000000e+00
4.988322e-10    1.388792e-10    0.000000e+00
2.508574e-10    -1.025852e-10    0.000000e+00
2.809825e-10    -8.098605e-11    0.000000e+00
1.172828e-10    -1.505567e-10    0.000000e+00
1.463224e-10    -1.564580e-10    0.000000e+00
4.331647e-11    -1.515054e-10    0.000000e+00
6.644768e-11    -1.666013e-10    0.000000e+00
6.331311e-12    -1.342886e-10    0.000000e+00
2.230066e-11    -1.498431e-10    0.000000e+00
-8.005461e-12    -1.137921e-10    0.000000e+00
1.205101e-12    -1.257688e-10    0.000000e+00
-9.224459e-12    -9.749539e-11    0.000000e+00
-5.701516e-12    -1.044065e-10    0.000000e+00
-3.766346e-12    -8.874231e-11    0.000000e+00
-4.606546e-12    -9.039316e-11    0.000000e+00
1.734750e-13    -8.563746e-11    0.000000e+00
8.765212e-14    -8.107970e-11    0.000000e+00
-2.066965e-12    -8.492418e-11    0.000000e+00
-2.735076e-12    -7.870602e-11    0.000000e+00
1.447627e-11    -1.766853e-10    0.000000e+00
6.831605e-11    -1.774460e-10    0.000000e+00
2.729633e-11    -1.657433e-10    0.000000e+00
-2.248117e-11    -1.755962e-10    0.000000e+00
-1.934597e-11    -1.626427e-10    0.000000e+00
9.186695e-11    9.976369e-11    0.000000e+00
3.736072e-10    3.137564e-10    0.000000e+00
2.371096e-10    -2.539387e-11    0.000000e+00
-1.596741e-10    3.232077e-10    0.000000e+00
-6.626812e-11    -1.581281e-11    0.000000e+00
8.757070e-11    6.268296e-10    0.000000e+00
6.917406e-11    -1.091481e-10    0.000000e+00
1.359145e-10    -1.484533e-10    0.000000e+00
-3.197696e-11    -1.458518e-10    0.000000e+00
3.847946e-11    -1.744621e-10    0.000000e+00
-6.186070e-12    -1.256050e-10    0.000000e+00
5.434876e-12    -1.401255e-10    0.000000e+00
-3.637049e-12    -1.143640e-10    0.000000e+00
-1.656057e-11    -1.355976e-10    0.000000e+00
-1.273731e-11    -1.088968e-10    0.000000e+00
9.151930e-14    -1.537942e-10    0.000000e+00
-6.842961e-12    -1.017184e-10    0.000000e+00
-4.900891e-12    -9.504441e-11    0.000000e+00
-7.996220e-12    -8.907779e-11    0.000000e+00
-4.171809e-12    -8.636661e-11    0.000000e+00
-2.289338e-09    6.720677e-09    0.000000e+00
-1.381211e-09    4.835133e-09    0.000000e+00
-1.740718e-09    9.999644e-09    0.000000e+00
-1.222223e-09    8.111268e-09    0.000000e+00
-5.976150e-10    1.294250e-08    0.000000e+00
-4.013693e-10    1.121113e-08    0.000000e+00
8.547041e-10    1.526565e-08    0.000000e+00
8.062228e-10    1.384197e-08    0.000000e+00
2.332579e-09    1.690477e-08    0.000000e+00
2.146174e-09    1.584115e-08    0.000000e+00
3.620383e-09    1.791109e-08    0.000000e+00
3.394995e-09    1.720601e-08    0.000000e+00
4.569715e-09    1.840548e-08    0.000000e+00
4.389083e-09    1.801707e-08    0.000000e+00
5.110344e-09    1.854519e-08    0.000000e+00
5.029125e-09    1.840541e-08    0.000000e+00
5.284371e-09    1.852269e-08    0.000000e+00
5.460917e-09    1.812909e-08    0.000000e+00
5.409334e-09    1.842708e-08    0.000000e+00
5.474886e-09    1.737579e-08    0.000000e+00
5.453410e-09    1.791155e-08    0.000000e+00
5.293020e-09    1.632127e-08    0.000000e+00
5.253095e-09    1.713530e-08    0.000000e+00
4.941762e-09    1.489383e-08    0.000000e+00
4.824587e-09    1.600271e-08    0.000000e+00
4.471327e-09    1.305776e-08    0.000000e+00
4.216844e-09    1.443578e-08    0.000000e+00
3.944873e-09    1.083370e-08    0.000000e+00
3.511862e-09    1.240735e-08    0.000000e+00
3.413394e-09    8.302768e-09    0.000000e+00
2.805469e-09    9.952013e-09    0.000000e+00
2.880130e-09    5.638811e-09    0.000000e+00
2.182131e-09    7.192679e-09    0.000000e+00
1.679977e-09    4.389192e-09    0.000000e+00
3.219002e-09    1.514943e-08    0.000000e+00
2.136972e-09    1.454184e-08    0.000000e+00
3.285405e-09    1.625523e-08    0.000000e+00
3.324381e-09    1.383048e-08    0.000000e+00
4.153475e-09    1.559905e-08    0.000000e+00
5.018498e-10    7.616349e-09    0.000000e+00
-4.922676e-10    6.245968e-09    0.000000e+00
3.970319e-11    9.386715e-09    0.000000e+00
1.126029e-09    5.897876e-09    0.000000e+00
1.684413e-09    8.844559e-09    0.000000e+00
1.664775e-10    4.554219e-09    0.000000e+00
1.224294e-09    1.056985e-08    0.000000e+00
9.845590e-10    1.222788e-08    0.000000e+00
2.456843e-09    1.155446e-08    0.000000e+00
2.189441e-09    1.312830e-08    0.000000e+00
4.862568e-09    1.758389e-08    0.000000e+00
4.261438e-09    1.740031e-08    0.000000e+00
4.951128e-09    1.807634e-08    0.000000e+00
4.828146e-09    1.687432e-08    0.000000e+00
5.267261e-09    1.772807e-08    0.000000e+00
4.150968e-09    1.661500e-08    0.000000e+00
5.280729e-09    1.816246e-08    0.000000e+00
5.298989e-09    1.841466e-08    0.000000e+00
5.430942e-09    1.826341e-08    0.000000e+00
5.381277e-09    1.847505e-08    0.000000e+00
0.000000e+00    0.000000e+00    0.000000e+00
-3.404114e-14    -5.730547e-12    0.000000e+00
0.000000e+00    0.000000e+00    0.000000e+00
-2.918417e-12    -5.983498e-12    0.000000e+00
0.000000e+00    0.000000e+00    0.000000e+00
-6.947039e-12    -6.434692e-12    0.000000e+00
0.000000e+00    0.000000e+00    0.000000e+00
-1.332852e-11    -6.832800e-12    0.000000e+00
0.000000e+00    0.000000e+00    0.000000e+00
-2.353223e-11    -6.554862e-12    0.000000e+00
0.000000e+00    0.000000e+00    0.000000e+00
-3.915415e-11    -4.412726e-12    0.000000e+00
0.000000e+00    0.000000e+00    0.000000e+00
-6.123839e-11    1.709914e-12    0.000000e+00
0.000000e+00    0.000000e+00    0.000000e+00
-8.848068e-11    1.503751e-11    0.000000e+00
0.000000e+00    0.000000e+00    0.000000e+00
-1.132661e-10    3.949953e-11    0.000000e+00
0.000000e+00    0.000000e+00    0.000000e+00
-1.178055e-10    7.647752e-11    0.000000e+00
-5.340514e-11    1.250988e-10    0.000000e+00
-2.302294e-10    4.081906e-10    0.000000e+00
-1.881860e-10    2.178228e-10    0.000000e+00
-4.189739e-10    7.225367e-10    0.000000e+00
-3.724684e-10    4.767179e-10    0.000000e+00
-6.351070e-10    8.108936e-10    0.000000e+00
-1.420464e-13    -3.965877e-11    0.000000e+00
-5.090769e-12    -4.997276e-11    0.000000e+00
-1.074031e-13    -2.113512e-11    0.000000e+00
-4.591747e-12    -3.087035e-11    0.000000e+00
-2.696043e-12    -1.311611e-11    0.000000e+00
-1.269743e-10    -7.514262e-11    0.000000e+00
-1.569146e-10    -9.554030e-11    0.000000e+00
-9.795492e-11    -9.725045e-11    0.000000e+00
-1.005958e-10    -3.163427e-11    0.000000e+00
-1.490066e-10    -4.697526e-11    0.000000e+00
-9.346346e-11    -5.300573e-11    0.000000e+00
-9.239533e-11    -1.135452e-11    0.000000e+00
-5.767449e-11    -1.727026e-11    0.000000e+00
-4.009504e-10    1.722350e-10    0.000000e+00
-5.028338e-10    3.529505e-10    0.000000e+00
-3.612652e-10    7.525011e-11    0.000000e+00
-2.870414e-10    1.140787e-10    0.000000e+00
-3.824582e-10    2.416503e-10    0.000000e+00
-3.115150e-10    7.258744e-11    0.000000e+00
-2.181864e-10    1.178069e-10    0.000000e+00
-1.883537e-10    4.603596e-11    0.000000e+00
-4.840799e-10    4.539830e-10    0.000000e+00
-3.063998e-10    2.631008e-10    0.000000e+00
-2.235097e-10    -1.430380e-11    0.000000e+00
-1.976513e-10    -5.729263e-11    0.000000e+00
-1.555308e-10    -1.723564e-11    0.000000e+00
-2.925958e-10    1.087358e-11    0.000000e+00
-2.234701e-10    2.412610e-11    0.000000e+00
-2.419159e-10    -5.355864e-11    0.000000e+00
-1.382296e-10    6.406845e-12    0.000000e+00
-4.524433e-11    -6.023842e-11    0.000000e+00
-5.886155e-11    -8.404692e-11    0.000000e+00
-3.344213e-11    -6.863815e-11    0.000000e+00
-3.531234e-11    -2.970338e-11    0.000000e+00
-5.569280e-11    -4.818500e-11    0.000000e+00
-3.114985e-11    -4.075054e-11    0.000000e+00
-3.398519e-11    -1.763640e-11    0.000000e+00
-1.874936e-11    -1.603774e-11    0.000000e+00
-7.769995e-11    -7.112301e-11    0.000000e+00
-6.132268e-11    -3.308858e-11    0.000000e+00
-1.541743e-11    -3.447768e-11    0.000000e+00
-1.050514e-11    -4.249500e-11    0.000000e+00
-7.980046e-12    -2.247621e-11    0.000000e+00
-2.432921e-11    -4.968628e-11    0.000000e+00
-1.872508e-11    -2.554834e-11    0.000000e+00
-1.684140e-11    -5.658052e-11    0.000000e+00
-9.150794e-12    -1.426483e-11    0.000000e+00

CELL_DATA      259
TENSORS Element_Stress1.200000e+00 double
-1.069161e+03 -4.626804e+02        0
-4.626804e+02 -2.106314e+02        0
       0        0 1.930900e+02

-1.043937e+03 -3.881676e+02        0
-3.881676e+02 -1.996793e+02        0
       0        0 -4.856388e+02

-9.733328e+02 -4.603662e+02        0
-4.603662e+02 -2.261380e+02        0
       0        0 3.654927e+02

-8.452904e+02 -3.496770e+02        0
-3.496770e+02 -1.973764e+02        0
       0        0 -2.098394e+02

-1.163651e+03 -4.299450e+02        0
-4.299450e+02 -1.587844e+02        0
       0        0 9.076200e+02

-1.172303e+03 -4.594352e+02        0
-4.594352e+02 -1.802681e+02        0
       0        0 9.812606e+02

-1.236602e+03 -4.188723e+02        0
-4.188723e+02 -1.995453e+02        0
       0        0 -7.665318e+02

-1.163367e+03 -4.652733e+02        0
-4.652733e+02 -1.963555e+02        0
       0        0 1.908776e+01

-1.159518e+03 -4.042902e+02        0
-4.042902e+02 -1.405882e+02        0
       0        0 8.317820e+02

-2.227618e+03 -7.062338e+02        0
-7.062338e+02 -3.120137e+02        0
       0        0 -2.018685e+03

9.655788e+02 -3.254238e+02        0
-3.254238e+02 -5.260902e+01        0
       0        0 1.304581e+03

-2.285409e+03 -7.026346e+02        0
-7.026346e+02 -1.324665e+03        0
       0        0 -2.075602e+03

1.544388e+03 -2.566266e+02        0
-2.566266e+02 -2.094638e+02        0
       0        0 1.609139e+03

-5.220116e+03 -5.380237e+02        0
-5.380237e+02 -6.237422e+02        0
       0        0 -5.313013e+03

-6.575215e+03 -1.541475e+03        0
-1.541475e+03 -3.465821e+03        0
       0        0 -6.233829e+03

4.196608e+02 -2.834292e+02        0
-2.834292e+02 -3.157231e+01        0
       0        0 9.913657e+02

-2.098432e+03 -6.446512e+02        0
-6.446512e+02 -1.575355e+02        0
       0        0 -1.928828e+03

-4.538158e+03 -5.273793e+02        0
-5.273793e+02 -3.249742e+02        0
       0        0 -4.768760e+03

-1.921614e+03 -5.764487e+02        0
-5.764487e+02 -1.333576e+02        0
       0        0 -1.627726e+03

-3.515565e+02 -2.507588e+02        0
-2.507588e+02 -4.300907e+01        0
       0        0 6.098724e+02

-2.003733e+03 -6.056695e+02        0
-6.056695e+02 -1.353829e+02        0
       0        0 -1.793055e+03

-1.372043e+01 -2.559735e+02        0
-2.559735e+02 -3.537424e+01        0
       0        0 7.615020e+02

-3.514308e+03 -5.518461e+02        0
-5.518461e+02 -2.138276e+02        0
       0        0 -3.802901e+03

-3.987747e+03 -5.451752e+02        0
-5.451752e+02 -2.476399e+02        0
       0        0 -4.276238e+03

-6.124532e+02 -2.578440e+02        0
-2.578440e+02 -5.148890e+01        0
       0        0 5.211632e+02

-1.837730e+03 -5.523150e+02        0
-5.523150e+02 -1.366176e+02        0
       0        0 -1.441368e+03

-3.102264e+03 -5.500674e+02        0
-5.500674e+02 -1.991536e+02        0
       0        0 -3.350742e+03

-1.658544e+03 -5.147410e+02        0
-5.147410e+02 -1.486407e+02        0
       0        0 -1.031383e+03

-9.484137e+02 -2.906419e+02        0
-2.906419e+02 -7.098073e+01        0
       0        0 4.864050e+02

-1.750036e+03 -5.319778e+02        0
-5.319778e+02 -1.421780e+02        0
       0        0 -1.240932e+03

-8.079284e+02 -2.721562e+02        0
-2.721562e+02 -6.084028e+01        0
       0        0 4.833019e+02

-2.424622e+03 -5.290741e+02        0
-5.290741e+02 -1.902540e+02        0
       0        0 -2.511002e+03

-2.741861e+03 -5.419074e+02        0
-5.419074e+02 -1.925719e+02        0
       0        0 -2.920079e+03

-1.043775e+03 -3.113456e+02        0
-3.113456e+02 -8.199942e+01        0
       0        0 5.219262e+02

-1.563587e+03 -5.002468e+02        0
-5.002468e+02 -1.556380e+02        0
       0        0 -8.165987e+02

-2.142890e+03 -5.127989e+02        0
-5.127989e+02 -1.900766e+02        0
       0        0 -2.122778e+03

-1.364904e+03 -4.784066e+02        0
-4.784066e+02 -1.718085e+02        0
       0        0 -3.829851e+02

-1.136829e+03 -3.557266e+02        0
-3.557266e+02 -1.074859e+02        0
       0        0 6.605617e+02

-1.465536e+03 -4.882104e+02        0
-4.882104e+02 -1.632568e+02        0
       0        0 -5.996121e+02

-1.103544e+03 -3.331676e+02        0
-3.331676e+02 -9.406744e+01        0
       0        0 5.822788e+02

-1.656536e+03 -4.720147e+02        0
-4.720147e+02 -1.923910e+02        0
       0        0 -1.403197e+03

-1.889273e+03 -4.937539e+02        0
-4.937539e+02 -1.909855e+02        0
       0        0 -1.754090e+03

-1.152507e+03 -3.795100e+02        0
-3.795100e+02 -1.227608e+02        0
       0        0 7.494742e+02

-1.262132e+03 -4.705020e+02        0
-4.705020e+02 -1.823725e+02        0
       0        0 -1.706966e+02

-1.437919e+03 -4.469616e+02        0
-4.469616e+02 -1.937304e+02        0
       0        0 -1.068892e+03

-1.188721e+03 -4.942112e+02        0
-4.942112e+02 -2.059252e+02        0
       0        0 1.047520e+03

-8.762967e+02 -4.578262e+02        0
-4.578262e+02 -2.438759e+02        0
       0        0 5.311290e+02

-6.377697e+02 -3.018026e+02        0
-3.018026e+02 -1.918443e+02        0
       0        0 5.998718e+01

-1.255407e+03 -5.852519e+02        0
-5.852519e+02 -2.740209e+02        0
       0        0 1.143813e+03

-1.215580e+03 -5.356719e+02        0
-5.356719e+02 -2.368050e+02        0
       0        0 1.102902e+03

-1.858282e+02 -1.700648e+02        0
-1.700648e+02 -1.657096e+02        0
       0        0 5.826878e+02

-6.800431e+02 -4.510380e+02        0
-4.510380e+02 -2.866499e+02        0
       0        0 8.341317e+02

-4.186558e+02 -2.426212e+02        0
-2.426212e+02 -1.817428e+02        0
       0        0 3.242227e+02

-7.784295e+02 -4.547985e+02        0
-4.547985e+02 -2.640212e+02        0
       0        0 6.880324e+02

-1.310255e+03 -6.447597e+02        0
-6.447597e+02 -3.189071e+02        0
       0        0 1.166467e+03

-5.818155e+02 -4.463179e+02        0
-4.463179e+02 -3.115415e+02        0
       0        0 9.669292e+02

6.284978e+01 -8.239421e+01        0
-8.239421e+01 -1.413915e+02        0
       0        0 8.349582e+02

-1.471141e+03 -7.989828e+02        0
-7.989828e+02 -4.359193e+02        0
       0        0 1.141226e+03

-1.382820e+03 -7.142295e+02        0
-7.142295e+02 -3.713189e+02        0
       0        0 1.166985e+03

6.166469e+02 1.475418e+02        0
1.475418e+02 -6.215999e+01        0
       0        0 1.314917e+03

-3.965417e+02 -4.348619e+02        0
-4.348619e+02 -3.682590e+02        0
       0        0 1.177240e+03

3.294775e+02 2.224912e+01        0
2.224912e+01 -1.091313e+02        0
       0        0 1.079169e+03

-4.846033e+02 -4.417322e+02        0
-4.417322e+02 -3.382563e+02        0
       0        0 1.083460e+03

-1.586930e+03 -8.797912e+02        0
-8.797912e+02 -5.017851e+02        0
       0        0 1.085659e+03

-3.194325e+02 -4.194016e+02        0
-4.194016e+02 -4.494518e+02        0
       0        0 1.230568e+03

8.561721e+02 3.150730e+02        0
3.150730e+02 -6.059855e+00        0
       0        0 1.515551e+03

-1.726120e+03 -9.540922e+02        0
-9.540922e+02 -1.750466e+03        0
       0        0 6.091179e+02

-1.715856e+03 -1.041582e+03        0
-1.041582e+03 -7.969593e+02        0
       0        0 9.360166e+02

1.966825e+02 5.851062e+02        0
5.851062e+02 5.140187e+02        0
       0        0 1.608515e+03

-5.326877e+02 2.134040e+02        0
2.134040e+02 -4.386078e+02        0
       0        0 1.225466e+03

7.076944e+02 5.410762e+02        0
5.410762e+02 1.291431e+02        0
       0        0 1.591564e+03

-2.923786e+02 -1.556738e+02        0
-1.556738e+02 -5.832529e+02        0
       0        0 1.234524e+03

2.424453e+01 -4.155338e+01        0
-4.155338e+01 -1.194788e+03        0
       0        0 1.089999e+03

1.985516e+01 -1.530198e+02        0
-1.530198e+02 3.647260e+01        0
       0        0 1.276677e+03

2.679786e+01 -2.426297e+02        0
-2.426297e+02 4.579777e+02        0
       0        0 1.535485e+03

2.420550e+01 -8.336435e+01        0
-8.336435e+01 -5.099876e+02        0
       0        0 8.054477e+02

1.703775e+01 -2.601477e+01        0
-2.601477e+01 -4.237188e+02        0
       0        0 8.458464e+02

3.500430e+01 -1.417746e+02        0
-1.417746e+02 -5.164070e+02        0
       0        0 9.749287e+02

2.109940e+01 -3.669593e+01        0
-3.669593e+01 -6.089196e+02        0
       0        0 9.585731e+02

5.104754e+00 -2.487647e+01        0
-2.487647e+01 -5.083773e+02        0
       0        0 7.851141e+02

1.216955e+01 -8.170878e+01        0
-8.170878e+01 -2.814046e+02        0
       0        0 1.021699e+03

8.986446e+00 1.896137e+00        0
1.896137e+00 -5.028543e+02        0
       0        0 4.892016e+02

8.834879e+00 -2.033378e+00        0
-2.033378e+00 -2.221535e+02        0
       0        0 5.923828e+02

1.590934e+01 -3.572339e+01        0
-3.572339e+01 -5.057058e+02        0
       0        0 6.410854e+02

1.269774e+01 -1.377705e+01        0
-1.377705e+01 -2.983386e+02        0
       0        0 7.203927e+02

-3.644331e+00 4.840821e+01        0
4.840821e+01 -7.563526e+02        0
       0        0 3.950627e+02

4.368918e-02 1.758360e+01        0
1.758360e+01 -6.619506e+02        0
       0        0 5.749052e+02

-6.398175e-01 5.042961e+01        0
5.042961e+01 -5.011031e+02        0
       0        0 2.385739e+02

2.481815e+00 1.824999e+01        0
1.824999e+01 -1.742410e+02        0
       0        0 3.558918e+02

3.508946e+00 3.024666e+01        0
3.024666e+01 -5.013706e+02        0
       0        0 3.543112e+02

5.391513e+00 8.802592e+00        0
8.802592e+00 -1.840508e+02        0
       0        0 4.692128e+02

-7.769363e+00 8.217316e+01        0
8.217316e+01 -8.216060e+02        0
       0        0 1.275483e+02

-6.193360e+00 6.930549e+01        0
6.930549e+01 -8.054705e+02        0
       0        0 2.463879e+02

-5.478910e+00 7.106100e+01        0
7.106100e+01 -5.035275e+02        0
       0        0 6.523522e+01

-1.687983e+00 3.211626e+01        0
3.211626e+01 -2.063153e+02        0
       0        0 1.697601e+02

-3.584393e+00 6.363090e+01        0
6.363090e+01 -5.018813e+02        0
       0        0 1.424499e+02

1.229591e-01 2.606281e+01        0
2.606281e+01 -1.841000e+02        0
       0        0 2.555246e+02

-8.799113e+00 9.075356e+01        0
9.075356e+01 -7.960880e+02        0
       0        0 -3.250597e+01

-8.579482e+00 8.878401e+01        0
8.878401e+01 -8.154898e+02        0
       0        0 3.575859e+01

-6.753755e+00 7.316386e+01        0
7.316386e+01 -5.086828e+02        0
       0        0 -3.836771e+01

-3.787414e+00 3.895250e+01        0
3.895250e+01 -2.648931e+02        0
       0        0 4.374849e+01

-6.482709e+00 7.388141e+01        0
7.388141e+01 -5.058671e+02        0
       0        0 5.528864e+00

-2.977194e+00 3.639373e+01        0
3.639373e+01 -2.348589e+02        0
       0        0 9.919643e+01

-8.084284e+00 8.620247e+01        0
8.620247e+01 -7.447154e+02        0
       0        0 -1.132610e+02

-8.585931e+00 8.949344e+01        0
8.949344e+01 -7.706349e+02        0
       0        0 -8.099208e+01

-4.153706e+00 3.985262e+01        0
3.985262e+01 -2.923059e+02        0
       0        0 3.061822e+00

-6.443353e+00 6.980945e+01        0
6.980945e+01 -5.109575e+02        0
       0        0 -6.791670e+01

-7.401260e+00 8.185689e+01        0
8.185689e+01 -7.220392e+02        0
       0        0 -1.322694e+02

5.587013e+01 -2.912181e+02        0
-2.912181e+02 -5.583800e+02        0
       0        0 1.270598e+03

2.727249e+01 -4.753575e+01        0
-4.753575e+01 -8.687280e+02        0
       0        0 1.044964e+03

4.595952e+01 -2.087285e+02        0
-2.087285e+02 -5.250082e+02        0
       0        0 1.137559e+03

-1.519055e+02 2.540928e+02        0
2.540928e+02 8.975445e+02        0
       0        0 1.672071e+03

-9.219633e+01 -1.801445e+02        0
-1.801445e+02 8.550506e+02        0
       0        0 1.689710e+03

-7.367274e+02 -4.983888e+02        0
-4.983888e+02 -2.232074e+03        0
       0        0 7.280554e+02

-6.703256e+02 -7.765139e+01        0
-7.765139e+01 -2.182283e+02        0
       0        0 1.276612e+03

-2.577356e+01 -9.510172e+01        0
-9.510172e+01 -1.694288e+03        0
       0        0 1.036033e+03

-1.556822e+02 -3.414854e+02        0
-3.414854e+02 -4.833111e+02        0
       0        0 1.327872e+03

-6.553186e+01 6.145614e+01        0
6.145614e+01 1.005613e+02        0
       0        0 1.167849e+03

-1.709366e+02 2.933135e+02        0
2.933135e+02 -4.918760e+02        0
       0        0 9.925128e+02

-1.363442e+02 3.600457e+02        0
3.600457e+02 -1.197672e+03        0
       0        0 8.145056e+02

-4.352593e+01 1.148946e+02        0
1.148946e+02 -1.409530e+02        0
       0        0 9.838021e+02

-8.231063e+01 2.597887e+02        0
2.597887e+02 -5.271075e+02        0
       0        0 8.712519e+02

-4.655135e+01 2.155027e+02        0
2.155027e+02 -8.969893e+02        0
       0        0 7.781021e+02

-2.791512e+01 1.213232e+02        0
1.213232e+02 -3.816433e+02        0
       0        0 7.723440e+02

-3.808275e+01 2.037715e+02        0
2.037715e+02 -5.345060e+02        0
       0        0 7.245296e+02

-1.656482e+01 1.419957e+02        0
1.419957e+02 -6.422772e+02        0
       0        0 6.963043e+02

-1.540437e+01 9.915023e+01        0
9.915023e+01 -6.742119e+02        0
       0        0 3.938228e+02

-2.062402e+01 1.107837e+02        0
1.107837e+02 -5.623141e+02        0
       0        0 5.695167e+02

-4.384299e+00 6.550847e+01        0
6.550847e+01 -3.779118e+02        0
       0        0 4.622610e+02

-1.388791e+01 1.091991e+02        0
1.091991e+02 -5.348398e+02        0
       0        0 4.235456e+02

-8.938005e+00 9.686433e+01        0
9.686433e+01 -4.771129e+02        0
       0        0 5.831172e+02

-2.288656e+01 1.503183e+02        0
1.503183e+02 -5.346584e+02        0
       0        0 5.696062e+02

-8.546377e+00 8.005952e+01        0
8.005952e+01 -7.570559e+02        0
       0        0 1.324707e+02

-1.144281e+01 8.871379e+01        0
8.871379e+01 -7.338930e+02        0
       0        0 2.484532e+02

-4.824313e-01 3.318531e+01        0
3.318531e+01 -3.078356e+02        0
       0        0 2.407315e+02

-3.752289e+00 6.007371e+01        0
6.007371e+01 -5.343184e+02        0
       0        0 1.849337e+02

-1.753228e+00 4.505928e+01        0
4.505928e+01 -3.265668e+02        0
       0        0 3.457431e+02

-7.658431e+00 7.968722e+01        0
7.968722e+01 -5.348949e+02        0
       0        0 2.942489e+02

-6.596907e+00 7.353328e+01        0
7.353328e+01 -7.568080e+02        0
       0        0 4.291305e+01

-1.668530e+00 4.857039e+01        0
4.857039e+01 -5.330691e+02        0
       0        0 9.610236e+01

-2.078328e-01 2.762703e+01        0
2.762703e+01 -3.089161e+02        0
       0        0 1.511228e+02

-4.925387e+00 6.723294e+01        0
6.723294e+01 -7.261320e+02        0
       0        0 -7.268674e+01

-5.440069e+00 6.926521e+01        0
6.926521e+01 -7.437513e+02        0
       0        0 -2.412497e+01

-1.327438e+00 2.799938e+01        0
2.799938e+01 -3.322637e+02        0
       0        0 2.363533e+01

-1.197186e+00 4.315951e+01        0
4.315951e+01 -5.285926e+02        0
       0        0 -2.503992e+01

-5.818174e-01 2.644041e+01        0
2.644041e+01 -3.196461e+02        0
       0        0 7.862252e+01

-9.520744e-01 4.345541e+01        0
4.345541e+01 -5.311449e+02        0
       0        0 2.670080e+01

-5.270679e+00 6.920445e+01        0
6.920445e+01 -6.998231e+02        0
       0        0 -1.279904e+02

-4.911795e+00 6.729340e+01        0
6.729340e+01 -7.100733e+02        0
       0        0 -1.063798e+02

-3.082640e+00 3.437951e+01        0
3.437951e+01 -3.425944e+02        0
       0        0 -3.472497e+01

-3.256158e+00 5.162002e+01        0
5.162002e+01 -5.219147e+02        0
       0        0 -8.259647e+01

-2.221125e+00 3.099174e+01        0
3.099174e+01 -3.411551e+02        0
       0        0 -1.404316e+01

-2.061560e+00 4.629083e+01        0
4.629083e+01 -5.254844e+02        0
       0        0 -6.097366e+01

-6.636338e+00 7.709146e+01        0
7.709146e+01 -7.055782e+02        0
       0        0 -1.406685e+02

-5.885286e+00 7.262259e+01        0
7.262259e+01 -6.979676e+02        0
       0        0 -1.392432e+02

-4.146268e+00 3.929338e+01        0
3.929338e+01 -3.165286e+02        0
       0        0 -2.510219e+01

-5.666707e+00 6.449400e+01        0
6.449400e+01 -5.138869e+02        0
       0        0 -8.552806e+01

-3.769816e+00 3.735393e+01        0
3.735393e+01 -3.345442e+02        0
       0        0 -3.850774e+01

-4.532895e+00 5.803609e+01        0
5.803609e+01 -5.180008e+02        0
       0        0 -9.076183e+01

1.655206e+03 -3.157373e+02        0
-3.157373e+02 1.241453e+01        0
       0        0 8.198444e+02

2.106981e+03 -1.024917e+02        0
-1.024917e+02 -9.494081e+01        0
       0        0 1.065552e+03

-1.164293e+03 5.834358e+01        0
5.834358e+01 -4.065969e+01        0
       0        0 -5.379744e+02

-2.436034e-01 -4.344177e+02        0
-4.344177e+02 5.495589e+01        0
       0        0 6.445343e+01

-2.467490e+03 5.252547e+02        0
5.252547e+02 -1.333702e+03        0
       0        0 -1.432201e+03

-2.797594e+02 -3.083477e+01        0
-3.083477e+01 -6.087455e+02        0
       0        0 -2.244265e+02

1.073057e+03 -2.325694e+02        0
-2.325694e+02 3.357350e+01        0
       0        0 5.413720e+02

1.683801e+02 -3.863719e+02        0
-3.863719e+02 1.455235e+02        0
       0        0 1.405333e+02

-5.159140e+02 -1.698467e+02        0
-1.698467e+02 1.730010e+02        0
       0        0 -2.106816e+02

3.939030e+02 -9.865906e+01        0
-9.865906e+01 1.516696e+01        0
       0        0 1.984314e+02

6.638748e+02 -1.503367e+02        0
-1.503367e+02 2.262012e+01        0
       0        0 3.370444e+02

-1.044530e+02 -1.928406e+02        0
-1.928406e+02 1.487621e+02        0
       0        0 -3.956349e+01

1.445092e+02 -2.083271e+02        0
-2.083271e+02 8.058021e+01        0
       0        0 8.632240e+01

-2.303382e+02 -2.160941e+02        0
-2.160941e+02 1.755766e+02        0
       0        0 -8.804132e+01

1.907882e+02 -2.903404e+02        0
-2.903404e+02 1.106127e+02        0
       0        0 1.245177e+02

1.015499e+02 -4.148780e+01        0
-4.148780e+01 7.888121e+00        0
       0        0 4.317242e+01

2.165061e+02 -6.470589e+01        0
-6.470589e+01 1.059990e+01        0
       0        0 1.050331e+02

-3.164234e+01 -1.038764e+02        0
-1.038764e+02 9.905159e+01        0
       0        0 -1.631743e+01

4.463219e+01 -9.587071e+01        0
-9.587071e+01 4.648249e+01        0
       0        0 2.211060e+01

-5.318718e+01 -1.487076e+02        0
-1.487076e+02 1.225092e+02        0
       0        0 -2.183888e+01

8.982315e+01 -1.447079e+02        0
-1.447079e+02 6.038301e+01        0
       0        0 5.024259e+01

3.037085e+01 -2.504014e+01        0
-2.504014e+01 6.003910e+00        0
       0        0 3.921518e+00

1.300708e+01 -5.920707e+01        0
-5.920707e+01 3.627519e+01        0
       0        0 2.384739e+00

-2.259596e+01 -6.602292e+01        0
-6.602292e+01 7.956992e+01        0
       0        0 -1.562083e+01

-2.861987e+01 -4.035447e+00        0
-4.035447e+00 4.207995e+00        0
       0        0 -2.902671e+01

-1.001150e+01 -1.321944e+01        0
-1.321944e+01 4.787069e+00        0
       0        0 -1.887688e+01

-1.724536e+01 -1.133902e+01        0
-1.133902e+01 5.890976e+01        0
       0        0 -1.699863e+01

-1.536333e+01 -9.969284e+00        0
-9.969284e+00 2.611875e+01        0
       0        0 -1.545740e+01

-1.876915e+01 -3.589845e+01        0
-3.589845e+01 6.574797e+01        0
       0        0 -1.633596e+01

-6.198798e+00 -3.171947e+01        0
-3.171947e+01 2.944014e+01        0
       0        0 -9.820651e+00

-1.797916e+03 8.168119e+02        0
8.168119e+02 -1.999181e+02        0
       0        0 -1.086550e+03

-3.526667e+03 1.310573e+03        0
1.310573e+03 -8.141919e+02        0
       0        0 -1.766908e+03

2.043851e+02 5.831856e+02        0
5.831856e+02 -1.988389e+02        0
       0        0 7.262950e+02

-7.035820e+02 1.099538e+03        0
1.099538e+03 -3.011231e+02        0
       0        0 -1.835723e+02

1.525981e+03 3.705154e+02        0
3.705154e+02 -1.300834e+02        0
       0        0 1.019159e+03

-6.977905e+02 1.088548e+03        0
1.088548e+03 -6.693587e+02        0
       0        0 -3.508276e+02

-6.668847e+02 5.421217e+02        0
5.421217e+02 -2.782295e+02        0
       0        0 -5.608555e+02

-5.533362e+02 8.791596e+02        0
8.791596e+02 -5.012863e+02        0
       0        0 -2.632872e+01

-8.467080e+02 7.207103e+02        0
7.207103e+02 -4.105409e+02        0
       0        0 4.859189e+02

2.562059e+02 -7.268495e+01        0
-7.268495e+01 -7.173945e+01        0
       0        0 4.840536e+02

-2.465564e+01 2.171944e+02        0
2.171944e+02 -2.198421e+02        0
       0        0 -1.250714e+01

-1.530283e+03 1.121120e+03        0
1.121120e+03 -9.440724e+02        0
       0        0 4.316845e+02

-4.721010e+02 4.991364e+02        0
4.991364e+02 -6.123227e+02        0
       0        0 4.773222e+02

-1.387373e+03 9.359218e+02        0
9.359218e+02 -6.637312e+02        0
       0        0 4.041155e+02

-4.857920e+02 6.617573e+02        0
6.617573e+02 -6.045634e+02        0
       0        0 2.113031e+02

2.159638e+02 -3.085792e+02        0
-3.085792e+02 2.837841e+02        0
       0        0 1.165951e+03

2.983517e+02 -2.512202e+02        0
-2.512202e+02 1.179308e+02        0
       0        0 8.849224e+02

-1.130810e+03 1.164395e+03        0
1.164395e+03 -1.419820e+03        0
       0        0 6.247148e+02

-4.521214e+02 3.415631e+02        0
3.415631e+02 -5.247203e+02        0
       0        0 9.163005e+02

-1.403053e+03 1.203541e+03        0
1.203541e+03 -1.210450e+03        0
       0        0 5.194654e+02

-4.685443e+02 3.958158e+02        0
3.958158e+02 -5.737068e+02        0
       0        0 7.233605e+02

9.669575e+01 -2.654672e+02        0
-2.654672e+02 3.797569e+02        0
       0        0 1.322353e+03

-4.124551e+02 3.192805e+02        0
3.192805e+02 -4.875450e+02        0
       0        0 1.039013e+03

-8.156691e+02 1.020921e+03        0
1.020921e+03 -1.536840e+03        0
       0        0 7.177582e+02

-5.839601e+01 -3.986738e+01        0
-3.986738e+01 2.875121e+02        0
       0        0 1.303628e+03

-3.926773e+00 -1.613214e+02        0
-1.613214e+02 3.816239e+02        0
       0        0 1.362547e+03

-3.033293e+02 5.763621e+02        0
5.763621e+02 -1.432195e+03        0
       0        0 8.113006e+02

-2.674354e+02 3.020152e+02        0
3.020152e+02 -4.641433e+02        0
       0        0 1.070191e+03

-5.268404e+02 8.110829e+02        0
8.110829e+02 -1.543966e+03        0
       0        0 7.814471e+02

-3.492726e+02 3.112937e+02        0
3.112937e+02 -4.703947e+02        0
       0        0 1.087701e+03

-7.582781e+02 6.912824e+02        0
6.912824e+02 -6.919941e+02        0
       0        0 -6.633069e+02

-1.290597e+03 6.235056e+02        0
6.235056e+02 -4.320827e+02        0
       0        0 -7.792893e+02

-5.843960e+02 1.006625e+03        0
1.006625e+03 -1.818445e+03        0
       0        0 -9.428359e+02

-1.831365e+03 1.625814e+03        0
1.625814e+03 -2.143208e+03        0
       0        0 -1.522860e+03

-4.073262e+02 5.335911e+02        0
5.335911e+02 -8.729813e+02        0
       0        0 -4.461625e+02

-5.123111e+02 6.088249e+02        0
6.088249e+02 -8.532401e+02        0
       0        0 -5.678948e+02

-3.459719e+02 5.117430e+02        0
5.117430e+02 -1.419989e+03        0
       0        0 -5.738690e+02

-3.352916e+02 6.963328e+02        0
6.963328e+02 -1.543122e+03        0
       0        0 -6.937351e+02

-3.134519e+02 2.733129e+01        0
2.733129e+01 1.483014e+02        0
       0        0 -1.744930e+02

-2.686643e+02 -9.414165e+01        0
-9.414165e+01 1.722219e+02        0
       0        0 -1.365462e+02

-4.755503e+02 1.223352e+02        0
1.223352e+02 5.848500e+01        0
       0        0 -2.857127e+02

-4.545971e+02 -3.591716e+01        0
-3.591716e+01 1.452903e+02        0
       0        0 -2.360496e+02

-6.678212e+02 3.377896e+02        0
3.377896e+02 -1.817123e+02        0
       0        0 -4.538835e+02

-7.608066e+02 1.548473e+02        0
1.548473e+02 2.228211e+01        0
       0        0 -4.146917e+02

-1.144608e+02 2.089569e+02        0
2.089569e+02 1.253797e+01        0
       0        0 -7.091527e+01

-2.582642e+02 1.342386e+02        0
1.342386e+02 9.200659e+01        0
       0        0 -1.511135e+02

-2.050829e+02 3.175308e+02        0
3.175308e+02 -1.346780e+02        0
       0        0 -1.531407e+02

-3.855523e+02 2.351937e+02        0
2.351937e+02 -4.008434e+01        0
       0        0 -2.555408e+02

-3.150429e+02 4.425654e+02        0
4.425654e+02 -4.153563e+02        0
       0        0 -2.795916e+02

-5.035769e+02 3.975252e+02        0
3.975252e+02 -3.356649e+02        0
       0        0 -4.032384e+02

-1.116363e+02 -1.656915e+01        0
-1.656915e+01 1.544107e+02        0
       0        0 -6.082684e+01

-9.194230e+01 -7.122905e+01        0
-7.122905e+01 1.399700e+02        0
       0        0 -4.980644e+01

-1.928864e+02 -8.024788e+00        0
-8.024788e+00 1.669031e+02        0
       0        0 -1.035711e+02

-1.583550e+02 -9.198436e+01        0
-9.198436e+01 1.625127e+02        0
       0        0 -8.095678e+01

-1.493450e+01 7.525797e+01        0
7.525797e+01 9.884260e+01        0
       0        0 2.077062e+00

-8.481930e+01 3.860419e+01        0
3.860419e+01 1.392970e+02        0
       0        0 -4.293260e+01

-5.249543e+01 1.289411e+02        0
1.289411e+02 7.770348e+01        0
       0        0 -2.308655e+01

-1.555527e+02 7.331746e+01        0
7.331746e+01 1.365955e+02        0
       0        0 -8.336171e+01

-1.849845e+01 -3.063323e+00        0
-3.063323e+00 1.048119e+02        0
       0        0 -1.798603e+01

-2.143869e+01 -8.421166e+00        0
-8.421166e+00 8.829980e+01        0
       0        0 -2.098267e+01

-3.202379e+01 -9.278588e+00        0
-9.278588e+00 1.148490e+02        0
       0        0 -2.345426e+01

-3.138930e+01 -2.652733e+01        0
-2.652733e+01 9.778714e+01        0
       0        0 -2.442643e+01

-6.086544e+01 -1.467280e+01        0
-1.467280e+01 1.332384e+02        0
       0        0 -3.640170e+01

-5.292405e+01 -4.756862e+01        0
-4.756862e+01 1.161718e+02        0
       0        0 -3.297717e+01

2.069267e+01 5.922712e+00        0
5.922712e+00 9.139088e+01        0
       0        0 2.091721e+01

-4.086760e+00 2.466025e+00        0
2.466025e+00 1.051693e+02        0
       0        0 -3.631507e+00

1.628643e+01 1.996651e+01        0
1.996651e+01 9.533047e+01        0
       0        0 1.915123e+01

-1.566724e+01 8.617223e+00        0
8.617223e+00 1.132731e+02        0
       0        0 -8.550956e+00

5.879312e+00 4.116287e+01        0
4.116287e+01 1.001910e+02        0
       0        0 1.408935e+01

-4.054973e+01 1.920534e+01        0
1.920534e+01 1.269068e+02        0
       0        0 -2.025664e+01

POINT_DATA     938
VECTORS DISPLACEMENT_1.400000e+00 double
4.649137e-09    3.891278e-08    0.000000e+00
5.054416e-09    3.669281e-08    0.000000e+00
4.254367e-09    4.118487e-08    0.000000e+00
-1.559273e-09    3.934284e-08    0.000000e+00
-9.330728e-10    3.668006e-08    0.000000e+00
-2.464396e-10    3.411134e-08    0.000000e+00
4.934076e-10    3.166153e-08    0.000000e+00
1.277608e-09    2.935894e-08    0.000000e+00
2.094654e-09    2.723651e-08    0.000000e+00
2.930141e-09    2.533306e-08    0.000000e+00
3.765173e-09    2.369313e-08    0.000000e+00
4.576882e-09    2.237414e-08    0.000000e+00
5.312753e-09    2.146529e-08    0.000000e+00
5.827382e-09    2.098657e-08    0.000000e+00
6.283310e-09    2.080165e-08    0.000000e+00
-2.343154e-11    7.141363e-08    0.000000e+00
-4.675471e-10    7.126218e-08    0.000000e+00
-8.817037e-11    7.014526e-08    0.000000e+00
-9.665048e-10    6.993000e-08    0.000000e+00
-1.626627e-10    6.616051e-08    0.000000e+00
-1.629774e-09    6.588193e-08    0.000000e+00
-1.329140e-10    6.366953e-08    0.000000e+00
-1.794395e-09    6.335929e-08    0.000000e+00
-1.429784e-10    6.835173e-08    0.000000e+00
-1.353255e-09    6.810327e-08    0.000000e+00
1.083404e-10    5.810024e-08    0.000000e+00
-1.794858e-09    5.773080e-08    0.000000e+00
3.284578e-10    5.514001e-08    0.000000e+00
-1.639486e-09    5.474432e-08    0.000000e+00
9.701017e-10    4.908649e-08    0.000000e+00
-1.046978e-09    4.864582e-08    0.000000e+00
1.386726e-09    4.605638e-08    0.000000e+00
-6.232524e-10    4.559795e-08    0.000000e+00
6.161948e-10    5.212369e-08    0.000000e+00
-1.388063e-09    5.170423e-08    0.000000e+00
-4.453305e-11    6.096117e-08    0.000000e+00
-1.848206e-09    6.062038e-08    0.000000e+00
3.430661e-09    4.646923e-08    0.000000e+00
3.025779e-09    4.946850e-08    0.000000e+00
2.664630e-09    5.247192e-08    0.000000e+00
2.346796e-09    5.545072e-08    0.000000e+00
2.068872e-09    5.836796e-08    0.000000e+00
1.823842e-09    6.117949e-08    0.000000e+00
1.600612e-09    6.383246e-08    0.000000e+00
1.383360e-09    6.626223e-08    0.000000e+00
1.150141e-09    6.839052e-08    0.000000e+00
8.687530e-10    7.012144e-08    0.000000e+00
4.888794e-10    7.131920e-08    0.000000e+00
6.017697e-12    7.176117e-08    0.000000e+00
-1.051550e-11    7.197385e-08    0.000000e+00
1.667067e-11    7.210738e-08    0.000000e+00
-3.882812e-10    7.306381e-08    0.000000e+00
-1.066245e-09    7.098835e-08    0.000000e+00
-1.936778e-09    6.955272e-08    0.000000e+00
-2.625790e-09    6.769401e-08    0.000000e+00
-3.144168e-09    6.545592e-08    0.000000e+00
-3.490742e-09    6.292177e-08    0.000000e+00
-3.677862e-09    6.017103e-08    0.000000e+00
-3.717479e-09    5.726957e-08    0.000000e+00
-3.622225e-09    5.427138e-08    0.000000e+00
-3.404137e-09    5.122016e-08    0.000000e+00
-3.074357e-09    4.815149e-08    0.000000e+00
-2.642929e-09    4.509486e-08    0.000000e+00
-2.118600e-09    4.207616e-08    0.000000e+00
-1.314766e-10    4.258220e-08    0.000000e+00
1.853515e-09    4.305620e-08    0.000000e+00
3.876931e-09    4.349833e-08    0.000000e+00
5.461868e-09    3.453697e-08    0.000000e+00
5.861182e-09    3.245866e-08    0.000000e+00
6.239852e-09    3.047300e-08    0.000000e+00
6.582860e-09    2.859726e-08    0.000000e+00
6.872440e-09    2.685106e-08    0.000000e+00
7.088879e-09    2.525710e-08    0.000000e+00
7.206085e-09    2.383755e-08    0.000000e+00
7.251432e-09    2.259405e-08    0.000000e+00
6.994797e-09    2.144195e-08    0.000000e+00
6.812637e-09    2.118443e-08    0.000000e+00
6.534428e-09    2.099747e-08    0.000000e+00
4.779436e-09    2.931513e-08    0.000000e+00
3.419614e-09    2.824108e-08    0.000000e+00
3.237277e-09    3.581947e-08    0.000000e+00
1.487118e-09    3.496121e-08    0.000000e+00
2.273244e-09    4.058613e-08    0.000000e+00
3.504721e-10    3.997390e-08    0.000000e+00
2.742213e-09    3.817110e-08    0.000000e+00
8.972863e-10    3.742828e-08    0.000000e+00
3.749102e-09    3.354756e-08    0.000000e+00
2.111114e-09    3.259208e-08    0.000000e+00
4.267394e-09    3.137278e-08    0.000000e+00
2.759399e-09    3.034339e-08    0.000000e+00
6.107389e-09    2.410025e-08    0.000000e+00
5.293812e-09    2.314365e-08    0.000000e+00
5.269944e-09    2.739776e-08    0.000000e+00
4.076369e-09    2.631525e-08    0.000000e+00
5.719236e-09    2.564624e-08    0.000000e+00
4.710050e-09    2.459974e-08    0.000000e+00
6.403191e-09    2.277393e-08    0.000000e+00
5.809189e-09    2.199691e-08    0.000000e+00
6.659942e-09    2.176657e-08    0.000000e+00
6.231599e-09    2.128638e-08    0.000000e+00
5.182098e-09    2.010326e-08    0.000000e+00
5.290524e-09    2.061455e-08    0.000000e+00
1.888863e-09    1.914266e-08    0.000000e+00
1.885456e-09    1.951499e-08    0.000000e+00
1.076417e-09    1.889361e-08    0.000000e+00
1.059376e-09    1.914018e-08    0.000000e+00
1.441212e-09    1.901170e-08    0.000000e+00
1.428085e-09    1.932026e-08    0.000000e+00
5.717976e-10    1.868539e-08    0.000000e+00
5.606277e-10    1.882127e-08    0.000000e+00
4.168124e-10    1.859114e-08    0.000000e+00
4.134452e-10    1.867942e-08    0.000000e+00
7.890548e-10    1.878560e-08    0.000000e+00
7.730043e-10    1.897426e-08    0.000000e+00
2.421192e-09    1.928961e-08    0.000000e+00
2.433773e-09    1.972366e-08    0.000000e+00
4.366595e-10    1.849265e-08    0.000000e+00
6.005717e-10    1.854115e-08    0.000000e+00
8.237076e-10    1.859060e-08    0.000000e+00
1.112850e-09    1.864284e-08    0.000000e+00
1.474097e-09    1.870090e-08    0.000000e+00
1.911713e-09    1.876918e-08    0.000000e+00
2.426705e-09    1.885356e-08    0.000000e+00
3.015111e-09    1.896151e-08    0.000000e+00
3.666030e-09    1.910210e-08    0.000000e+00
4.359370e-09    1.928592e-08    0.000000e+00
5.063183e-09    1.952523e-08    0.000000e+00
5.732117e-09    1.983121e-08    0.000000e+00
6.300488e-09    2.022266e-08    0.000000e+00
6.737362e-09    2.067149e-08    0.000000e+00
6.596099e-09    2.091375e-08    0.000000e+00
6.520060e-09    2.111216e-08    0.000000e+00
6.048510e-09    2.119359e-08    0.000000e+00
5.369890e-09    2.111730e-08    0.000000e+00
4.608804e-09    2.094490e-08    0.000000e+00
3.839829e-09    2.071106e-08    0.000000e+00
3.113629e-09    2.044430e-08    0.000000e+00
2.461477e-09    2.016539e-08    0.000000e+00
1.899655e-09    1.988899e-08    0.000000e+00
1.433469e-09    1.962467e-08    0.000000e+00
1.060699e-09    1.937779e-08    0.000000e+00
7.745359e-10    1.915053e-08    0.000000e+00
5.659461e-10    1.894269e-08    0.000000e+00
4.255223e-10    1.875238e-08    0.000000e+00
3.448522e-10    1.857670e-08    0.000000e+00
3.233763e-10    1.854664e-08    0.000000e+00
3.166089e-10    1.850109e-08    0.000000e+00
3.254135e-10    1.844427e-08    0.000000e+00
3.776946e-09    2.017124e-08    0.000000e+00
3.716422e-09    1.964496e-08    0.000000e+00
3.068812e-09    1.994392e-08    0.000000e+00
3.034355e-09    1.945590e-08    0.000000e+00
4.531705e-09    2.039824e-08    0.000000e+00
4.444609e-09    1.985964e-08    0.000000e+00
6.540893e-09    2.095088e-08    0.000000e+00
6.450285e-09    2.068353e-08    0.000000e+00
5.988946e-09    2.080492e-08    0.000000e+00
5.874946e-09    2.037372e-08    0.000000e+00
6.773824e-09    2.100125e-08    0.000000e+00
6.829132e-09    2.097583e-08    0.000000e+00
4.645566e-09    1.724956e-08    0.000000e+00
4.726109e-09    1.709919e-08    0.000000e+00
4.739828e-09    1.698701e-08    0.000000e+00
4.719739e-09    1.685565e-08    0.000000e+00
4.414826e-09    1.678436e-08    0.000000e+00
3.933576e-09    1.678667e-08    0.000000e+00
3.366644e-09    1.685337e-08    0.000000e+00
2.787138e-09    1.696588e-08    0.000000e+00
2.243038e-09    1.710711e-08    0.000000e+00
1.760473e-09    1.726435e-08    0.000000e+00
1.351189e-09    1.742861e-08    0.000000e+00
1.017396e-09    1.759416e-08    0.000000e+00
7.556890e-10    1.775798e-08    0.000000e+00
5.601309e-10    1.791926e-08    0.000000e+00
4.245825e-10    1.807898e-08    0.000000e+00
3.443759e-10    1.823947e-08    0.000000e+00
3.174273e-10    1.840405e-08    0.000000e+00
2.541705e-10    1.838724e-08    0.000000e+00
2.418875e-10    1.833144e-08    0.000000e+00
2.850444e-10    1.827867e-08    0.000000e+00
3.835918e-10    1.823097e-08    0.000000e+00
5.406468e-10    1.819000e-08    0.000000e+00
7.617259e-10    1.815646e-08    0.000000e+00
1.053434e-09    1.812929e-08    0.000000e+00
1.421553e-09    1.810488e-08    0.000000e+00
1.868398e-09    1.807599e-08    0.000000e+00
2.389401e-09    1.803085e-08    0.000000e+00
2.968722e-09    1.795181e-08    0.000000e+00
3.574919e-09    1.781547e-08    0.000000e+00
4.158752e-09    1.758520e-08    0.000000e+00
1.236926e-09    1.767458e-08    0.000000e+00
1.137468e-09    1.790820e-08    0.000000e+00
3.238854e-09    1.722001e-08    0.000000e+00
3.105182e-09    1.757506e-08    0.000000e+00
4.366105e-09    1.704161e-08    0.000000e+00
4.284708e-09    1.728732e-08    0.000000e+00
3.836006e-09    1.712028e-08    0.000000e+00
3.714279e-09    1.744647e-08    0.000000e+00
2.106790e-09    1.744078e-08    0.000000e+00
1.981518e-09    1.776016e-08    0.000000e+00
2.648966e-09    1.732801e-08    0.000000e+00
2.515864e-09    1.767619e-08    0.000000e+00
1.633322e-09    1.755673e-08    0.000000e+00
1.520063e-09    1.783556e-08    0.000000e+00
4.882689e-10    1.803395e-08    0.000000e+00
4.293019e-10    1.813867e-08    0.000000e+00
9.174842e-10    1.779354e-08    0.000000e+00
8.321092e-10    1.798175e-08    0.000000e+00
6.701510e-10    1.791327e-08    0.000000e+00
5.983465e-10    1.805826e-08    0.000000e+00
2.975890e-10    1.828134e-08    0.000000e+00
2.632504e-10    1.831180e-08    0.000000e+00
3.655449e-10    1.815626e-08    0.000000e+00
3.188934e-10    1.822321e-08    0.000000e+00
2.829014e-10    1.841079e-08    0.000000e+00
2.615888e-10    1.840436e-08    0.000000e+00
-7.174073e-14    -5.972811e-11    0.000000e+00
-8.031268e-12    -6.420194e-11    0.000000e+00
-1.773609e-11    -7.656198e-11    0.000000e+00
-3.115212e-11    -9.553325e-11    0.000000e+00
-5.092453e-11    -1.172176e-10    0.000000e+00
-8.109720e-11    -1.321790e-10    0.000000e+00
-1.291427e-10    -1.197936e-10    0.000000e+00
-2.087399e-10    -4.087138e-11    0.000000e+00
-3.534658e-10    1.802869e-10    0.000000e+00
-5.765817e-10    6.507532e-10    0.000000e+00
-1.113636e-09    1.617981e-09    0.000000e+00
-3.907064e-10    1.754727e-09    0.000000e+00
6.052807e-10    1.849524e-09    0.000000e+00
1.739959e-09    2.007945e-09    0.000000e+00
1.071110e-09    7.317095e-10    0.000000e+00
6.001477e-10    1.809769e-10    0.000000e+00
3.210201e-10    -4.193726e-11    0.000000e+00
1.600336e-10    -1.236197e-10    0.000000e+00
6.825772e-11    -1.414504e-10    0.000000e+00
1.951120e-11    -1.316938e-10    0.000000e+00
-2.660599e-12    -1.132536e-10    0.000000e+00
-8.904058e-12    -9.587148e-11    0.000000e+00
-6.366112e-12    -8.419345e-11    0.000000e+00
2.407285e-13    -8.027389e-11    0.000000e+00
1.256151e-13    -7.649951e-11    0.000000e+00
3.314587e-14    -7.074633e-11    0.000000e+00
4.117196e-11    -1.596583e-10    0.000000e+00
-1.896431e-11    -1.575517e-10    0.000000e+00
2.751565e-10    9.702760e-11    0.000000e+00
-9.691602e-11    1.057902e-10    0.000000e+00
4.187556e-10    5.940871e-10    0.000000e+00
-2.234696e-10    5.824722e-10    0.000000e+00
1.665336e-10    -9.437572e-11    0.000000e+00
-4.061537e-11    -9.089842e-11    0.000000e+00
8.986578e-11    -1.558322e-10    0.000000e+00
-2.391257e-11    -1.543369e-10    0.000000e+00
-2.877172e-13    -1.159060e-10    0.000000e+00
-1.352744e-11    -1.112797e-10    0.000000e+00
1.319685e-11    -1.404698e-10    0.000000e+00
-1.655708e-11    -1.369338e-10    0.000000e+00
-4.531898e-12    -9.481621e-11    0.000000e+00
-9.562172e-12    -8.955371e-11    0.000000e+00
-3.447874e-12    -8.117504e-11    0.000000e+00
-4.937374e-12    -7.559830e-11    0.000000e+00
-2.130638e-09    4.588465e-09    0.000000e+00
-1.967294e-09    7.666216e-09    0.000000e+00
-1.169281e-09    1.056792e-08    0.000000e+00
6.513497e-11    1.299452e-08    0.000000e+00
1.440644e-09    1.480374e-08    0.000000e+00
2.734314e-09    1.599901e-08    0.000000e+00
3.777790e-09    1.666457e-08    0.000000e+00
4.467601e-09    1.693004e-08    0.000000e+00
4.774442e-09    1.694657e-08    0.000000e+00
4.920899e-09    1.684213e-08    0.000000e+00
5.022596e-09    1.626876e-08    0.000000e+00
4.939800e-09    1.545644e-08    0.000000e+00
4.685414e-09    1.433388e-08    0.000000e+00
4.294247e-09    1.284351e-08    0.000000e+00
3.823332e-09    1.098242e-08    0.000000e+00
3.328161e-09    8.793806e-09    0.000000e+00
2.840367e-09    6.389316e-09    0.000000e+00
2.331869e-09    3.988046e-09    0.000000e+00
2.466550e-09    1.416525e-08    0.000000e+00
3.409121e-09    1.352962e-08    0.000000e+00
-2.977299e-10    7.180302e-09    0.000000e+00
1.222360e-09    6.756846e-09    0.000000e+00
-5.447994e-10    4.310548e-09    0.000000e+00
8.366695e-10    4.061488e-09    0.000000e+00
3.956210e-10    9.950323e-09    0.000000e+00
1.841438e-09    9.381163e-09    0.000000e+00
1.386401e-09    1.232341e-08    0.000000e+00
2.612085e-09    1.167758e-08    0.000000e+00
4.238518e-09    1.627647e-08    0.000000e+00
4.636982e-09    1.587323e-08    0.000000e+00
3.461298e-09    1.546148e-08    0.000000e+00
4.114954e-09    1.491380e-08    0.000000e+00
4.720836e-09    1.672000e-08    0.000000e+00
4.919252e-09    1.649114e-08    0.000000e+00
4.882129e-09    1.691761e-08    0.000000e+00
4.943601e-09    1.686836e-08    0.000000e+00
0.000000e+00    0.000000e+00    0.000000e+00
0.000000e+00    0.000000e+00    0.000000e+00
0.000000e+00    0.000000e+00    0.000000e+00
0.000000e+00    0.000000e+00    0.000000e+00
0.000000e+00    0.000000e+00    0.000000e+00
0.000000e+00    0.000000e+00    0.000000e+00
0.000000e+00    0.000000e+00    0.000000e+00
0.000000e+00    0.000000e+00    0.000000e+00
0.000000e+00    0.000000e+00    0.000000e+00
0.000000e+00    0.000000e+00    0.000000e+00
0.000000e+00    0.000000e+00    0.000000e+00
-1.267016e-10    2.400809e-10    0.000000e+00
-3.048250e-10    5.180508e-10    0.000000e+00
-5.152008e-10    8.376622e-10    0.000000e+00
-1.306868e-13    -4.475213e-11    0.000000e+00
-1.294439e-13    -2.763620e-11    0.000000e+00
-6.791127e-14    -1.171184e-11    0.000000e+00
-1.138359e-10    -9.090985e-11    0.000000e+00
-1.085747e-10    -4.759864e-11    0.000000e+00
-6.729177e-11    -1.404077e-11    0.000000e+00
-3.975576e-10    1.731236e-10    0.000000e+00
-3.227458e-10    1.348554e-10    0.000000e+00
-1.899014e-10    6.931032e-11    0.000000e+00
-3.660592e-10    3.346045e-10    0.000000e+00
-5.029888e-10    4.864439e-10    0.000000e+00
-1.910209e-10    1.519948e-10    0.000000e+00
-1.684253e-10    -3.209875e-11    0.000000e+00
-2.432367e-10    1.866616e-11    0.000000e+00
-1.794493e-10    -7.469640e-11    0.000000e+00
-2.699092e-10    -4.300663e-12    0.000000e+00
-1.043536e-10    -4.265166e-12    0.000000e+00
-1.494650e-10    2.040698e-11    0.000000e+00
-4.098473e-11    -6.961813e-11    0.000000e+00
-3.849057e-11    -4.064525e-11    0.000000e+00
-2.334801e-11    -1.544386e-11    0.000000e+00
-6.649090e-11    -4.684013e-11    0.000000e+00
-6.992530e-11    -8.359981e-11    0.000000e+00
-4.083716e-11    -1.630433e-11    0.000000e+00
-8.817765e-12    -2.952908e-11    0.000000e+00
-2.056325e-11    -3.411386e-11    0.000000e+00
-9.704542e-12    -4.805269e-11    0.000000e+00
-2.227232e-11    -5.668500e-11    0.000000e+00
-5.205491e-12    -1.238237e-11    0.000000e+00
-1.229468e-11    -1.375842e-11    0.000000e+00
2.857836e-09    4.328052e-08    0.000000e+00
3.656968e-09    4.498136e-08    0.000000e+00
4.068108e-09    4.233873e-08    0.000000e+00
8.588171e-10    4.282349e-08    0.000000e+00
1.621051e-09    4.455264e-08    0.000000e+00
2.064513e-09    4.181686e-08    0.000000e+00
-1.122673e-09    4.233447e-08    0.000000e+00
-3.788988e-10    4.408817e-08    0.000000e+00
1.087542e-10    4.127476e-08    0.000000e+00
-2.382845e-09    4.357505e-08    0.000000e+00
-1.839909e-09    4.069872e-08    0.000000e+00
-2.861713e-09    4.661519e-08    0.000000e+00
-1.630591e-09    4.535283e-08    0.000000e+00
-3.243465e-09    4.968041e-08    0.000000e+00
-2.057889e-09    4.840630e-08    0.000000e+00
-3.518763e-09    5.274337e-08    0.000000e+00
-2.392693e-09    5.147127e-08    0.000000e+00
-3.677007e-09    5.577172e-08    0.000000e+00
-2.626507e-09    5.451860e-08    0.000000e+00
-3.706583e-09    5.872596e-08    0.000000e+00
-2.750530e-09    5.751291e-08    0.000000e+00
-3.595117e-09    6.155728e-08    0.000000e+00
-2.755692e-09    6.041073e-08    0.000000e+00
-3.330137e-09    6.420541e-08    0.000000e+00
-2.633134e-09    6.315824e-08    0.000000e+00
-2.899513e-09    6.659719e-08    0.000000e+00
-2.374570e-09    6.568967e-08    0.000000e+00
-2.295221e-09    6.864405e-08    0.000000e+00
-1.974646e-09    6.792312e-08    0.000000e+00
-1.515220e-09    7.026133e-08    0.000000e+00
-1.428478e-09    6.976792e-08    0.000000e+00
-6.277855e-10    7.153186e-08    0.000000e+00
-7.467809e-10    7.116476e-08    0.000000e+00
8.433631e-11    7.259864e-08    0.000000e+00
1.415401e-11    7.203551e-08    0.000000e+00
-2.235373e-10    7.178594e-08    0.000000e+00
-7.113727e-12    7.189602e-08    0.000000e+00
1.448344e-12    7.178837e-08    0.000000e+00
2.577926e-10    7.163590e-08    0.000000e+00
6.972747e-10    7.079941e-08    0.000000e+00
2.121994e-10    7.140382e-08    0.000000e+00
1.023229e-09    6.931397e-08    0.000000e+00
3.668763e-10    7.016509e-08    0.000000e+00
1.276563e-09    6.737069e-08    0.000000e+00
4.823887e-10    6.839721e-08    0.000000e+00
1.499302e-09    6.508092e-08    0.000000e+00
5.913234e-10    6.623276e-08    0.000000e+00
1.717806e-09    6.253077e-08    0.000000e+00
7.168954e-10    6.376852e-08    0.000000e+00
1.950677e-09    5.979138e-08    0.000000e+00
8.746488e-10    6.108461e-08    0.000000e+00
2.211288e-09    5.692123e-08    0.000000e+00
1.075394e-09    5.824570e-08    0.000000e+00
2.508636e-09    5.396854e-08    0.000000e+00
1.326024e-09    5.530474e-08    0.000000e+00
2.847910e-09    5.097363e-08    0.000000e+00
1.630218e-09    5.230532e-08    0.000000e+00
3.231009e-09    4.796911e-08    0.000000e+00
1.988937e-09    4.928342e-08    0.000000e+00
2.400688e-09    4.626737e-08    0.000000e+00
-9.498696e-10    6.080546e-08    0.000000e+00
-1.827571e-09    5.919589e-08    0.000000e+00
-1.828359e-09    6.201807e-08    0.000000e+00
3.101466e-11    5.954661e-08    0.000000e+00
-8.958468e-11    6.233819e-08    0.000000e+00
-3.891609e-10    5.192236e-08    0.000000e+00
-1.220669e-09    5.017973e-08    0.000000e+00
-1.517828e-09    5.323312e-08    0.000000e+00
7.930354e-10    5.060714e-08    0.000000e+00
4.718391e-10    5.363759e-08    0.000000e+00
3.790877e-10    4.583269e-08    0.000000e+00
-8.374176e-10    4.712313e-08    0.000000e+00
1.178785e-09    4.757042e-08    0.000000e+00
-4.139919e-11    4.887302e-08    0.000000e+00
-6.589374e-10    5.495234e-08    0.000000e+00
-1.722194e-09    5.625150e-08    0.000000e+00
2.176458e-10    5.663041e-08    0.000000e+00
-8.467849e-10    5.792777e-08    0.000000e+00
-7.500501e-10    6.825181e-08    0.000000e+00
-1.500417e-09    6.704314e-08    0.000000e+00
-1.170210e-09    6.908240e-08    0.000000e+00
-1.530121e-10    6.729726e-08    0.000000e+00
-1.150971e-10    6.930122e-08    0.000000e+00
-9.669580e-10    6.353192e-08    0.000000e+00
-1.720152e-09    6.465878e-08    0.000000e+00
-1.483865e-10    6.494629e-08    0.000000e+00
-8.990338e-10    6.604199e-08    0.000000e+00
-5.261852e-10    7.006607e-08    0.000000e+00
-7.252817e-10    7.068137e-08    0.000000e+00
-5.349341e-11    7.084900e-08    0.000000e+00
-2.439154e-10    7.136868e-08    0.000000e+00
6.087549e-09    2.087364e-08    0.000000e+00
6.405873e-09    2.090295e-08    0.000000e+00
6.487263e-09    2.084206e-08    0.000000e+00
5.606350e-09    2.118788e-08    0.000000e+00
6.016179e-09    2.112440e-08    0.000000e+00
4.967925e-09    2.186062e-08    0.000000e+00
5.545603e-09    2.170009e-08    0.000000e+00
4.180908e-09    2.298863e-08    0.000000e+00
4.929659e-09    2.273771e-08    0.000000e+00
3.354691e-09    2.447648e-08    0.000000e+00
4.235081e-09    2.413333e-08    0.000000e+00
2.517442e-09    2.625407e-08    0.000000e+00
3.502153e-09    2.581528e-08    0.000000e+00
1.689620e-09    2.827207e-08    0.000000e+00
2.757389e-09    2.773370e-08    0.000000e+00
8.877586e-10    3.048871e-08    0.000000e+00
2.019576e-09    2.984874e-08    0.000000e+00
1.247574e-10    3.286837e-08    0.000000e+00
1.303920e-09    3.212654e-08    0.000000e+00
-5.892961e-10    3.538046e-08    0.000000e+00
6.223468e-10    3.453771e-08    0.000000e+00
-1.246442e-09    3.799856e-08    0.000000e+00
-1.567704e-11    3.705701e-08    0.000000e+00
-6.020358e-10    3.966245e-08    0.000000e+00
4.454805e-09    4.004470e-08    0.000000e+00
3.256337e-09    4.088753e-08    0.000000e+00
4.855637e-09    3.779725e-08    0.000000e+00
3.687641e-09    3.854248e-08    0.000000e+00
5.263002e-09    3.560778e-08    0.000000e+00
4.136894e-09    3.625493e-08    0.000000e+00
5.667615e-09    3.348894e-08    0.000000e+00
4.595171e-09    3.403894e-08    0.000000e+00
6.058081e-09    3.145491e-08    0.000000e+00
5.052131e-09    3.190977e-08    0.000000e+00
6.420710e-09    2.952195e-08    0.000000e+00
5.495131e-09    2.988490e-08    0.000000e+00
6.738982e-09    2.770803e-08    0.000000e+00
5.908888e-09    2.798408e-08    0.000000e+00
6.994452e-09    2.603599e-08    0.000000e+00
6.275114e-09    2.623103e-08    0.000000e+00
7.163911e-09    2.452147e-08    0.000000e+00
6.572346e-09    2.465191e-08    0.000000e+00
7.242883e-09    2.321753e-08    0.000000e+00
6.781594e-09    2.328556e-08    0.000000e+00
7.147323e-09    2.199063e-08    0.000000e+00
6.887831e-09    2.208807e-08    0.000000e+00
6.958951e-09    2.129239e-08    0.000000e+00
6.881766e-09    2.102947e-08    0.000000e+00
6.672017e-09    2.108928e-08    0.000000e+00
6.757831e-09    2.140210e-08    0.000000e+00
6.913923e-09    2.111665e-08    0.000000e+00
6.419862e-09    2.111034e-08    0.000000e+00
6.718050e-09    2.099295e-08    0.000000e+00
4.092677e-09    2.877048e-08    0.000000e+00
4.529611e-09    3.032945e-08    0.000000e+00
5.032645e-09    2.833879e-08    0.000000e+00
3.093393e-09    2.927478e-08    0.000000e+00
3.753667e-09    2.725649e-08    0.000000e+00
2.359115e-09    3.539027e-08    0.000000e+00
2.992328e-09    3.698777e-08    0.000000e+00
3.496733e-09    3.467400e-08    0.000000e+00
1.192781e-09    3.618688e-08    0.000000e+00
1.800543e-09    3.376604e-08    0.000000e+00
1.309661e-09    4.028300e-08    0.000000e+00
2.509538e-09    3.937284e-08    0.000000e+00
6.237815e-10    3.869563e-08    0.000000e+00
1.817238e-09    3.780127e-08    0.000000e+00
2.926145e-09    3.306776e-08    0.000000e+00
4.012976e-09    3.244834e-08    0.000000e+00
2.437772e-09    3.145396e-08    0.000000e+00
3.508180e-09    3.085355e-08    0.000000e+00
5.682959e-09    2.359791e-08    0.000000e+00
5.925661e-09    2.484785e-08    0.000000e+00
6.269844e-09    2.341290e-08    0.000000e+00
5.012884e-09    2.383973e-08    0.000000e+00
5.564726e-09    2.252662e-08    0.000000e+00
4.663968e-09    2.684489e-08    0.000000e+00
5.504817e-09    2.650093e-08    0.000000e+00
4.401038e-09    2.543092e-08    0.000000e+00
5.203217e-09    2.510665e-08    0.000000e+00
6.091709e-09    2.235174e-08    0.000000e+00
6.544557e-09    2.222390e-08    0.000000e+00
6.040939e-09    2.159139e-08    0.000000e+00
6.436694e-09    2.149087e-08    0.000000e+00
3.190494e-10    1.847377e-08    0.000000e+00
3.748352e-10    1.846846e-08    0.000000e+00
2.820688e-10    1.841568e-08    0.000000e+00
3.180886e-10    1.852556e-08    0.000000e+00
3.603025e-10    1.854551e-08    0.000000e+00
2.817061e-10    1.845217e-08    0.000000e+00
3.323703e-10    1.856382e-08    0.000000e+00
3.617373e-10    1.861192e-08    0.000000e+00
2.959865e-10    1.847777e-08    0.000000e+00
3.781781e-10    1.866293e-08    0.000000e+00
3.241425e-10    1.848910e-08    0.000000e+00
4.877775e-10    1.884552e-08    0.000000e+00
4.176487e-10    1.871806e-08    0.000000e+00
6.611447e-10    1.904429e-08    0.000000e+00
5.612930e-10    1.888404e-08    0.000000e+00
9.073314e-10    1.926170e-08    0.000000e+00
7.716098e-10    1.906416e-08    0.000000e+00
1.235759e-09    1.949888e-08    0.000000e+00
1.057744e-09    1.926018e-08    0.000000e+00
1.654612e-09    1.975493e-08    0.000000e+00
1.428431e-09    1.947280e-08    0.000000e+00
2.168734e-09    2.002620e-08    0.000000e+00
1.890299e-09    1.970119e-08    0.000000e+00
2.776984e-09    2.030533e-08    0.000000e+00
2.445675e-09    1.994240e-08    0.000000e+00
3.469037e-09    2.058033e-08    0.000000e+00
3.089908e-09    2.019067e-08    0.000000e+00
4.221609e-09    2.083362e-08    0.000000e+00
3.808148e-09    2.043666e-08    0.000000e+00
4.994542e-09    2.104076e-08    0.000000e+00
4.571791e-09    2.066671e-08    0.000000e+00
5.724973e-09    2.117008e-08    0.000000e+00
5.334289e-09    2.086215e-08    0.000000e+00
6.324889e-09    2.117459e-08    0.000000e+00
6.026770e-09    2.099731e-08    0.000000e+00
6.619659e-09    2.101674e-08    0.000000e+00
6.545464e-09    2.104255e-08    0.000000e+00
6.690843e-09    2.096963e-08    0.000000e+00
6.523335e-09    2.042850e-08    0.000000e+00
6.803814e-09    2.090647e-08    0.000000e+00
6.035838e-09    2.001805e-08    0.000000e+00
6.375764e-09    2.046828e-08    0.000000e+00
5.404835e-09    1.966828e-08    0.000000e+00
5.806111e-09    2.012174e-08    0.000000e+00
4.712639e-09    1.939790e-08    0.000000e+00
5.122011e-09    1.982398e-08    0.000000e+00
4.009055e-09    1.918773e-08    0.000000e+00
4.400642e-09    1.957874e-08    0.000000e+00
3.333789e-09    1.902702e-08    0.000000e+00
3.689090e-09    1.937635e-08    0.000000e+00
2.712232e-09    1.890400e-08    0.000000e+00
3.022265e-09    1.920980e-08    0.000000e+00
2.159653e-09    1.880889e-08    0.000000e+00
2.421315e-09    1.907173e-08    0.000000e+00
1.683206e-09    1.873341e-08    0.000000e+00
1.897630e-09    1.895569e-08    0.000000e+00
1.284139e-09    1.867088e-08    0.000000e+00
1.455050e-09    1.885603e-08    0.000000e+00
9.596212e-10    1.861619e-08    0.000000e+00
1.092132e-09    1.876811e-08    0.000000e+00
7.043107e-10    1.856566e-08    0.000000e+00
8.040086e-10    1.868825e-08    0.000000e+00
5.116396e-10    1.851685e-08    0.000000e+00
5.839492e-10    1.861373e-08    0.000000e+00
4.246327e-10    1.854267e-08    0.000000e+00
2.425480e-09    1.950579e-08    0.000000e+00
2.148327e-09    1.961768e-08    0.000000e+00
2.741052e-09    1.983255e-08    0.000000e+00
2.144527e-09    1.921390e-08    0.000000e+00
2.718200e-09    1.937008e-08    0.000000e+00
7.787979e-10    1.888091e-08    0.000000e+00
6.581190e-10    1.889626e-08    0.000000e+00
9.063902e-10    1.905553e-08    0.000000e+00
6.721561e-10    1.873465e-08    0.000000e+00
9.234879e-10    1.883849e-08    0.000000e+00
4.131273e-10    1.863682e-08    0.000000e+00
4.794123e-10    1.874907e-08    0.000000e+00
4.870148e-10    1.863761e-08    0.000000e+00
5.640951e-10    1.875463e-08    0.000000e+00
1.432316e-09    1.916604e-08    0.000000e+00
1.232972e-09    1.922841e-08    0.000000e+00
1.645424e-09    1.941582e-08    0.000000e+00
1.248734e-09    1.895122e-08    0.000000e+00
1.654462e-09    1.907537e-08    0.000000e+00
1.065582e-09    1.901745e-08    0.000000e+00
1.884913e-09    1.932838e-08    0.000000e+00
5.238806e-09    2.036268e-08    0.000000e+00
4.914019e-09    2.050847e-08    0.000000e+00
5.652033e-09    2.071367e-08    0.000000e+00
4.815091e-09    1.997754e-08    0.000000e+00
5.538522e-09    2.023496e-08    0.000000e+00
3.745966e-09    1.990769e-08    0.000000e+00
3.415059e-09    2.005705e-08    0.000000e+00
4.150751e-09    2.028528e-08    0.000000e+00
3.367918e-09    1.954731e-08    0.000000e+00
4.076707e-09    1.974883e-08    0.000000e+00
3.050056e-09    1.969900e-08    0.000000e+00
4.488708e-09    2.013017e-08    0.000000e+00
6.505849e-09    2.083422e-08    0.000000e+00
6.291326e-09    2.088569e-08    0.000000e+00
6.708186e-09    2.099248e-08    0.000000e+00
6.180665e-09    2.052290e-08    0.000000e+00
6.676934e-09    2.083404e-08    0.000000e+00
5.937072e-09    2.059983e-08    0.000000e+00
6.825352e-09    2.101178e-08    0.000000e+00
4.697453e-09    1.716351e-08    0.000000e+00
4.417300e-09    1.743808e-08    0.000000e+00
4.801006e-09    1.706387e-08    0.000000e+00
4.739068e-09    1.704228e-08    0.000000e+00
4.527416e-09    1.719848e-08    0.000000e+00
4.862940e-09    1.699754e-08    0.000000e+00
4.732604e-09    1.692623e-08    0.000000e+00
4.578261e-09    1.701452e-08    0.000000e+00
4.847269e-09    1.696268e-08    0.000000e+00
4.593517e-09    1.681884e-08    0.000000e+00
4.790743e-09    1.690855e-08    0.000000e+00
4.191373e-09    1.677919e-08    0.000000e+00
4.394071e-09    1.691649e-08    0.000000e+00
3.655980e-09    1.681331e-08    0.000000e+00
3.887008e-09    1.695759e-08    0.000000e+00
3.074841e-09    1.690505e-08    0.000000e+00
3.303099e-09    1.704066e-08    0.000000e+00
2.508633e-09    1.703378e-08    0.000000e+00
2.717202e-09    1.715022e-08    0.000000e+00
1.993055e-09    1.718436e-08    0.000000e+00
2.173389e-09    1.727659e-08    0.000000e+00
1.546361e-09    1.734601e-08    0.000000e+00
1.695062e-09    1.741260e-08    0.000000e+00
1.174979e-09    1.751145e-08    0.000000e+00
1.292155e-09    1.755319e-08    0.000000e+00
8.778740e-10    1.767636e-08    0.000000e+00
9.656096e-10    1.769512e-08    0.000000e+00
6.500429e-10    1.783889e-08    0.000000e+00
7.112213e-10    1.783671e-08    0.000000e+00
4.851976e-10    1.799918e-08    0.000000e+00
5.226318e-10    1.797766e-08    0.000000e+00
3.777622e-10    1.815893e-08    0.000000e+00
3.935800e-10    1.811878e-08    0.000000e+00
3.242541e-10    1.832100e-08    0.000000e+00
3.195066e-10    1.826180e-08    0.000000e+00
2.986040e-10    1.840916e-08    0.000000e+00
2.409631e-10    1.835907e-08    0.000000e+00
2.561498e-10    1.839692e-08    0.000000e+00
2.566211e-10    1.830454e-08    0.000000e+00
2.509643e-10    1.832288e-08    0.000000e+00
3.272699e-10    1.825407e-08    0.000000e+00
3.003862e-10    1.825241e-08    0.000000e+00
4.545083e-10    1.820958e-08    0.000000e+00
4.047954e-10    1.818651e-08    0.000000e+00
6.427813e-10    1.817234e-08    0.000000e+00
5.677139e-10    1.812599e-08    0.000000e+00
8.983493e-10    1.814227e-08    0.000000e+00
7.949834e-10    1.807100e-08    0.000000e+00
1.227687e-09    1.811715e-08    0.000000e+00
1.093407e-09    1.802045e-08    0.000000e+00
1.635223e-09    1.809168e-08    0.000000e+00
1.468773e-09    1.797135e-08    0.000000e+00
2.120302e-09    1.805649e-08    0.000000e+00
1.923153e-09    1.791813e-08    0.000000e+00
2.673369e-09    1.799700e-08    0.000000e+00
2.451413e-09    1.785178e-08    0.000000e+00
3.271026e-09    1.789276e-08    0.000000e+00
3.036787e-09    1.775920e-08    0.000000e+00
3.872915e-09    1.771576e-08    0.000000e+00
3.646213e-09    1.762261e-08    0.000000e+00
4.227482e-09    1.742341e-08    0.000000e+00
1.185332e-09    1.779291e-08    0.000000e+00
1.425349e-09    1.761548e-08    0.000000e+00
1.067816e-09    1.773395e-08    0.000000e+00
1.318876e-09    1.787198e-08    0.000000e+00
9.754260e-10    1.794472e-08    0.000000e+00
3.172615e-09    1.739679e-08    0.000000e+00
3.540274e-09    1.716911e-08    0.000000e+00
2.940016e-09    1.727331e-08    0.000000e+00
3.410245e-09    1.751523e-08    0.000000e+00
2.805400e-09    1.762850e-08    0.000000e+00
4.330589e-09    1.716098e-08    0.000000e+00
4.114518e-09    1.707963e-08    0.000000e+00
4.009435e-09    1.737201e-08    0.000000e+00
3.777805e-09    1.728086e-08    0.000000e+00
2.042770e-09    1.760152e-08    0.000000e+00
2.370270e-09    1.738391e-08    0.000000e+00
1.860699e-09    1.749845e-08    0.000000e+00
2.240368e-09    1.771977e-08    0.000000e+00
1.741077e-09    1.779855e-08    0.000000e+00
2.581771e-09    1.750248e-08    0.000000e+00
1.574945e-09    1.769754e-08    0.000000e+00
4.571444e-10    1.808772e-08    0.000000e+00
5.714502e-10    1.797345e-08    0.000000e+00
4.198437e-10    1.809483e-08    0.000000e+00
5.061501e-10    1.809796e-08    0.000000e+00
3.670723e-10    1.818042e-08    0.000000e+00
8.729621e-10    1.788917e-08    0.000000e+00
7.852060e-10    1.785330e-08    0.000000e+00
7.067029e-10    1.801957e-08    0.000000e+00
6.325098e-10    1.798723e-08    0.000000e+00
2.788176e-10    1.829798e-08    0.000000e+00
3.248888e-10    1.821835e-08    0.000000e+00
2.835488e-10    1.834539e-08    0.000000e+00
2.843524e-10    1.826700e-08    0.000000e+00
2.555849e-10    1.835757e-08    0.000000e+00
3.406339e-10    1.819111e-08    0.000000e+00
2.705383e-10    1.840909e-08    0.000000e+00
-3.908167e-12    -6.092036e-11    0.000000e+00
-2.127103e-14    -6.593611e-11    0.000000e+00
-1.026410e-13    -5.268480e-11    0.000000e+00
-1.253437e-11    -6.941675e-11    0.000000e+00
-6.460789e-12    -7.066986e-11    0.000000e+00
-9.109307e-12    -5.661100e-11    0.000000e+00
-2.379967e-11    -8.536836e-11    0.000000e+00
-1.364061e-11    -8.405568e-11    0.000000e+00
-2.061206e-11    -6.721802e-11    0.000000e+00
-3.998410e-11    -1.064709e-10    0.000000e+00
-2.246060e-11    -1.047978e-10    0.000000e+00
-3.734168e-11    -8.332736e-11    0.000000e+00
-6.422906e-11    -1.265634e-10    0.000000e+00
-3.421611e-11    -1.289986e-10    0.000000e+00
-6.282327e-11    -1.013890e-10    0.000000e+00
-1.020844e-10    -1.316229e-10    0.000000e+00
-5.145209e-11    -1.474756e-10    0.000000e+00
-1.019660e-10    -1.124882e-10    0.000000e+00
-1.628774e-10    -9.287832e-11    0.000000e+00
-7.975411e-11    -1.402227e-10    0.000000e+00
-1.615258e-10    -9.834671e-11    0.000000e+00
-2.707523e-10    4.283372e-11    0.000000e+00
-1.341115e-10    -6.965160e-11    0.000000e+00
-2.537983e-10    -2.037272e-11    0.000000e+00
-4.467171e-10    3.658355e-10    0.000000e+00
-2.401783e-10    1.403141e-10    0.000000e+00
-3.897049e-10    1.759905e-10    0.000000e+00
-8.078419e-10    1.002261e-09    0.000000e+00
-4.643562e-10    6.178017e-10    0.000000e+00
-6.047616e-10    5.947732e-10    0.000000e+00
-8.032197e-10    1.662427e-09    0.000000e+00
-1.755512e-09    3.157034e-09    0.000000e+00
-7.128451e-10    1.187122e-09    0.000000e+00
8.611046e-11    1.803593e-09    0.000000e+00
-3.187657e-10    1.019132e-09    0.000000e+00
-4.314098e-10    2.885040e-09    0.000000e+00
1.152867e-09    1.910826e-09    0.000000e+00
5.163371e-10    1.092566e-09    0.000000e+00
7.263586e-10    2.853285e-09    0.000000e+00
1.397843e-09    1.249699e-09    0.000000e+00
2.070716e-09    2.905513e-09    0.000000e+00
8.087045e-10    3.951653e-10    0.000000e+00
7.657010e-10    6.461867e-10    0.000000e+00
4.413919e-10    4.444567e-11    0.000000e+00
4.561254e-10    1.269892e-10    0.000000e+00
2.293806e-10    -9.380247e-11    0.000000e+00
2.569265e-10    -7.405255e-11    0.000000e+00
1.072418e-10    -1.376670e-10    0.000000e+00
1.337952e-10    -1.430631e-10    0.000000e+00
3.960800e-11    -1.385345e-10    0.000000e+00
6.075886e-11    -1.523379e-10    0.000000e+00
5.789265e-12    -1.227916e-10    0.000000e+00
2.039142e-11    -1.370145e-10    0.000000e+00
-7.320085e-12    -1.040499e-10    0.000000e+00
1.101928e-12    -1.150013e-10    0.000000e+00
-8.434720e-12    -8.914846e-11    0.000000e+00
-5.213389e-12    -9.546786e-11    0.000000e+00
-3.443896e-12    -8.114476e-11    0.000000e+00
-4.212163e-12    -8.265428e-11    0.000000e+00
1.586232e-13    -7.830573e-11    0.000000e+00
8.014791e-14    -7.413817e-11    0.000000e+00
-1.890005e-12    -7.765352e-11    0.000000e+00
-2.500916e-12    -7.196771e-11    0.000000e+00
1.323690e-11    -1.615587e-10    0.000000e+00
6.246727e-11    -1.622542e-10    0.000000e+00
2.495939e-11    -1.515534e-10    0.000000e+00
-2.055647e-11    -1.605628e-10    0.000000e+00
-1.768969e-11    -1.487183e-10    0.000000e+00
8.400189e-11    9.122257e-11    0.000000e+00
3.416213e-10    2.868946e-10    0.000000e+00
2.168098e-10    -2.321981e-11    0.000000e+00
-1.460038e-10    2.955367e-10    0.000000e+00
-6.059467e-11    -1.445902e-11    0.000000e+00
8.007346e-11    5.731645e-10    0.000000e+00
6.325182e-11    -9.980353e-11    0.000000e+00
1.242783e-10    -1.357437e-10    0.000000e+00
-2.923930e-11    -1.333649e-10    0.000000e+00
3.518509e-11    -1.595258e-10    0.000000e+00
-5.656459e-12    -1.148515e-10    0.000000e+00
4.969577e-12    -1.281289e-10    0.000000e+00
-3.325668e-12    -1.045729e-10    0.000000e+00
-1.514276e-11    -1.239886e-10    0.000000e+00
-1.164682e-11    -9.957375e-11    0.000000e+00
8.368401e-14    -1.406273e-10    0.000000e+00
-6.257111e-12    -9.300990e-11    0.000000e+00
-4.481309e-12    -8.690732e-11    0.000000e+00
-7.311635e-12    -8.145152e-11    0.000000e+00
-3.814645e-12    -7.897246e-11    0.000000e+00
-2.093339e-09    6.145296e-09    0.000000e+00
-1.262961e-09    4.421180e-09    0.000000e+00
-1.591689e-09    9.143539e-09    0.000000e+00
-1.117584e-09    7.416833e-09    0.000000e+00
-5.464510e-10    1.183444e-08    0.000000e+00
-3.670066e-10    1.025130e-08    0.000000e+00
7.815298e-10    1.395871e-08    0.000000e+00
7.371992e-10    1.265691e-08    0.000000e+00
2.132879e-09    1.545750e-08    0.000000e+00
1.962432e-09    1.448493e-08    0.000000e+00
3.310429e-09    1.637765e-08    0.000000e+00
3.104337e-09    1.573294e-08    0.000000e+00
4.178485e-09    1.682972e-08    0.000000e+00
4.013318e-09    1.647457e-08    0.000000e+00
4.672830e-09    1.695747e-08    0.000000e+00
4.598564e-09    1.682966e-08    0.000000e+00
4.831957e-09    1.693690e-08    0.000000e+00
4.993389e-09    1.657699e-08    0.000000e+00
4.946221e-09    1.684948e-08    0.000000e+00
5.006161e-09    1.588818e-08    0.000000e+00
4.986524e-09    1.637808e-08    0.000000e+00
4.839866e-09    1.492395e-08    0.000000e+00
4.803359e-09    1.566828e-08    0.000000e+00
4.518680e-09    1.361871e-08    0.000000e+00
4.411537e-09    1.463266e-08    0.000000e+00
4.088520e-09    1.193984e-08    0.000000e+00
3.855825e-09    1.319988e-08    0.000000e+00
3.607138e-09    9.906192e-09    0.000000e+00
3.211199e-09    1.134511e-08    0.000000e+00
3.121161e-09    7.591939e-09    0.000000e+00
2.565283e-09    9.099986e-09    0.000000e+00
2.633551e-09    5.156052e-09    0.000000e+00
1.995311e-09    6.576888e-09    0.000000e+00
1.536148e-09    4.013418e-09    0.000000e+00
2.943412e-09    1.385243e-08    0.000000e+00
1.954019e-09    1.329686e-08    0.000000e+00
3.004130e-09    1.486357e-08    0.000000e+00
3.039769e-09    1.264640e-08    0.000000e+00
3.797881e-09    1.426356e-08    0.000000e+00
4.588846e-10    6.964286e-09    0.000000e+00
-4.501228e-10    5.711229e-09    0.000000e+00
3.630406e-11    8.583085e-09    0.000000e+00
1.029625e-09    5.392938e-09    0.000000e+00
1.540204e-09    8.087345e-09    0.000000e+00
1.522248e-10    4.164317e-09    0.000000e+00
1.119477e-09    9.664928e-09    0.000000e+00
9.002674e-10    1.118100e-08    0.000000e+00
2.246504e-09    1.056524e-08    0.000000e+00
2.001995e-09    1.200434e-08    0.000000e+00
4.446266e-09    1.607847e-08    0.000000e+00
3.896601e-09    1.591061e-08    0.000000e+00
4.527245e-09    1.652876e-08    0.000000e+00
4.414791e-09    1.542965e-08    0.000000e+00
4.816312e-09    1.621030e-08    0.000000e+00
3.795589e-09    1.519253e-08    0.000000e+00
4.828627e-09    1.660751e-08    0.000000e+00
4.845324e-09    1.683811e-08    0.000000e+00
4.965980e-09    1.669981e-08    0.000000e+00
4.920566e-09    1.689334e-08    0.000000e+00
0.000000e+00    0.000000e+00    0.000000e+00
-3.112676e-14    -5.239934e-12    0.000000e+00
0.000000e+00    0.000000e+00    0.000000e+00
-2.668561e-12    -5.471229e-12    0.000000e+00
0.000000e+00    0.000000e+00    0.000000e+00
-6.352278e-12    -5.883795e-12    0.000000e+00
0.000000e+00    0.000000e+00    0.000000e+00
-1.218742e-11    -6.247820e-12    0.000000e+00
0.000000e+00    0.000000e+00    0.000000e+00
-2.151755e-11    -5.993677e-12    0.000000e+00
0.000000e+00    0.000000e+00    0.000000e+00
-3.580202e-11    -4.034936e-12    0.000000e+00
0.000000e+00    0.000000e+00    0.000000e+00
-5.599555e-11    1.563522e-12    0.000000e+00
0.000000e+00    0.000000e+00    0.000000e+00
-8.090553e-11    1.375009e-11    0.000000e+00
0.000000e+00    0.000000e+00    0.000000e+00
-1.035690e-10    3.611784e-11    0.000000e+00
0.000000e+00    0.000000e+00    0.000000e+00
-1.077198e-10    6.993000e-11    0.000000e+00
-4.883293e-11    1.143887e-10    0.000000e+00
-2.105186e-10    3.732440e-10    0.000000e+00
-1.720747e-10    1.991742e-10    0.000000e+00
-3.831041e-10    6.606778e-10    0.000000e+00
-3.405800e-10    4.359044e-10    0.000000e+00
-5.807332e-10    7.414701e-10    0.000000e+00
-1.298853e-13    -3.626344e-11    0.000000e+00
-4.654930e-12    -4.569441e-11    0.000000e+00
-9.820798e-14    -1.932567e-11    0.000000e+00
-4.198631e-12    -2.822743e-11    0.000000e+00
-2.465225e-12    -1.199319e-11    0.000000e+00
-1.161036e-10    -6.870940e-11    0.000000e+00
-1.434806e-10    -8.736075e-11    0.000000e+00
-8.956865e-11    -8.892449e-11    0.000000e+00
-9.198346e-11    -2.892595e-11    0.000000e+00
-1.362496e-10    -4.295354e-11    0.000000e+00
-8.546172e-11    -4.846772e-11    0.000000e+00
-8.448504e-11    -1.038242e-11    0.000000e+00
-5.273677e-11    -1.579169e-11    0.000000e+00
-3.666236e-10    1.574894e-10    0.000000e+00
-4.597844e-10    3.227331e-10    0.000000e+00
-3.303360e-10    6.880768e-11    0.000000e+00
-2.624668e-10    1.043120e-10    0.000000e+00
-3.497146e-10    2.209618e-10    0.000000e+00
-2.848451e-10    6.637297e-11    0.000000e+00
-1.995067e-10    1.077211e-10    0.000000e+00
-1.722281e-10    4.209466e-11    0.000000e+00
-4.426361e-10    4.151159e-10    0.000000e+00
-2.801678e-10    2.405758e-10    0.000000e+00
-2.043743e-10    -1.307920e-11    0.000000e+00
-1.807297e-10    -5.238760e-11    0.000000e+00
-1.422153e-10    -1.576004e-11    0.000000e+00
-2.675456e-10    9.942658e-12    0.000000e+00
-2.043380e-10    2.206058e-11    0.000000e+00
-2.212046e-10    -4.897330e-11    0.000000e+00
-1.263953e-10    5.858332e-12    0.000000e+00
-4.137080e-11    -5.508119e-11    0.000000e+00
-5.382220e-11    -7.685136e-11    0.000000e+00
-3.057903e-11    -6.276179e-11    0.000000e+00
-3.228913e-11    -2.716037e-11    0.000000e+00
-5.092474e-11    -4.405971e-11    0.000000e+00
-2.848300e-11    -3.726175e-11    0.000000e+00
-3.107559e-11    -1.612648e-11    0.000000e+00
-1.714416e-11    -1.466469e-11    0.000000e+00
-7.104778e-11    -6.503391e-11    0.000000e+00
-5.607263e-11    -3.025575e-11    0.000000e+00
-1.409749e-11    -3.152592e-11    0.000000e+00
-9.605755e-12    -3.885685e-11    0.000000e+00
-7.296846e-12    -2.055194e-11    0.000000e+00
-2.224630e-11    -4.543246e-11    0.000000e+00
-1.712196e-11    -2.336105e-11    0.000000e+00
-1.539955e-11    -5.173646e-11    0.000000e+00
-8.367362e-12    -1.304357e-11    0.000000e+00

CELL_DATA      259
TENSORS Element_Stress1.400000e+00 double
-9.776260e+02 -4.230687e+02        0
-4.230687e+02 -1.925985e+02        0
       0        0 1.765589e+02

-9.545619e+02 -3.549352e+02        0
-3.549352e+02 -1.825840e+02        0
       0        0 -4.440616e+02

-8.900023e+02 -4.209526e+02        0
-4.209526e+02 -2.067775e+02        0
       0        0 3.342016e+02

-7.729221e+02 -3.197399e+02        0
-3.197399e+02 -1.804783e+02        0
       0        0 -1.918743e+02

-1.064027e+03 -3.931359e+02        0
-3.931359e+02 -1.451903e+02        0
       0        0 8.299154e+02

-1.071938e+03 -4.201013e+02        0
-4.201013e+02 -1.648347e+02        0
       0        0 8.972514e+02

-1.130732e+03 -3.830111e+02        0
-3.830111e+02 -1.824615e+02        0
       0        0 -7.009063e+02

-1.063767e+03 -4.254396e+02        0
-4.254396e+02 -1.795448e+02        0
       0        0 1.745358e+01

-1.060247e+03 -3.696775e+02        0
-3.696775e+02 -1.285520e+02        0
       0        0 7.605701e+02

-2.036904e+03 -6.457706e+02        0
-6.457706e+02 -2.853011e+02        0
       0        0 -1.845858e+03

8.829122e+02 -2.975631e+02        0
-2.975631e+02 -4.810498e+01        0
       0        0 1.192891e+03

-2.089747e+03 -6.424796e+02        0
-6.424796e+02 -1.211256e+03        0
       0        0 -1.897902e+03

1.412168e+03 -2.346559e+02        0
-2.346559e+02 -1.915309e+02        0
       0        0 1.471374e+03

-4.773203e+03 -4.919616e+02        0
-4.919616e+02 -5.703414e+02        0
       0        0 -4.858147e+03

-6.012288e+03 -1.409504e+03        0
-1.409504e+03 -3.169100e+03        0
       0        0 -5.700129e+03

3.837322e+02 -2.591638e+02        0
-2.591638e+02 -2.886929e+01        0
       0        0 9.064913e+02

-1.918778e+03 -5.894603e+02        0
-5.894603e+02 -1.440484e+02        0
       0        0 -1.763694e+03

-4.149630e+03 -4.822285e+02        0
-4.822285e+02 -2.971520e+02        0
       0        0 -4.360489e+03

-1.757098e+03 -5.270969e+02        0
-5.270969e+02 -1.219404e+02        0
       0        0 -1.488371e+03

-3.214585e+02 -2.292904e+02        0
-2.292904e+02 -3.932691e+01        0
       0        0 5.576591e+02

-1.832186e+03 -5.538159e+02        0
-5.538159e+02 -1.237923e+02        0
       0        0 -1.639545e+03

-1.254578e+01 -2.340587e+02        0
-2.340587e+02 -3.234572e+01        0
       0        0 6.963071e+02

-3.213436e+03 -5.046006e+02        0
-5.046006e+02 -1.955211e+02        0
       0        0 -3.477322e+03

-3.646342e+03 -4.985008e+02        0
-4.985008e+02 -2.264385e+02        0
       0        0 -3.910134e+03

-5.600189e+02 -2.357691e+02        0
-2.357691e+02 -4.708075e+01        0
       0        0 4.765445e+02

-1.680396e+03 -5.050294e+02        0
-5.050294e+02 -1.249213e+02        0
       0        0 -1.317967e+03

-2.836668e+03 -5.029742e+02        0
-5.029742e+02 -1.821033e+02        0
       0        0 -3.063873e+03

-1.516551e+03 -4.706722e+02        0
-4.706722e+02 -1.359151e+02        0
       0        0 -9.430824e+02

-8.672167e+02 -2.657590e+02        0
-2.657590e+02 -6.490381e+01        0
       0        0 4.447622e+02

-1.600210e+03 -4.864333e+02        0
-4.864333e+02 -1.300056e+02        0
       0        0 -1.134692e+03

-7.387588e+02 -2.488559e+02        0
-2.488559e+02 -5.563153e+01        0
       0        0 4.419247e+02

-2.217042e+03 -4.837782e+02        0
-4.837782e+02 -1.739657e+02        0
       0        0 -2.296026e+03

-2.507120e+03 -4.955128e+02        0
-4.955128e+02 -1.760851e+02        0
       0        0 -2.670081e+03

-9.544141e+02 -2.846902e+02        0
-2.846902e+02 -7.497916e+01        0
       0        0 4.772422e+02

-1.429723e+03 -4.574189e+02        0
-4.574189e+02 -1.423133e+02        0
       0        0 -7.466868e+02

-1.959430e+03 -4.688964e+02        0
-4.688964e+02 -1.738034e+02        0
       0        0 -1.941039e+03

-1.248050e+03 -4.374485e+02        0
-4.374485e+02 -1.570994e+02        0
       0        0 -3.501964e+02

-1.039501e+03 -3.252716e+02        0
-3.252716e+02 -9.828365e+01        0
       0        0 6.040087e+02

-1.340066e+03 -4.464129e+02        0
-4.464129e+02 -1.492798e+02        0
       0        0 -5.482771e+02

-1.009066e+03 -3.046439e+02        0
-3.046439e+02 -8.601399e+01        0
       0        0 5.324278e+02

-1.514714e+03 -4.316038e+02        0
-4.316038e+02 -1.759197e+02        0
       0        0 -1.283064e+03

-1.727526e+03 -4.514819e+02        0
-4.514819e+02 -1.746345e+02        0
       0        0 -1.603916e+03

-1.053837e+03 -3.470188e+02        0
-3.470188e+02 -1.122508e+02        0
       0        0 6.853090e+02

-1.154076e+03 -4.302207e+02        0
-4.302207e+02 -1.667589e+02        0
       0        0 -1.560827e+02

-1.314814e+03 -4.086956e+02        0
-4.086956e+02 -1.771445e+02        0
       0        0 -9.773800e+02

-1.086951e+03 -4.519000e+02        0
-4.519000e+02 -1.882952e+02        0
       0        0 9.578379e+02

-8.012738e+02 -4.186301e+02        0
-4.186301e+02 -2.229968e+02        0
       0        0 4.856571e+02

-5.831680e+02 -2.759642e+02        0
-2.759642e+02 -1.754199e+02        0
       0        0 5.485146e+01

-1.147927e+03 -5.351464e+02        0
-5.351464e+02 -2.505610e+02        0
       0        0 1.045887e+03

-1.111510e+03 -4.898111e+02        0
-4.898111e+02 -2.165312e+02        0
       0        0 1.008479e+03

-1.699188e+02 -1.555050e+02        0
-1.555050e+02 -1.515226e+02        0
       0        0 5.328019e+02

-6.218222e+02 -4.124230e+02        0
-4.124230e+02 -2.621088e+02        0
       0        0 7.627187e+02

-3.828131e+02 -2.218495e+02        0
-2.218495e+02 -1.661831e+02        0
       0        0 2.964648e+02

-7.117854e+02 -4.158616e+02        0
-4.158616e+02 -2.414174e+02        0
       0        0 6.291275e+02

-1.198080e+03 -5.895595e+02        0
-5.895595e+02 -2.916044e+02        0
       0        0 1.066601e+03

-5.320042e+02 -4.081070e+02        0
-4.081070e+02 -2.848693e+02        0
       0        0 8.841470e+02

5.746899e+01 -7.534015e+01        0
-7.534015e+01 -1.292865e+02        0
       0        0 7.634745e+02

-1.345192e+03 -7.305790e+02        0
-7.305790e+02 -3.985987e+02        0
       0        0 1.043522e+03

-1.264432e+03 -6.530817e+02        0
-6.530817e+02 -3.395289e+02        0
       0        0 1.067075e+03

5.638536e+02 1.349102e+02        0
1.349102e+02 -5.683825e+01        0
       0        0 1.202343e+03

-3.625923e+02 -3.976318e+02        0
-3.976318e+02 -3.367310e+02        0
       0        0 1.076453e+03

3.012697e+02 2.034429e+01        0
2.034429e+01 -9.978818e+01        0
       0        0 9.867771e+02

-4.431147e+02 -4.039140e+02        0
-4.039140e+02 -3.092969e+02        0
       0        0 9.907009e+02

-1.451067e+03 -8.044691e+02        0
-8.044691e+02 -4.588255e+02        0
       0        0 9.927119e+02

-2.920848e+02 -3.834952e+02        0
-3.834952e+02 -4.109726e+02        0
       0        0 1.125214e+03

7.828721e+02 2.880985e+02        0
2.880985e+02 -5.541049e+00        0
       0        0 1.385799e+03

-1.578341e+03 -8.724090e+02        0
-8.724090e+02 -1.600602e+03        0
       0        0 5.569692e+02

-1.568956e+03 -9.524089e+02        0
-9.524089e+02 -7.287288e+02        0
       0        0 8.558809e+02

1.798438e+02 5.350132e+02        0
5.350132e+02 4.700117e+02        0
       0        0 1.470804e+03

-4.870824e+02 1.951337e+02        0
1.951337e+02 -4.010570e+02        0
       0        0 1.120550e+03

6.471062e+02 4.947527e+02        0
4.947527e+02 1.180867e+02        0
       0        0 1.455304e+03

-2.673470e+02 -1.423460e+02        0
-1.423460e+02 -5.333185e+02        0
       0        0 1.128832e+03

2.216887e+01 -3.799585e+01        0
-3.799585e+01 -1.092498e+03        0
       0        0 9.966804e+02

1.815529e+01 -1.399192e+02        0
-1.399192e+02 3.335005e+01        0
       0        0 1.167376e+03

2.450360e+01 -2.218573e+02        0
-2.218573e+02 4.187686e+02        0
       0        0 1.404027e+03

2.213318e+01 -7.622723e+01        0
-7.622723e+01 -4.663257e+02        0
       0        0 7.364905e+02

1.557909e+01 -2.378756e+01        0
-2.378756e+01 -3.874427e+02        0
       0        0 7.734304e+02

3.200746e+01 -1.296367e+02        0
-1.296367e+02 -4.721956e+02        0
       0        0 8.914616e+02

1.929301e+01 -3.355426e+01        0
-3.355426e+01 -5.567878e+02        0
       0        0 8.765062e+02

4.667718e+00 -2.274671e+01        0
-2.274671e+01 -4.648533e+02        0
       0        0 7.178977e+02

1.112768e+01 -7.471340e+01        0
-7.471340e+01 -2.573126e+02        0
       0        0 9.342277e+02

8.217084e+00 1.733802e+00        0
1.733802e+00 -4.598031e+02        0
       0        0 4.473193e+02

8.078494e+00 -1.859293e+00        0
-1.859293e+00 -2.031341e+02        0
       0        0 5.416668e+02

1.454729e+01 -3.266499e+01        0
-3.266499e+01 -4.624105e+02        0
       0        0 5.861998e+02

1.161064e+01 -1.259754e+01        0
-1.259754e+01 -2.727968e+02        0
       0        0 6.587173e+02

-3.332327e+00 4.426381e+01        0
4.426381e+01 -6.915985e+02        0
       0        0 3.612400e+02

3.994879e-02 1.607820e+01        0
1.607820e+01 -6.052786e+02        0
       0        0 5.256856e+02

-5.850404e-01 4.611215e+01        0
4.611215e+01 -4.582018e+02        0
       0        0 2.181487e+02

2.269338e+00 1.668754e+01        0
1.668754e+01 -1.593236e+02        0
       0        0 3.254226e+02

3.208532e+00 2.765713e+01        0
2.765713e+01 -4.584464e+02        0
       0        0 3.239774e+02

4.929926e+00 8.048971e+00        0
8.048971e+00 -1.682936e+02        0
       0        0 4.290418e+02

-7.104200e+00 7.513802e+01        0
7.513802e+01 -7.512654e+02        0
       0        0 1.166285e+02

-5.663124e+00 6.337200e+01        0
6.337200e+01 -7.365113e+02        0
       0        0 2.252937e+02

-5.009841e+00 6.497722e+01        0
6.497722e+01 -4.604187e+02        0
       0        0 5.965020e+01

-1.543469e+00 2.936667e+01        0
2.936667e+01 -1.886519e+02        0
       0        0 1.552263e+02

-3.277520e+00 5.818323e+01        0
5.818323e+01 -4.589135e+02        0
       0        0 1.302542e+02

1.124322e-01 2.383148e+01        0
2.383148e+01 -1.683385e+02        0
       0        0 2.336483e+02

-8.045789e+00 8.298383e+01        0
8.298383e+01 -7.279321e+02        0
       0        0 -2.972302e+01

-7.844962e+00 8.118289e+01        0
8.118289e+01 -7.456728e+02        0
       0        0 3.269717e+01

-6.175542e+00 6.690004e+01        0
6.690004e+01 -4.651327e+02        0
       0        0 -3.508291e+01

-3.463160e+00 3.561764e+01        0
3.561764e+01 -2.422147e+02        0
       0        0 4.000303e+01

-5.927702e+00 6.755616e+01        0
6.755616e+01 -4.625580e+02        0
       0        0 5.055518e+00

-2.722306e+00 3.327794e+01        0
3.327794e+01 -2.147518e+02        0
       0        0 9.070387e+01

-7.392159e+00 7.882236e+01        0
7.882236e+01 -6.809577e+02        0
       0        0 -1.035643e+02

-7.850859e+00 8.183159e+01        0
8.183159e+01 -7.046581e+02        0
       0        0 -7.405806e+01

-3.798093e+00 3.644070e+01        0
3.644070e+01 -2.672805e+02        0
       0        0 2.799689e+00

-5.891714e+00 6.383281e+01        0
6.383281e+01 -4.672126e+02        0
       0        0 -6.210211e+01

-6.767612e+00 7.484883e+01        0
7.484883e+01 -6.602228e+02        0
       0        0 -1.209453e+02

5.108689e+01 -2.662859e+02        0
-2.662859e+02 -5.105751e+02        0
       0        0 1.161817e+03

2.493759e+01 -4.346605e+01        0
-4.346605e+01 -7.943531e+02        0
       0        0 9.555007e+02

4.202476e+01 -1.908585e+02        0
-1.908585e+02 -4.800603e+02        0
       0        0 1.040169e+03

-1.389003e+02 2.323390e+02        0
2.323390e+02 8.207025e+02        0
       0        0 1.528919e+03

-8.430307e+01 -1.647217e+02        0
-1.647217e+02 7.818466e+02        0
       0        0 1.545048e+03

-6.736536e+02 -4.557200e+02        0
-4.557200e+02 -2.040978e+03        0
       0        0 6.657239e+02

-6.129367e+02 -7.100338e+01        0
-7.100338e+01 -1.995450e+02        0
       0        0 1.167317e+03

-2.356700e+01 -8.695972e+01        0
-8.695972e+01 -1.549234e+03        0
       0        0 9.473341e+02

-1.423537e+02 -3.122497e+02        0
-3.122497e+02 -4.419331e+02        0
       0        0 1.214188e+03

-5.992144e+01 5.619466e+01        0
5.619466e+01 9.195185e+01        0
       0        0 1.067865e+03

-1.563021e+02 2.682019e+02        0
2.682019e+02 -4.497647e+02        0
       0        0 9.075402e+02

-1.246712e+02 3.292209e+02        0
3.292209e+02 -1.095135e+03        0
       0        0 7.447729e+02

-3.979952e+01 1.050580e+02        0
1.050580e+02 -1.288855e+02        0
       0        0 8.995753e+02

-7.526372e+01 2.375473e+02        0
2.375473e+02 -4.819799e+02        0
       0        0 7.966609e+02

-4.256593e+01 1.970527e+02        0
1.970527e+02 -8.201948e+02        0
       0        0 7.114860e+02

-2.552521e+01 1.109363e+02        0
1.109363e+02 -3.489694e+02        0
       0        0 7.062208e+02

-3.482235e+01 1.863259e+02        0
1.863259e+02 -4.887450e+02        0
       0        0 6.625000e+02

-1.514665e+01 1.298389e+02        0
1.298389e+02 -5.872895e+02        0
       0        0 6.366912e+02

-1.408555e+01 9.066163e+01        0
9.066163e+01 -6.164902e+02        0
       0        0 3.601062e+02

-1.885833e+01 1.012991e+02        0
1.012991e+02 -5.141724e+02        0
       0        0 5.207583e+02

-4.008943e+00 5.990006e+01        0
5.990006e+01 -3.455574e+02        0
       0        0 4.226852e+02

-1.269892e+01 9.985015e+01        0
9.985015e+01 -4.890502e+02        0
       0        0 3.872843e+02

-8.172791e+00 8.857143e+01        0
8.857143e+01 -4.362656e+02        0
       0        0 5.331944e+02

-2.092716e+01 1.374490e+02        0
1.374490e+02 -4.888844e+02        0
       0        0 5.208402e+02

-7.814691e+00 7.320534e+01        0
7.320534e+01 -6.922416e+02        0
       0        0 1.211294e+02

-1.046315e+01 8.111868e+01        0
8.111868e+01 -6.710618e+02        0
       0        0 2.271823e+02

-4.411287e-01 3.034420e+01        0
3.034420e+01 -2.814807e+02        0
       0        0 2.201216e+02

-3.431042e+00 5.493058e+01        0
5.493058e+01 -4.885735e+02        0
       0        0 1.691009e+02

-1.603128e+00 4.120159e+01        0
4.120159e+01 -2.986082e+02        0
       0        0 3.161428e+02

-7.002765e+00 7.286491e+01        0
7.286491e+01 -4.891007e+02        0
       0        0 2.690572e+02

-6.032123e+00 6.723784e+01        0
6.723784e+01 -6.920150e+02        0
       0        0 3.923911e+01

-1.525681e+00 4.441211e+01        0
4.441211e+01 -4.874311e+02        0
       0        0 8.787469e+01

-1.900395e-01 2.526178e+01        0
2.526178e+01 -2.824687e+02        0
       0        0 1.381846e+02

-4.503707e+00 6.147689e+01        0
6.147689e+01 -6.639652e+02        0
       0        0 -6.646377e+01

-4.974325e+00 6.333517e+01        0
6.333517e+01 -6.800761e+02        0
       0        0 -2.205954e+01

-1.213791e+00 2.560226e+01        0
2.560226e+01 -3.038174e+02        0
       0        0 2.161183e+01

-1.094691e+00 3.946447e+01        0
3.946447e+01 -4.833379e+02        0
       0        0 -2.289616e+01

-5.320060e-01 2.417676e+01        0
2.417676e+01 -2.922800e+02        0
       0        0 7.189136e+01

-8.705639e-01 3.973503e+01        0
3.973503e+01 -4.856717e+02        0
       0        0 2.441485e+01

-4.819437e+00 6.327961e+01        0
6.327961e+01 -6.399088e+02        0
       0        0 -1.170327e+02

-4.491279e+00 6.153217e+01        0
6.153217e+01 -6.492814e+02        0
       0        0 -9.727221e+01

-2.818724e+00 3.143615e+01        0
3.143615e+01 -3.132637e+02        0
       0        0 -3.175204e+01

-2.977387e+00 4.720065e+01        0
4.720065e+01 -4.772317e+02        0
       0        0 -7.552510e+01

-2.030967e+00 2.833842e+01        0
2.833842e+01 -3.119476e+02        0
       0        0 -1.284087e+01

-1.885063e+00 4.232770e+01        0
4.232770e+01 -4.804958e+02        0
       0        0 -5.575349e+01

-6.068178e+00 7.049139e+01        0
7.049139e+01 -6.451711e+02        0
       0        0 -1.286254e+02

-5.381425e+00 6.640511e+01        0
6.640511e+01 -6.382121e+02        0
       0        0 -1.273221e+02

-3.791291e+00 3.592934e+01        0
3.592934e+01 -2.894295e+02        0
       0        0 -2.295310e+01

-5.181560e+00 5.897244e+01        0
5.897244e+01 -4.698912e+02        0
       0        0 -7.820570e+01

-3.447069e+00 3.415593e+01        0
3.415593e+01 -3.059027e+02        0
       0        0 -3.521095e+01

-4.144818e+00 5.306741e+01        0
5.306741e+01 -4.736529e+02        0
       0        0 -8.299139e+01

1.513498e+03 -2.887059e+02        0
-2.887059e+02 1.135167e+01        0
       0        0 7.496546e+02

1.926595e+03 -9.371700e+01        0
-9.371700e+01 -8.681259e+01        0
       0        0 9.743259e+02

-1.064614e+03 5.334858e+01        0
5.334858e+01 -3.717867e+01        0
       0        0 -4.919165e+02

-2.227476e-01 -3.972257e+02        0
-3.972257e+02 5.025092e+01        0
       0        0 5.893535e+01

-2.256240e+03 4.802858e+02        0
4.802858e+02 -1.219519e+03        0
       0        0 -1.309585e+03

-2.558082e+02 -2.819490e+01        0
-2.819490e+01 -5.566287e+02        0
       0        0 -2.052126e+02

9.811890e+02 -2.126583e+02        0
-2.126583e+02 3.069915e+01        0
       0        0 4.950232e+02

1.539645e+02 -3.532932e+02        0
-3.532932e+02 1.330647e+02        0
       0        0 1.285018e+02

-4.717448e+02 -1.553055e+02        0
-1.553055e+02 1.581898e+02        0
       0        0 -1.926444e+02

3.601796e+02 -9.021250e+01        0
-9.021250e+01 1.386846e+01        0
       0        0 1.814430e+02

6.070381e+02 -1.374658e+02        0
-1.374658e+02 2.068353e+01        0
       0        0 3.081888e+02

-9.551039e+01 -1.763308e+02        0
-1.763308e+02 1.360261e+02        0
       0        0 -3.617632e+01

1.321373e+02 -1.904915e+02        0
-1.904915e+02 7.368145e+01        0
       0        0 7.893203e+01

-2.106182e+02 -1.975935e+02        0
-1.975935e+02 1.605449e+02        0
       0        0 -8.050379e+01

1.744542e+02 -2.654833e+02        0
-2.654833e+02 1.011428e+02        0
       0        0 1.138573e+02

9.285585e+01 -3.793588e+01        0
-3.793588e+01 7.212791e+00        0
       0        0 3.947628e+01

1.979702e+02 -5.916619e+01        0
-5.916619e+01 9.692400e+00        0
       0        0 9.604082e+01

-2.893333e+01 -9.498313e+01        0
-9.498313e+01 9.057143e+01        0
       0        0 -1.492044e+01

4.081107e+01 -8.766287e+01        0
-8.766287e+01 4.250296e+01        0
       0        0 2.021763e+01

-4.863363e+01 -1.359762e+02        0
-1.359762e+02 1.120208e+02        0
       0        0 -1.996918e+01

8.213307e+01 -1.323189e+02        0
-1.323189e+02 5.521341e+01        0
       0        0 4.594114e+01

2.777069e+01 -2.289637e+01        0
-2.289637e+01 5.489894e+00        0
       0        0 3.585783e+00

1.189349e+01 -5.413814e+01        0
-5.413814e+01 3.316955e+01        0
       0        0 2.180573e+00

-2.066144e+01 -6.037046e+01        0
-6.037046e+01 7.275766e+01        0
       0        0 -1.428347e+01

-2.616962e+01 -3.689958e+00        0
-3.689958e+00 3.847733e+00        0
       0        0 -2.654163e+01

-9.154378e+00 -1.208768e+01        0
-1.208768e+01 4.377231e+00        0
       0        0 -1.726076e+01

-1.576892e+01 -1.036825e+01        0
-1.036825e+01 5.386628e+01        0
       0        0 -1.554332e+01

-1.404802e+01 -9.115778e+00        0
-9.115778e+00 2.388263e+01        0
       0        0 -1.413404e+01

-1.716226e+01 -3.282506e+01        0
-3.282506e+01 6.011905e+01        0
       0        0 -1.493738e+01

-5.668097e+00 -2.900385e+01        0
-2.900385e+01 2.691967e+01        0
       0        0 -8.979870e+00

-1.643990e+03 7.468817e+02        0
7.468817e+02 -1.828024e+02        0
       0        0 -9.935265e+02

-3.224736e+03 1.198371e+03        0
1.198371e+03 -7.444860e+02        0
       0        0 -1.615637e+03

1.868870e+02 5.332570e+02        0
5.332570e+02 -1.818156e+02        0
       0        0 6.641143e+02

-6.433458e+02 1.005403e+03        0
1.005403e+03 -2.753429e+02        0
       0        0 -1.678560e+02

1.395336e+03 3.387943e+02        0
3.387943e+02 -1.189465e+02        0
       0        0 9.319052e+02

-6.380502e+02 9.953532e+02        0
9.953532e+02 -6.120525e+02        0
       0        0 -3.207920e+02

-6.097903e+02 4.957087e+02        0
4.957087e+02 -2.544093e+02        0
       0        0 -5.128387e+02

-5.059631e+02 8.038916e+02        0
8.038916e+02 -4.583694e+02        0
       0        0 -2.407462e+01

-7.742184e+02 6.590077e+02        0
6.590077e+02 -3.753930e+02        0
       0        0 4.443176e+02

2.342712e+02 -6.646213e+01        0
-6.646213e+01 -6.559758e+01        0
       0        0 4.426121e+02

-2.254478e+01 1.985996e+02        0
1.985996e+02 -2.010206e+02        0
       0        0 -1.143636e+01

-1.399270e+03 1.025136e+03        0
1.025136e+03 -8.632470e+02        0
       0        0 3.947265e+02

-4.316828e+02 4.564036e+02        0
4.564036e+02 -5.598996e+02        0
       0        0 4.364569e+02

-1.268595e+03 8.557942e+02        0
8.557942e+02 -6.069068e+02        0
       0        0 3.695177e+02

-4.442017e+02 6.051019e+02        0
6.051019e+02 -5.528046e+02        0
       0        0 1.932127e+02

1.974743e+02 -2.821607e+02        0
-2.821607e+02 2.594884e+02        0
       0        0 1.066130e+03

2.728087e+02 -2.297123e+02        0
-2.297123e+02 1.078343e+02        0
       0        0 8.091610e+02

-1.033998e+03 1.064707e+03        0
1.064707e+03 -1.298264e+03        0
       0        0 5.712307e+02

-4.134137e+02 3.123207e+02        0
3.123207e+02 -4.797971e+02        0
       0        0 8.378527e+02

-1.282933e+03 1.100501e+03        0
1.100501e+03 -1.106819e+03        0
       0        0 4.749921e+02

-4.284305e+02 3.619286e+02        0
3.619286e+02 -5.245897e+02        0
       0        0 6.614310e+02

8.841729e+01 -2.427396e+02        0
-2.427396e+02 3.472445e+02        0
       0        0 1.209142e+03

-3.771434e+02 2.919458e+02        0
2.919458e+02 -4.458045e+02        0
       0        0 9.500591e+02

-7.458367e+02 9.335164e+02        0
9.335164e+02 -1.405265e+03        0
       0        0 6.563084e+02

-5.339652e+01 -3.645420e+01        0
-3.645420e+01 2.628971e+02        0
       0        0 1.192020e+03

-3.590588e+00 -1.475101e+02        0
-1.475101e+02 3.489517e+02        0
       0        0 1.245894e+03

-2.773602e+02 5.270177e+02        0
5.270177e+02 -1.309579e+03        0
       0        0 7.418423e+02

-2.445393e+02 2.761586e+02        0
2.761586e+02 -4.244064e+02        0
       0        0 9.785681e+02

-4.817357e+02 7.416432e+02        0
7.416432e+02 -1.411782e+03        0
       0        0 7.145446e+02

-3.193701e+02 2.846427e+02        0
2.846427e+02 -4.301226e+02        0
       0        0 9.945788e+02

-6.933592e+02 6.320993e+02        0
6.320993e+02 -6.327500e+02        0
       0        0 -6.065188e+02

-1.180105e+03 5.701250e+02        0
5.701250e+02 -3.950905e+02        0
       0        0 -7.125715e+02

-5.343638e+02 9.204441e+02        0
9.204441e+02 -1.662761e+03        0
       0        0 -8.621164e+02

-1.674576e+03 1.486622e+03        0
1.486622e+03 -1.959721e+03        0
       0        0 -1.392483e+03

-3.724536e+02 4.879085e+02        0
4.879085e+02 -7.982423e+02        0
       0        0 -4.079650e+02

-4.684503e+02 5.567012e+02        0
5.567012e+02 -7.801912e+02        0
       0        0 -5.192753e+02

-3.163520e+02 4.679308e+02        0
4.679308e+02 -1.298419e+03        0
       0        0 -5.247380e+02

-3.065861e+02 6.367172e+02        0
6.367172e+02 -1.411010e+03        0
       0        0 -6.343419e+02

-2.866162e+02 2.499136e+01        0
2.499136e+01 1.356048e+02        0
       0        0 -1.595541e+02

-2.456630e+02 -8.608185e+01        0
-8.608185e+01 1.574774e+02        0
       0        0 -1.248560e+02

-4.348367e+02 1.118617e+02        0
1.118617e+02 5.347789e+01        0
       0        0 -2.612518e+02

-4.156774e+02 -3.284216e+01        0
-3.284216e+01 1.328515e+02        0
       0        0 -2.158405e+02

-6.106466e+02 3.088702e+02        0
3.088702e+02 -1.661553e+02        0
       0        0 -4.150250e+02

-6.956712e+02 1.415902e+02        0
1.415902e+02 2.037446e+01        0
       0        0 -3.791885e+02

-1.046614e+02 1.910674e+02        0
1.910674e+02 1.146455e+01        0
       0        0 -6.484396e+01

-2.361533e+02 1.227459e+02        0
1.227459e+02 8.412958e+01        0
       0        0 -1.381761e+02

-1.875250e+02 2.903458e+02        0
2.903458e+02 -1.231477e+02        0
       0        0 -1.400298e+02

-3.525438e+02 2.150579e+02        0
2.150579e+02 -3.665257e+01        0
       0        0 -2.336631e+02

-2.880710e+02 4.046758e+02        0
4.046758e+02 -3.797962e+02        0
       0        0 -2.556548e+02

-4.604639e+02 3.634917e+02        0
3.634917e+02 -3.069274e+02        0
       0        0 -3.687157e+02

-1.020787e+02 -1.515060e+01        0
-1.515060e+01 1.411910e+02        0
       0        0 -5.561924e+01

-8.407079e+01 -6.513087e+01        0
-6.513087e+01 1.279866e+02        0
       0        0 -4.554233e+01

-1.763727e+02 -7.337758e+00        0
-7.337758e+00 1.526140e+02        0
       0        0 -9.470400e+01

-1.447977e+02 -8.410925e+01        0
-8.410925e+01 1.485994e+02        0
       0        0 -7.402578e+01

-1.365590e+01 6.881487e+01        0
6.881487e+01 9.038033e+01        0
       0        0 1.899237e+00

-7.755761e+01 3.529915e+01        0
3.529915e+01 1.273713e+02        0
       0        0 -3.925699e+01

-4.800111e+01 1.179020e+02        0
1.179020e+02 7.105101e+01        0
       0        0 -2.111003e+01

-1.422353e+02 6.704050e+01        0
6.704050e+01 1.249010e+02        0
       0        0 -7.622482e+01

-1.691473e+01 -2.801061e+00        0
-2.801061e+00 9.583854e+01        0
       0        0 -1.644618e+01

-1.960325e+01 -7.700200e+00        0
-7.700200e+00 8.074014e+01        0
       0        0 -1.918627e+01

-2.928212e+01 -8.484215e+00        0
-8.484215e+00 1.050164e+02        0
       0        0 -2.144626e+01

-2.870195e+01 -2.425623e+01        0
-2.425623e+01 8.941523e+01        0
       0        0 -2.233519e+01

-5.565453e+01 -1.341661e+01        0
-1.341661e+01 1.218314e+02        0
       0        0 -3.328522e+01

-4.839303e+01 -4.349610e+01        0
-4.349610e+01 1.062259e+02        0
       0        0 -3.015388e+01

1.892109e+01 5.415648e+00        0
5.415648e+00 8.356658e+01        0
       0        0 1.912641e+01

-3.736878e+00 2.254900e+00        0
2.254900e+00 9.616540e+01        0
       0        0 -3.320601e+00

1.489209e+01 1.825711e+01        0
1.825711e+01 8.716889e+01        0
       0        0 1.751162e+01

-1.432591e+01 7.879472e+00        0
7.879472e+00 1.035754e+02        0
       0        0 -7.818878e+00

5.375963e+00 3.763877e+01        0
3.763877e+01 9.161330e+01        0
       0        0 1.288311e+01

-3.707813e+01 1.756110e+01        0
1.756110e+01 1.160418e+02        0
       0        0 -1.852240e+01

POINT_DATA     938
VECTORS DISPLACEMENT_1.600000e+00 double
4.213841e-09    3.526939e-08    0.000000e+00
4.581173e-09    3.325728e-08    0.000000e+00
3.856033e-09    3.732875e-08    0.000000e+00
-1.413279e-09    3.565919e-08    0.000000e+00
-8.457097e-10    3.324572e-08    0.000000e+00
-2.233656e-10    3.091752e-08    0.000000e+00
4.472101e-10    2.869708e-08    0.000000e+00
1.157986e-09    2.661007e-08    0.000000e+00
1.898533e-09    2.468636e-08    0.000000e+00
2.655794e-09    2.296114e-08    0.000000e+00
3.412642e-09    2.147475e-08    0.000000e+00
4.148350e-09    2.027926e-08    0.000000e+00
4.815322e-09    1.945550e-08    0.000000e+00
5.281767e-09    1.902161e-08    0.000000e+00
5.695007e-09    1.885401e-08    0.000000e+00
-2.123765e-11    6.472721e-08    0.000000e+00
-4.237709e-10    6.458993e-08    0.000000e+00
-7.991502e-11    6.357759e-08    0.000000e+00
-8.760114e-10    6.338249e-08    0.000000e+00
-1.474327e-10    5.996593e-08    0.000000e+00
-1.477179e-09    5.971343e-08    0.000000e+00
-1.204693e-10    5.770818e-08    0.000000e+00
-1.626387e-09    5.742699e-08    0.000000e+00
-1.295914e-10    6.195199e-08    0.000000e+00
-1.226551e-09    6.172679e-08    0.000000e+00
9.819654e-11    5.266034e-08    0.000000e+00
-1.626806e-09    5.232550e-08    0.000000e+00
2.977044e-10    4.997728e-08    0.000000e+00
-1.485982e-09    4.961863e-08    0.000000e+00
8.792715e-10    4.449054e-08    0.000000e+00
-9.489495e-10    4.409114e-08    0.000000e+00
1.256888e-09    4.174415e-08    0.000000e+00
-5.648976e-10    4.132864e-08    0.000000e+00
5.585007e-10    4.724337e-08    0.000000e+00
-1.258100e-09    4.686319e-08    0.000000e+00
-4.036344e-11    5.525341e-08    0.000000e+00
-1.675159e-09    5.494452e-08    0.000000e+00
3.109450e-09    4.211834e-08    0.000000e+00
2.742477e-09    4.483679e-08    0.000000e+00
2.415142e-09    4.755900e-08    0.000000e+00
2.127066e-09    5.025890e-08    0.000000e+00
1.875165e-09    5.290300e-08    0.000000e+00
1.653077e-09    5.545128e-08    0.000000e+00
1.450747e-09    5.785586e-08    0.000000e+00
1.253837e-09    6.005813e-08    0.000000e+00
1.042454e-09    6.198715e-08    0.000000e+00
7.874121e-10    6.355601e-08    0.000000e+00
4.431059e-10    6.464162e-08    0.000000e+00
5.454263e-12    6.504221e-08    0.000000e+00
-9.530943e-12    6.523497e-08    0.000000e+00
1.510981e-11    6.535600e-08    0.000000e+00
-3.519266e-10    6.622288e-08    0.000000e+00
-9.664132e-10    6.434174e-08    0.000000e+00
-1.755438e-09    6.304053e-08    0.000000e+00
-2.379938e-09    6.135585e-08    0.000000e+00
-2.849781e-09    5.932732e-08    0.000000e+00
-3.163906e-09    5.703044e-08    0.000000e+00
-3.333506e-09    5.453725e-08    0.000000e+00
-3.369413e-09    5.190745e-08    0.000000e+00
-3.283077e-09    4.918997e-08    0.000000e+00
-3.085409e-09    4.642444e-08    0.000000e+00
-2.786506e-09    4.364309e-08    0.000000e+00
-2.395473e-09    4.087265e-08    0.000000e+00
-1.920237e-09    3.813659e-08    0.000000e+00
-1.191665e-10    3.859525e-08    0.000000e+00
1.679972e-09    3.902487e-08    0.000000e+00
3.513936e-09    3.942561e-08    0.000000e+00
4.950476e-09    3.130329e-08    0.000000e+00
5.312402e-09    2.941957e-08    0.000000e+00
5.655617e-09    2.761983e-08    0.000000e+00
5.966510e-09    2.591971e-08    0.000000e+00
6.228977e-09    2.433701e-08    0.000000e+00
6.425150e-09    2.289229e-08    0.000000e+00
6.531383e-09    2.160565e-08    0.000000e+00
6.572484e-09    2.047858e-08    0.000000e+00
6.339877e-09    1.943435e-08    0.000000e+00
6.174773e-09    1.920094e-08    0.000000e+00
5.922613e-09    1.903149e-08    0.000000e+00
4.331940e-09    2.657037e-08    0.000000e+00
3.099437e-09    2.559688e-08    0.000000e+00
2.934173e-09    3.246571e-08    0.000000e+00
1.347880e-09    3.168781e-08    0.000000e+00
2.060401e-09    3.678607e-08    0.000000e+00
3.176575e-10    3.623117e-08    0.000000e+00
2.485461e-09    3.459715e-08    0.000000e+00
8.132738e-10    3.392389e-08    0.000000e+00
3.398075e-09    3.040652e-08    0.000000e+00
1.913452e-09    2.954050e-08    0.000000e+00
3.867840e-09    2.843536e-08    0.000000e+00
2.501038e-09    2.750235e-08    0.000000e+00
5.535557e-09    2.184375e-08    0.000000e+00
4.798155e-09    2.097672e-08    0.000000e+00
4.776522e-09    2.483252e-08    0.000000e+00
3.694700e-09    2.385136e-08    0.000000e+00
5.183746e-09    2.324500e-08    0.000000e+00
4.269050e-09    2.229648e-08    0.000000e+00
5.803663e-09    2.064161e-08    0.000000e+00
5.265278e-09    1.993735e-08    0.000000e+00
6.036374e-09    1.972857e-08    0.000000e+00
5.648138e-09    1.929335e-08    0.000000e+00
4.696901e-09    1.822100e-08    0.000000e+00
4.795175e-09    1.868442e-08    0.000000e+00
1.712010e-09    1.735034e-08    0.000000e+00
1.708922e-09    1.768781e-08    0.000000e+00
9.756325e-10    1.712461e-08    0.000000e+00
9.601867e-10    1.734809e-08    0.000000e+00
1.306272e-09    1.723165e-08    0.000000e+00
1.294374e-09    1.751131e-08    0.000000e+00
5.182604e-10    1.693589e-08    0.000000e+00
5.081364e-10    1.705904e-08    0.000000e+00
3.777865e-10    1.685046e-08    0.000000e+00
3.747346e-10    1.693048e-08    0.000000e+00
7.151760e-10    1.702672e-08    0.000000e+00
7.006283e-10    1.719771e-08    0.000000e+00
2.194497e-09    1.748353e-08    0.000000e+00
2.205900e-09    1.787694e-08    0.000000e+00
3.957753e-10    1.676119e-08    0.000000e+00
5.443405e-10    1.680515e-08    0.000000e+00
7.465842e-10    1.684997e-08    0.000000e+00
1.008654e-09    1.689732e-08    0.000000e+00
1.336078e-09    1.694995e-08    0.000000e+00
1.732720e-09    1.701183e-08    0.000000e+00
2.199493e-09    1.708831e-08    0.000000e+00
2.732808e-09    1.718615e-08    0.000000e+00
3.322782e-09    1.731358e-08    0.000000e+00
3.951204e-09    1.748019e-08    0.000000e+00
4.589120e-09    1.769709e-08    0.000000e+00
5.195422e-09    1.797442e-08    0.000000e+00
5.710577e-09    1.832922e-08    0.000000e+00
6.106546e-09    1.873602e-08    0.000000e+00
5.978509e-09    1.895560e-08    0.000000e+00
5.909590e-09    1.913544e-08    0.000000e+00
5.482191e-09    1.920925e-08    0.000000e+00
4.867110e-09    1.914010e-08    0.000000e+00
4.177284e-09    1.898384e-08    0.000000e+00
3.480307e-09    1.877190e-08    0.000000e+00
2.822102e-09    1.853011e-08    0.000000e+00
2.231010e-09    1.827731e-08    0.000000e+00
1.721791e-09    1.802680e-08    0.000000e+00
1.299254e-09    1.778722e-08    0.000000e+00
9.613864e-10    1.756345e-08    0.000000e+00
7.020165e-10    1.735747e-08    0.000000e+00
5.129569e-10    1.716909e-08    0.000000e+00
3.856809e-10    1.699661e-08    0.000000e+00
3.125638e-10    1.683737e-08    0.000000e+00
2.930987e-10    1.681013e-08    0.000000e+00
2.869649e-10    1.676884e-08    0.000000e+00
2.949452e-10    1.671734e-08    0.000000e+00
3.423312e-09    1.828262e-08    0.000000e+00
3.368455e-09    1.780561e-08    0.000000e+00
2.781481e-09    1.807658e-08    0.000000e+00
2.750250e-09    1.763425e-08    0.000000e+00
4.107404e-09    1.848836e-08    0.000000e+00
4.028462e-09    1.800019e-08    0.000000e+00
5.928472e-09    1.898926e-08    0.000000e+00
5.846348e-09    1.874694e-08    0.000000e+00
5.428204e-09    1.885697e-08    0.000000e+00
5.324877e-09    1.846614e-08    0.000000e+00
6.139594e-09    1.903491e-08    0.000000e+00
6.189724e-09    1.901188e-08    0.000000e+00
4.210604e-09    1.563449e-08    0.000000e+00
4.283606e-09    1.549820e-08    0.000000e+00
4.296040e-09    1.539653e-08    0.000000e+00
4.277832e-09    1.527746e-08    0.000000e+00
4.001468e-09    1.521285e-08    0.000000e+00
3.565277e-09    1.521494e-08    0.000000e+00
3.051427e-09    1.527539e-08    0.000000e+00
2.526180e-09    1.537737e-08    0.000000e+00
2.033023e-09    1.550538e-08    0.000000e+00
1.595641e-09    1.564790e-08    0.000000e+00
1.224678e-09    1.579678e-08    0.000000e+00
9.221376e-10    1.594683e-08    0.000000e+00
6.849342e-10    1.609531e-08    0.000000e+00
5.076861e-10    1.624149e-08    0.000000e+00
3.848291e-10    1.638625e-08    0.000000e+00
3.121322e-10    1.653171e-08    0.000000e+00
2.877067e-10    1.668089e-08    0.000000e+00
2.303727e-10    1.666565e-08    0.000000e+00
2.192396e-10    1.661507e-08    0.000000e+00
2.583559e-10    1.656725e-08    0.000000e+00
3.476762e-10    1.652401e-08    0.000000e+00
4.900263e-10    1.648688e-08    0.000000e+00
6.904058e-10    1.645648e-08    0.000000e+00
9.548017e-10    1.643186e-08    0.000000e+00
1.288453e-09    1.640972e-08    0.000000e+00
1.693461e-09    1.638355e-08    0.000000e+00
2.165682e-09    1.634263e-08    0.000000e+00
2.690762e-09    1.627099e-08    0.000000e+00
3.240202e-09    1.614742e-08    0.000000e+00
3.769370e-09    1.593871e-08    0.000000e+00
1.121113e-09    1.601972e-08    0.000000e+00
1.030968e-09    1.623146e-08    0.000000e+00
2.935601e-09    1.560771e-08    0.000000e+00
2.814445e-09    1.592952e-08    0.000000e+00
3.957309e-09    1.544601e-08    0.000000e+00
3.883533e-09    1.566871e-08    0.000000e+00
3.476842e-09    1.551732e-08    0.000000e+00
3.366513e-09    1.581296e-08    0.000000e+00
1.909532e-09    1.580781e-08    0.000000e+00
1.795990e-09    1.609728e-08    0.000000e+00
2.400945e-09    1.570560e-08    0.000000e+00
2.280305e-09    1.602118e-08    0.000000e+00
1.480395e-09    1.591290e-08    0.000000e+00
1.377740e-09    1.616562e-08    0.000000e+00
4.425525e-10    1.634544e-08    0.000000e+00
3.891065e-10    1.644035e-08    0.000000e+00
8.315806e-10    1.612754e-08    0.000000e+00
7.541992e-10    1.629812e-08    0.000000e+00
6.074051e-10    1.623606e-08    0.000000e+00
5.423236e-10    1.636747e-08    0.000000e+00
2.697258e-10    1.656966e-08    0.000000e+00
2.386024e-10    1.659727e-08    0.000000e+00
3.313191e-10    1.645630e-08    0.000000e+00
2.890356e-10    1.651698e-08    0.000000e+00
2.564135e-10    1.668700e-08    0.000000e+00
2.370964e-10    1.668117e-08    0.000000e+00
-6.502368e-14    -5.413580e-11    0.000000e+00
-7.279305e-12    -5.819074e-11    0.000000e+00
-1.607546e-11    -6.939352e-11    0.000000e+00
-2.823536e-11    -8.658852e-11    0.000000e+00
-4.615649e-11    -1.062426e-10    0.000000e+00
-7.350411e-11    -1.198031e-10    0.000000e+00
-1.170511e-10    -1.085773e-10    0.000000e+00
-1.891957e-10    -3.704461e-11    0.000000e+00
-3.203709e-10    1.634067e-10    0.000000e+00
-5.225966e-10    5.898235e-10    0.000000e+00
-1.009367e-09    1.466490e-09    0.000000e+00
-3.541247e-10    1.590433e-09    0.000000e+00
5.486086e-10    1.676354e-09    0.000000e+00
1.577047e-09    1.819942e-09    0.000000e+00
9.708221e-10    6.631999e-10    0.000000e+00
5.439562e-10    1.640321e-10    0.000000e+00
2.909632e-10    -3.801070e-11    0.000000e+00
1.450497e-10    -1.120452e-10    0.000000e+00
6.186678e-11    -1.282064e-10    0.000000e+00
1.768438e-11    -1.193633e-10    0.000000e+00
-2.411488e-12    -1.026497e-10    0.000000e+00
-8.070375e-12    -8.689508e-11    0.000000e+00
-5.770056e-12    -7.631046e-11    0.000000e+00
2.181892e-13    -7.275789e-11    0.000000e+00
1.138538e-13    -6.933690e-11    0.000000e+00
3.004244e-14    -6.412238e-11    0.000000e+00
3.731705e-11    -1.447096e-10    0.000000e+00
-1.718869e-11    -1.428002e-10    0.000000e+00
2.493938e-10    8.794295e-11    0.000000e+00
-8.784182e-11    9.588513e-11    0.000000e+00
3.795477e-10    5.384630e-10    0.000000e+00
-2.025462e-10    5.279356e-10    0.000000e+00
1.509412e-10    -8.553936e-11    0.000000e+00
-3.681257e-11    -8.238765e-11    0.000000e+00
8.145169e-11    -1.412417e-10    0.000000e+00
-2.167365e-11    -1.398864e-10    0.000000e+00
-2.607784e-13    -1.050538e-10    0.000000e+00
-1.226087e-11    -1.008607e-10    0.000000e+00
1.196124e-11    -1.273177e-10    0.000000e+00
-1.500685e-11    -1.241127e-10    0.000000e+00
-4.107579e-12    -8.593861e-11    0.000000e+00
-8.666870e-12    -8.116884e-11    0.000000e+00
-3.125051e-12    -7.357466e-11    0.000000e+00
-4.475090e-12    -6.852007e-11    0.000000e+00
-1.931147e-09    4.158849e-09    0.000000e+00
-1.783097e-09    6.948432e-09    0.000000e+00
-1.059802e-09    9.578454e-09    0.000000e+00
5.903641e-11    1.177785e-08    0.000000e+00
1.305757e-09    1.341767e-08    0.000000e+00
2.478301e-09    1.450103e-08    0.000000e+00
3.424078e-09    1.510427e-08    0.000000e+00
4.049302e-09    1.534489e-08    0.000000e+00
4.327413e-09    1.535987e-08    0.000000e+00
4.460157e-09    1.526521e-08    0.000000e+00
4.552333e-09    1.474553e-08    0.000000e+00
4.477289e-09    1.400926e-08    0.000000e+00
4.246721e-09    1.299181e-08    0.000000e+00
3.892179e-09    1.164098e-08    0.000000e+00
3.465355e-09    9.954139e-09    0.000000e+00
3.016547e-09    7.970446e-09    0.000000e+00
2.574425e-09    5.791088e-09    0.000000e+00
2.113537e-09    3.614647e-09    0.000000e+00
2.235608e-09    1.283897e-08    0.000000e+00
3.089927e-09    1.226285e-08    0.000000e+00
-2.698536e-10    6.508014e-09    0.000000e+00
1.107911e-09    6.124206e-09    0.000000e+00
-4.937901e-10    3.906954e-09    0.000000e+00
7.583325e-10    3.681212e-09    0.000000e+00
3.585792e-10    9.018679e-09    0.000000e+00
1.669025e-09    8.502809e-09    0.000000e+00
1.256593e-09    1.116958e-08    0.000000e+00
2.367517e-09    1.058421e-08    0.000000e+00
3.841668e-09    1.475251e-08    0.000000e+00
4.202824e-09    1.438702e-08    0.000000e+00
3.137219e-09    1.401383e-08    0.000000e+00
3.729673e-09    1.351743e-08    0.000000e+00
4.278826e-09    1.515451e-08    0.000000e+00
4.458665e-09    1.494708e-08    0.000000e+00
4.425017e-09    1.533362e-08    0.000000e+00
4.480734e-09    1.528898e-08    0.000000e+00
0.000000e+00    0.000000e+00    0.000000e+00
0.000000e+00    0.000000e+00    0.000000e+00
0.000000e+00    0.000000e+00    0.000000e+00
0.000000e+00    0.000000e+00    0.000000e+00
0.000000e+00    0.000000e+00    0.000000e+00
0.000000e+00    0.000000e+00    0.000000e+00
0.000000e+00    0.000000e+00    0.000000e+00
0.000000e+00    0.000000e+00    0.000000e+00
0.000000e+00    0.000000e+00    0.000000e+00
0.000000e+00    0.000000e+00    0.000000e+00
0.000000e+00    0.000000e+00    0.000000e+00
-1.148386e-10    2.176022e-10    0.000000e+00
-2.762843e-10    4.695460e-10    0.000000e+00
-4.669628e-10    7.592323e-10    0.000000e+00
-1.184506e-13    -4.056201e-11    0.000000e+00
-1.173241e-13    -2.504864e-11    0.000000e+00
-6.155277e-14    -1.061527e-11    0.000000e+00
-1.031775e-10    -8.239801e-11    0.000000e+00
-9.840888e-11    -4.314200e-11    0.000000e+00
-6.099127e-11    -1.272614e-11    0.000000e+00
-3.603345e-10    1.569141e-10    0.000000e+00
-2.925272e-10    1.222290e-10    0.000000e+00
-1.721210e-10    6.282082e-11    0.000000e+00
-3.317852e-10    3.032757e-10    0.000000e+00
-4.558942e-10    4.408984e-10    0.000000e+00
-1.731357e-10    1.377636e-10    0.000000e+00
-1.526557e-10    -2.909336e-11    0.000000e+00
-2.204625e-10    1.691845e-11    0.000000e+00
-1.626476e-10    -6.770261e-11    0.000000e+00
-2.446378e-10    -3.897994e-12    0.000000e+00
-9.458301e-11    -3.865821e-12    0.000000e+00
-1.354707e-10    1.849628e-11    0.000000e+00
-3.714735e-11    -6.309982e-11    0.000000e+00
-3.488671e-11    -3.683965e-11    0.000000e+00
-2.116195e-11    -1.399786e-11    0.000000e+00
-6.026538e-11    -4.245451e-11    0.000000e+00
-6.337822e-11    -7.577240e-11    0.000000e+00
-3.701359e-11    -1.477776e-11    0.000000e+00
-7.992162e-12    -2.676429e-11    0.000000e+00
-1.863792e-11    -3.091980e-11    0.000000e+00
-8.795910e-12    -4.355354e-11    0.000000e+00
-2.018698e-11    -5.137761e-11    0.000000e+00
-4.718103e-12    -1.122301e-11    0.000000e+00
-1.114353e-11    -1.247023e-11    0.000000e+00
2.590259e-09    3.922818e-08    0.000000e+00
3.314568e-09    4.076977e-08    0.000000e+00
3.687213e-09    3.837457e-08    0.000000e+00
7.784064e-10    3.881395e-08    0.000000e+00
1.469273e-09    4.038119e-08    0.000000e+00
1.871214e-09    3.790157e-08    0.000000e+00
-1.017558e-09    3.837071e-08    0.000000e+00
-3.434227e-10    3.996021e-08    0.000000e+00
9.857160e-11    3.741022e-08    0.000000e+00
-2.159740e-09    3.949514e-08    0.000000e+00
-1.667639e-09    3.688812e-08    0.000000e+00
-2.593773e-09    4.225064e-08    0.000000e+00
-1.477920e-09    4.110647e-08    0.000000e+00
-2.939781e-09    4.502886e-08    0.000000e+00
-1.865210e-09    4.387405e-08    0.000000e+00
-3.189302e-09    4.780504e-08    0.000000e+00
-2.168666e-09    4.665204e-08    0.000000e+00
-3.332731e-09    5.054984e-08    0.000000e+00
-2.380588e-09    4.941405e-08    0.000000e+00
-3.359538e-09    5.322747e-08    0.000000e+00
-2.492999e-09    5.212801e-08    0.000000e+00
-3.258508e-09    5.579371e-08    0.000000e+00
-2.497678e-09    5.475450e-08    0.000000e+00
-3.018338e-09    5.819389e-08    0.000000e+00
-2.386595e-09    5.724477e-08    0.000000e+00
-2.628033e-09    6.036173e-08    0.000000e+00
-2.152240e-09    5.953917e-08    0.000000e+00
-2.080320e-09    6.221694e-08    0.000000e+00
-1.789761e-09    6.156351e-08    0.000000e+00
-1.373351e-09    6.368279e-08    0.000000e+00
-1.294730e-09    6.323558e-08    0.000000e+00
-5.690062e-10    6.483437e-08    0.000000e+00
-6.768601e-10    6.450164e-08    0.000000e+00
7.643995e-11    6.580126e-08    0.000000e+00
1.282878e-11    6.529086e-08    0.000000e+00
-2.026076e-10    6.506466e-08    0.000000e+00
-6.447672e-12    6.516443e-08    0.000000e+00
1.312736e-12    6.506686e-08    0.000000e+00
2.336556e-10    6.492867e-08    0.000000e+00
6.319892e-10    6.417050e-08    0.000000e+00
1.923312e-10    6.471832e-08    0.000000e+00
9.274250e-10    6.282414e-08    0.000000e+00
3.325259e-10    6.359556e-08    0.000000e+00
1.157039e-09    6.106281e-08    0.000000e+00
4.372229e-10    6.199321e-08    0.000000e+00
1.358923e-09    5.898743e-08    0.000000e+00
5.359581e-10    6.003142e-08    0.000000e+00
1.556969e-09    5.667604e-08    0.000000e+00
6.497729e-10    5.779790e-08    0.000000e+00
1.768036e-09    5.419314e-08    0.000000e+00
7.927559e-10    5.536529e-08    0.000000e+00
2.004246e-09    5.159172e-08    0.000000e+00
9.747051e-10    5.279218e-08    0.000000e+00
2.273754e-09    4.891549e-08    0.000000e+00
1.201869e-09    5.012658e-08    0.000000e+00
2.581262e-09    4.620099e-08    0.000000e+00
1.477581e-09    4.740800e-08    0.000000e+00
2.928491e-09    4.347779e-08    0.000000e+00
1.802714e-09    4.466904e-08    0.000000e+00
2.175912e-09    4.193537e-08    0.000000e+00
-8.609337e-10    5.511228e-08    0.000000e+00
-1.656457e-09    5.365340e-08    0.000000e+00
-1.657171e-09    5.621135e-08    0.000000e+00
2.811077e-11    5.397129e-08    0.000000e+00
-8.119691e-11    5.650149e-08    0.000000e+00
-3.527239e-10    4.706089e-08    0.000000e+00
-1.106379e-09    4.548143e-08    0.000000e+00
-1.375714e-09    4.824893e-08    0.000000e+00
7.187839e-10    4.586881e-08    0.000000e+00
4.276610e-10    4.861553e-08    0.000000e+00
3.435939e-10    4.154140e-08    0.000000e+00
-7.590106e-10    4.271101e-08    0.000000e+00
1.068416e-09    4.311642e-08    0.000000e+00
-3.752301e-11    4.429706e-08    0.000000e+00
-5.972414e-10    4.980718e-08    0.000000e+00
-1.560946e-09    5.098470e-08    0.000000e+00
1.972677e-10    5.132813e-08    0.000000e+00
-7.675008e-10    5.250402e-08    0.000000e+00
-6.798233e-10    6.186142e-08    0.000000e+00
-1.359934e-09    6.076592e-08    0.000000e+00
-1.060644e-09    6.261424e-08    0.000000e+00
-1.386856e-10    6.099625e-08    0.000000e+00
-1.043206e-10    6.281258e-08    0.000000e+00
-8.764222e-10    5.758345e-08    0.000000e+00
-1.559095e-09    5.860481e-08    0.000000e+00
-1.344932e-10    5.886540e-08    0.000000e+00
-8.148577e-10    5.985851e-08    0.000000e+00
-4.769188e-10    6.350582e-08    0.000000e+00
-6.573739e-10    6.406351e-08    0.000000e+00
-4.848484e-11    6.421544e-08    0.000000e+00
-2.210777e-10    6.468647e-08    0.000000e+00
5.517575e-09    1.891925e-08    0.000000e+00
5.806094e-09    1.894581e-08    0.000000e+00
5.879863e-09    1.889063e-08    0.000000e+00
5.081430e-09    1.920407e-08    0.000000e+00
5.452887e-09    1.914653e-08    0.000000e+00
4.502780e-09    1.981382e-08    0.000000e+00
5.026371e-09    1.966832e-08    0.000000e+00
3.789451e-09    2.083621e-08    0.000000e+00
4.468098e-09    2.060879e-08    0.000000e+00
3.040593e-09    2.218476e-08    0.000000e+00
3.838552e-09    2.187373e-08    0.000000e+00
2.281735e-09    2.379591e-08    0.000000e+00
3.174248e-09    2.339821e-08    0.000000e+00
1.531422e-09    2.562497e-08    0.000000e+00
2.499216e-09    2.513700e-08    0.000000e+00
8.046382e-10    2.763406e-08    0.000000e+00
1.830484e-09    2.705402e-08    0.000000e+00
1.130764e-10    2.979092e-08    0.000000e+00
1.181834e-09    2.911855e-08    0.000000e+00
-5.341206e-10    3.206781e-08    0.000000e+00
5.640768e-10    3.130396e-08    0.000000e+00
-1.129738e-09    3.444078e-08    0.000000e+00
-1.420921e-11    3.358738e-08    0.000000e+00
-5.456675e-10    3.594887e-08    0.000000e+00
4.037704e-09    3.629533e-08    0.000000e+00
2.951448e-09    3.705925e-08    0.000000e+00
4.401006e-09    3.425831e-08    0.000000e+00
3.342369e-09    3.493377e-08    0.000000e+00
4.770229e-09    3.227384e-08    0.000000e+00
3.749559e-09    3.286040e-08    0.000000e+00
5.136959e-09    3.035338e-08    0.000000e+00
4.164927e-09    3.085189e-08    0.000000e+00
5.490866e-09    2.850981e-08    0.000000e+00
4.579102e-09    2.892207e-08    0.000000e+00
5.819542e-09    2.675782e-08    0.000000e+00
4.980624e-09    2.708679e-08    0.000000e+00
6.108015e-09    2.511374e-08    0.000000e+00
5.355642e-09    2.536395e-08    0.000000e+00
6.339565e-09    2.359826e-08    0.000000e+00
5.687578e-09    2.377503e-08    0.000000e+00
6.493157e-09    2.222554e-08    0.000000e+00
5.956981e-09    2.234376e-08    0.000000e+00
6.564735e-09    2.104368e-08    0.000000e+00
6.146636e-09    2.110534e-08    0.000000e+00
6.478123e-09    1.993166e-08    0.000000e+00
6.242926e-09    2.001997e-08    0.000000e+00
6.307388e-09    1.929879e-08    0.000000e+00
6.237430e-09    1.906049e-08    0.000000e+00
6.047319e-09    1.911470e-08    0.000000e+00
6.125099e-09    1.939823e-08    0.000000e+00
6.266576e-09    1.913951e-08    0.000000e+00
5.818773e-09    1.913379e-08    0.000000e+00
6.089042e-09    1.902739e-08    0.000000e+00
3.709482e-09    2.607672e-08    0.000000e+00
4.105505e-09    2.748972e-08    0.000000e+00
4.561441e-09    2.568544e-08    0.000000e+00
2.803760e-09    2.653380e-08    0.000000e+00
3.402213e-09    2.470448e-08    0.000000e+00
2.138232e-09    3.207670e-08    0.000000e+00
2.712158e-09    3.352462e-08    0.000000e+00
3.169335e-09    3.142749e-08    0.000000e+00
1.081101e-09    3.279872e-08    0.000000e+00
1.631959e-09    3.060454e-08    0.000000e+00
1.187038e-09    3.651133e-08    0.000000e+00
2.274571e-09    3.568638e-08    0.000000e+00
5.653772e-10    3.507258e-08    0.000000e+00
1.647091e-09    3.426195e-08    0.000000e+00
2.652171e-09    2.997164e-08    0.000000e+00
3.637243e-09    2.941022e-08    0.000000e+00
2.209524e-09    2.850894e-08    0.000000e+00
3.179711e-09    2.796475e-08    0.000000e+00
5.150866e-09    2.138845e-08    0.000000e+00
5.370844e-09    2.252136e-08    0.000000e+00
5.682801e-09    2.122076e-08    0.000000e+00
4.543530e-09    2.160762e-08    0.000000e+00
5.043704e-09    2.041746e-08    0.000000e+00
4.227283e-09    2.433141e-08    0.000000e+00
4.989404e-09    2.401966e-08    0.000000e+00
3.988971e-09    2.304983e-08    0.000000e+00
4.716043e-09    2.275593e-08    0.000000e+00
5.521345e-09    2.025896e-08    0.000000e+00
5.931793e-09    2.014309e-08    0.000000e+00
5.475329e-09    1.956980e-08    0.000000e+00
5.834029e-09    1.947869e-08    0.000000e+00
2.891769e-10    1.674408e-08    0.000000e+00
3.397396e-10    1.673927e-08    0.000000e+00
2.556588e-10    1.669143e-08    0.000000e+00
2.883061e-10    1.679102e-08    0.000000e+00
3.265676e-10    1.680911e-08    0.000000e+00
2.553301e-10    1.672450e-08    0.000000e+00
3.012506e-10    1.682570e-08    0.000000e+00
3.278681e-10    1.686929e-08    0.000000e+00
2.682734e-10    1.674771e-08    0.000000e+00
3.427694e-10    1.691553e-08    0.000000e+00
2.937932e-10    1.675798e-08    0.000000e+00
4.421071e-10    1.708102e-08    0.000000e+00
3.785445e-10    1.696549e-08    0.000000e+00
5.992420e-10    1.726118e-08    0.000000e+00
5.087394e-10    1.711593e-08    0.000000e+00
8.223784e-10    1.745824e-08    0.000000e+00
6.993643e-10    1.727919e-08    0.000000e+00
1.120056e-09    1.767321e-08    0.000000e+00
9.587078e-10    1.745685e-08    0.000000e+00
1.499691e-09    1.790529e-08    0.000000e+00
1.294688e-09    1.764957e-08    0.000000e+00
1.965676e-09    1.815115e-08    0.000000e+00
1.713311e-09    1.785658e-08    0.000000e+00
2.516976e-09    1.840415e-08    0.000000e+00
2.216687e-09    1.807521e-08    0.000000e+00
3.144233e-09    1.865341e-08    0.000000e+00
2.800602e-09    1.830022e-08    0.000000e+00
3.826342e-09    1.888298e-08    0.000000e+00
3.451593e-09    1.852319e-08    0.000000e+00
4.526906e-09    1.907073e-08    0.000000e+00
4.143736e-09    1.873170e-08    0.000000e+00
5.188947e-09    1.918793e-08    0.000000e+00
4.834842e-09    1.890883e-08    0.000000e+00
5.732693e-09    1.919202e-08    0.000000e+00
5.462487e-09    1.903134e-08    0.000000e+00
5.999863e-09    1.904895e-08    0.000000e+00
5.932615e-09    1.907235e-08    0.000000e+00
6.064383e-09    1.900625e-08    0.000000e+00
5.912558e-09    1.851579e-08    0.000000e+00
6.166776e-09    1.894901e-08    0.000000e+00
5.470705e-09    1.814377e-08    0.000000e+00
5.778804e-09    1.855184e-08    0.000000e+00
4.898783e-09    1.782675e-08    0.000000e+00
5.262487e-09    1.823775e-08    0.000000e+00
4.271397e-09    1.758169e-08    0.000000e+00
4.642439e-09    1.796787e-08    0.000000e+00
3.633689e-09    1.739119e-08    0.000000e+00
3.988612e-09    1.774559e-08    0.000000e+00
3.021648e-09    1.724553e-08    0.000000e+00
3.343682e-09    1.756215e-08    0.000000e+00
2.458287e-09    1.713402e-08    0.000000e+00
2.739292e-09    1.741119e-08    0.000000e+00
1.957446e-09    1.704782e-08    0.000000e+00
2.194609e-09    1.728605e-08    0.000000e+00
1.525608e-09    1.697941e-08    0.000000e+00
1.719956e-09    1.718088e-08    0.000000e+00
1.163906e-09    1.692273e-08    0.000000e+00
1.318815e-09    1.709055e-08    0.000000e+00
8.697723e-10    1.687317e-08    0.000000e+00
9.898761e-10    1.701086e-08    0.000000e+00
6.383664e-10    1.682736e-08    0.000000e+00
7.287297e-10    1.693848e-08    0.000000e+00
4.637350e-10    1.678312e-08    0.000000e+00
5.292743e-10    1.687093e-08    0.000000e+00
3.848746e-10    1.680653e-08    0.000000e+00
2.198383e-09    1.767947e-08    0.000000e+00
1.947180e-09    1.778089e-08    0.000000e+00
2.484409e-09    1.797564e-08    0.000000e+00
1.943736e-09    1.741491e-08    0.000000e+00
2.463696e-09    1.755646e-08    0.000000e+00
7.058794e-10    1.711310e-08    0.000000e+00
5.964996e-10    1.712702e-08    0.000000e+00
8.215253e-10    1.727137e-08    0.000000e+00
6.092224e-10    1.698053e-08    0.000000e+00
8.370221e-10    1.707466e-08    0.000000e+00
3.744464e-10    1.689186e-08    0.000000e+00
4.345252e-10    1.699360e-08    0.000000e+00
4.414159e-10    1.689258e-08    0.000000e+00
5.112792e-10    1.699864e-08    0.000000e+00
1.298209e-09    1.737153e-08    0.000000e+00
1.117530e-09    1.742806e-08    0.000000e+00
1.491363e-09    1.759792e-08    0.000000e+00
1.131816e-09    1.717683e-08    0.000000e+00
1.499555e-09    1.728935e-08    0.000000e+00
9.658121e-10    1.723685e-08    0.000000e+00
1.708429e-09    1.751867e-08    0.000000e+00
4.748299e-09    1.845614e-08    0.000000e+00
4.453922e-09    1.858828e-08    0.000000e+00
5.122836e-09    1.877426e-08    0.000000e+00
4.364256e-09    1.810705e-08    0.000000e+00
5.019953e-09    1.834037e-08    0.000000e+00
3.395233e-09    1.804375e-08    0.000000e+00
3.095308e-09    1.817912e-08    0.000000e+00
3.762119e-09    1.838598e-08    0.000000e+00
3.052581e-09    1.771710e-08    0.000000e+00
3.695006e-09    1.789976e-08    0.000000e+00
2.764481e-09    1.785459e-08    0.000000e+00
4.068433e-09    1.824539e-08    0.000000e+00
5.896710e-09    1.888352e-08    0.000000e+00
5.702273e-09    1.893017e-08    0.000000e+00
6.080102e-09    1.902697e-08    0.000000e+00
5.601972e-09    1.860135e-08    0.000000e+00
6.051776e-09    1.888336e-08    0.000000e+00
5.381186e-09    1.867108e-08    0.000000e+00
6.186298e-09    1.904446e-08    0.000000e+00
4.257632e-09    1.555650e-08    0.000000e+00
4.003710e-09    1.580536e-08    0.000000e+00
4.351490e-09    1.546619e-08    0.000000e+00
4.295352e-09    1.544662e-08    0.000000e+00
4.103516e-09    1.558819e-08    0.000000e+00
4.407625e-09    1.540607e-08    0.000000e+00
4.289492e-09    1.534144e-08    0.000000e+00
4.149601e-09    1.542146e-08    0.000000e+00
4.393421e-09    1.537447e-08    0.000000e+00
4.163429e-09    1.524410e-08    0.000000e+00
4.342188e-09    1.532541e-08    0.000000e+00
3.798937e-09    1.520816e-08    0.000000e+00
3.982656e-09    1.533261e-08    0.000000e+00
3.313672e-09    1.523909e-08    0.000000e+00
3.523070e-09    1.536986e-08    0.000000e+00
2.786945e-09    1.532224e-08    0.000000e+00
2.993832e-09    1.544515e-08    0.000000e+00
2.273751e-09    1.543891e-08    0.000000e+00
2.462791e-09    1.554445e-08    0.000000e+00
1.806446e-09    1.557539e-08    0.000000e+00
1.969896e-09    1.565899e-08    0.000000e+00
1.401576e-09    1.572191e-08    0.000000e+00
1.536354e-09    1.578227e-08    0.000000e+00
1.064966e-09    1.587186e-08    0.000000e+00
1.171171e-09    1.590970e-08    0.000000e+00
7.956791e-10    1.602133e-08    0.000000e+00
8.752000e-10    1.603833e-08    0.000000e+00
5.891797e-10    1.616865e-08    0.000000e+00
6.446300e-10    1.616667e-08    0.000000e+00
4.397688e-10    1.631393e-08    0.000000e+00
4.736980e-10    1.629442e-08    0.000000e+00
3.423925e-10    1.645871e-08    0.000000e+00
3.567293e-10    1.642233e-08    0.000000e+00
2.938943e-10    1.660562e-08    0.000000e+00
2.895913e-10    1.655196e-08    0.000000e+00
2.706459e-10    1.668552e-08    0.000000e+00
2.184018e-10    1.664012e-08    0.000000e+00
2.321666e-10    1.667442e-08    0.000000e+00
2.325938e-10    1.659070e-08    0.000000e+00
2.274667e-10    1.660731e-08    0.000000e+00
2.966278e-10    1.654495e-08    0.000000e+00
2.722612e-10    1.654344e-08    0.000000e+00
4.119529e-10    1.650462e-08    0.000000e+00
3.668946e-10    1.648371e-08    0.000000e+00
5.825980e-10    1.647087e-08    0.000000e+00
5.145591e-10    1.642886e-08    0.000000e+00
8.142373e-10    1.644362e-08    0.000000e+00
7.205495e-10    1.637902e-08    0.000000e+00
1.112739e-09    1.642085e-08    0.000000e+00
9.910314e-10    1.633320e-08    0.000000e+00
1.482118e-09    1.639776e-08    0.000000e+00
1.331252e-09    1.628870e-08    0.000000e+00
1.921779e-09    1.636587e-08    0.000000e+00
1.743089e-09    1.624046e-08    0.000000e+00
2.423063e-09    1.631195e-08    0.000000e+00
2.221889e-09    1.618033e-08    0.000000e+00
2.964761e-09    1.621747e-08    0.000000e+00
2.752454e-09    1.609642e-08    0.000000e+00
3.510296e-09    1.605704e-08    0.000000e+00
3.304820e-09    1.597261e-08    0.000000e+00
3.831665e-09    1.579207e-08    0.000000e+00
1.074350e-09    1.612697e-08    0.000000e+00
1.291894e-09    1.596615e-08    0.000000e+00
9.678371e-10    1.607353e-08    0.000000e+00
1.195390e-09    1.619864e-08    0.000000e+00
8.840973e-10    1.626456e-08    0.000000e+00
2.875564e-09    1.576794e-08    0.000000e+00
3.208800e-09    1.556158e-08    0.000000e+00
2.664744e-09    1.565602e-08    0.000000e+00
3.090945e-09    1.587529e-08    0.000000e+00
2.542732e-09    1.597795e-08    0.000000e+00
3.925118e-09    1.555420e-08    0.000000e+00
3.729278e-09    1.548047e-08    0.000000e+00
3.634034e-09    1.574547e-08    0.000000e+00
3.424091e-09    1.566286e-08    0.000000e+00
1.851507e-09    1.595350e-08    0.000000e+00
2.148343e-09    1.575627e-08    0.000000e+00
1.686483e-09    1.586008e-08    0.000000e+00
2.030603e-09    1.606067e-08    0.000000e+00
1.578061e-09    1.613208e-08    0.000000e+00
2.340041e-09    1.586373e-08    0.000000e+00
1.427483e-09    1.604052e-08    0.000000e+00
4.143422e-10    1.639417e-08    0.000000e+00
5.179456e-10    1.629061e-08    0.000000e+00
3.805339e-10    1.640062e-08    0.000000e+00
4.587595e-10    1.640345e-08    0.000000e+00
3.327035e-10    1.647820e-08    0.000000e+00
7.912271e-10    1.621421e-08    0.000000e+00
7.116875e-10    1.618170e-08    0.000000e+00
6.405346e-10    1.633240e-08    0.000000e+00
5.732883e-10    1.630310e-08    0.000000e+00
2.527120e-10    1.658475e-08    0.000000e+00
2.944696e-10    1.651257e-08    0.000000e+00
2.570003e-10    1.662772e-08    0.000000e+00
2.577286e-10    1.655667e-08    0.000000e+00
2.316546e-10    1.663876e-08    0.000000e+00
3.087405e-10    1.648789e-08    0.000000e+00
2.452079e-10    1.668546e-08    0.000000e+00
-3.542247e-12    -5.521642e-11    0.000000e+00
-1.927943e-14    -5.976254e-11    0.000000e+00
-9.303078e-14    -4.775195e-11    0.000000e+00
-1.136079e-11    -6.291729e-11    0.000000e+00
-5.855868e-12    -6.405307e-11    0.000000e+00
-8.256407e-12    -5.131054e-11    0.000000e+00
-2.157132e-11    -7.737536e-11    0.000000e+00
-1.236344e-11    -7.618558e-11    0.000000e+00
-1.868216e-11    -6.092443e-11    0.000000e+00
-3.624041e-11    -9.650207e-11    0.000000e+00
-2.035762e-11    -9.498559e-11    0.000000e+00
-3.384540e-11    -7.552546e-11    0.000000e+00
-5.821532e-11    -1.147133e-10    0.000000e+00
-3.101247e-11    -1.169205e-10    0.000000e+00
-5.694116e-11    -9.189602e-11    0.000000e+00
-9.252629e-11    -1.192991e-10    0.000000e+00
-4.663465e-11    -1.336676e-10    0.000000e+00
-9.241893e-11    -1.019560e-10    0.000000e+00
-1.476272e-10    -8.418217e-11    0.000000e+00
-7.228678e-11    -1.270937e-10    0.000000e+00
-1.464022e-10    -8.913855e-11    0.000000e+00
-2.454019e-10    3.882322e-11    0.000000e+00
-1.215547e-10    -6.313016e-11    0.000000e+00
-2.300353e-10    -1.846523e-11    0.000000e+00
-4.048912e-10    3.315825e-10    0.000000e+00
-2.176905e-10    1.271766e-10    0.000000e+00
-3.532170e-10    1.595126e-10    0.000000e+00
-7.322041e-10    9.084202e-10    0.000000e+00
-4.208787e-10    5.599572e-10    0.000000e+00
-5.481381e-10    5.390849e-10    0.000000e+00
-7.280146e-10    1.506775e-09    0.000000e+00
-1.591144e-09    2.861443e-09    0.000000e+00
-6.461018e-10    1.075972e-09    0.000000e+00
7.804798e-11    1.634724e-09    0.000000e+00
-2.889199e-10    9.237112e-10    0.000000e+00
-3.910171e-10    2.614915e-09    0.000000e+00
1.044925e-09    1.731916e-09    0.000000e+00
4.679927e-10    9.902693e-10    0.000000e+00
6.583500e-10    2.586133e-09    0.000000e+00
1.266964e-09    1.132690e-09    0.000000e+00
1.876836e-09    2.633471e-09    0.000000e+00
7.329859e-10    3.581662e-10    0.000000e+00
6.940088e-10    5.856846e-10    0.000000e+00
4.000646e-10    4.028424e-11    0.000000e+00
4.134186e-10    1.150993e-10    0.000000e+00
2.079038e-10    -8.501979e-11    0.000000e+00
2.328706e-10    -6.711904e-11    0.000000e+00
9.720079e-11    -1.247773e-10    0.000000e+00
1.212680e-10    -1.296681e-10    0.000000e+00
3.589952e-11    -1.255636e-10    0.000000e+00
5.507004e-11    -1.380746e-10    0.000000e+00
5.247219e-12    -1.112947e-10    0.000000e+00
1.848218e-11    -1.241859e-10    0.000000e+00
-6.634709e-12    -9.430778e-11    0.000000e+00
9.987549e-13    -1.042338e-10    0.000000e+00
-7.644981e-12    -8.080154e-11    0.000000e+00
-4.725262e-12    -8.652925e-11    0.000000e+00
-3.121446e-12    -7.354722e-11    0.000000e+00
-3.817781e-12    -7.491540e-11    0.000000e+00
1.437714e-13    -7.097400e-11    0.000000e+00
7.264370e-14    -6.719665e-11    0.000000e+00
-1.713044e-12    -7.038286e-11    0.000000e+00
-2.266757e-12    -6.522941e-11    0.000000e+00
1.199754e-11    -1.464320e-10    0.000000e+00
5.661849e-11    -1.470624e-10    0.000000e+00
2.262245e-11    -1.373635e-10    0.000000e+00
-1.863178e-11    -1.455294e-10    0.000000e+00
-1.603342e-11    -1.347939e-10    0.000000e+00
7.613684e-11    8.268144e-11    0.000000e+00
3.096355e-10    2.600328e-10    0.000000e+00
1.965100e-10    -2.104575e-11    0.000000e+00
-1.323336e-10    2.678658e-10    0.000000e+00
-5.492122e-11    -1.310522e-11    0.000000e+00
7.257622e-11    5.194994e-10    0.000000e+00
5.732958e-11    -9.045897e-11    0.000000e+00
1.126422e-10    -1.230341e-10    0.000000e+00
-2.650164e-11    -1.208780e-10    0.000000e+00
3.189073e-11    -1.445895e-10    0.000000e+00
-5.126847e-12    -1.040980e-10    0.000000e+00
4.504278e-12    -1.161322e-10    0.000000e+00
-3.014287e-12    -9.478180e-11    0.000000e+00
-1.372495e-11    -1.123796e-10    0.000000e+00
-1.055634e-11    -9.025071e-11    0.000000e+00
7.584872e-14    -1.274605e-10    0.000000e+00
-5.671260e-12    -8.430143e-11    0.000000e+00
-4.061726e-12    -7.877023e-11    0.000000e+00
-6.627050e-12    -7.382526e-11    0.000000e+00
-3.457482e-12    -7.157831e-11    0.000000e+00
-1.897341e-09    5.569915e-09    0.000000e+00
-1.144711e-09    4.007227e-09    0.000000e+00
-1.442660e-09    8.287434e-09    0.000000e+00
-1.012945e-09    6.722398e-09    0.000000e+00
-4.952871e-10    1.072639e-08    0.000000e+00
-3.326440e-10    9.291478e-09    0.000000e+00
7.083556e-10    1.265176e-08    0.000000e+00
6.681756e-10    1.147185e-08    0.000000e+00
1.933178e-09    1.401022e-08    0.000000e+00
1.778690e-09    1.312871e-08    0.000000e+00
3.000475e-09    1.484422e-08    0.000000e+00
2.813680e-09    1.425988e-08    0.000000e+00
3.787255e-09    1.525396e-08    0.000000e+00
3.637553e-09    1.493206e-08    0.000000e+00
4.235315e-09    1.536975e-08    0.000000e+00
4.168002e-09    1.525390e-08    0.000000e+00
4.379543e-09    1.535111e-08    0.000000e+00
4.525860e-09    1.502490e-08    0.000000e+00
4.483109e-09    1.527187e-08    0.000000e+00
4.537437e-09    1.440058e-08    0.000000e+00
4.519638e-09    1.484461e-08    0.000000e+00
4.386711e-09    1.352663e-08    0.000000e+00
4.353623e-09    1.420127e-08    0.000000e+00
4.095598e-09    1.234360e-08    0.000000e+00
3.998487e-09    1.326261e-08    0.000000e+00
3.705714e-09    1.082192e-08    0.000000e+00
3.494806e-09    1.196398e-08    0.000000e+00
3.269403e-09    8.978680e-09    0.000000e+00
2.910536e-09    1.028288e-08    0.000000e+00
2.828928e-09    6.881109e-09    0.000000e+00
2.325097e-09    8.247958e-09    0.000000e+00
2.386973e-09    4.673294e-09    0.000000e+00
1.808491e-09    5.961098e-09    0.000000e+00
1.392319e-09    3.637643e-09    0.000000e+00
2.667821e-09    1.255544e-08    0.000000e+00
1.771065e-09    1.205188e-08    0.000000e+00
2.722855e-09    1.347190e-08    0.000000e+00
2.755157e-09    1.146232e-08    0.000000e+00
3.442287e-09    1.292807e-08    0.000000e+00
4.159195e-10    6.312223e-09    0.000000e+00
-4.079780e-10    5.176489e-09    0.000000e+00
3.290493e-11    7.779455e-09    0.000000e+00
9.332220e-10    4.888000e-09    0.000000e+00
1.395996e-09    7.330131e-09    0.000000e+00
1.379720e-10    3.774414e-09    0.000000e+00
1.014661e-09    8.760005e-09    0.000000e+00
8.159758e-10    1.013413e-08    0.000000e+00
2.036165e-09    9.576026e-09    0.000000e+00
1.814549e-09    1.088038e-08    0.000000e+00
4.029964e-09    1.457305e-08    0.000000e+00
3.531764e-09    1.442091e-08    0.000000e+00
4.103361e-09    1.498118e-08    0.000000e+00
4.001436e-09    1.398498e-08    0.000000e+00
4.365363e-09    1.469254e-08    0.000000e+00
3.440210e-09    1.377006e-08    0.000000e+00
4.376525e-09    1.505256e-08    0.000000e+00
4.391658e-09    1.526157e-08    0.000000e+00
4.501018e-09    1.513622e-08    0.000000e+00
4.459856e-09    1.531162e-08    0.000000e+00
0.000000e+00    0.000000e+00    0.000000e+00
-2.821237e-14    -4.749322e-12    0.000000e+00
0.000000e+00    0.000000e+00    0.000000e+00
-2.418705e-12    -4.958961e-12    0.000000e+00
0.000000e+00    0.000000e+00    0.000000e+00
-5.757517e-12    -5.332898e-12    0.000000e+00
0.000000e+00    0.000000e+00    0.000000e+00
-1.104632e-11    -5.662839e-12    0.000000e+00
0.000000e+00    0.000000e+00    0.000000e+00
-1.950287e-11    -5.432492e-12    0.000000e+00
0.000000e+00    0.000000e+00    0.000000e+00
-3.244990e-11    -3.657147e-12    0.000000e+00
0.000000e+00    0.000000e+00    0.000000e+00
-5.075271e-11    1.417130e-12    0.000000e+00
0.000000e+00    0.000000e+00    0.000000e+00
-7.333039e-11    1.246268e-11    0.000000e+00
0.000000e+00    0.000000e+00    0.000000e+00
-9.387189e-11    3.273614e-11    0.000000e+00
0.000000e+00    0.000000e+00    0.000000e+00
-9.763402e-11    6.338249e-11    0.000000e+00
-4.426073e-11    1.036785e-10    0.000000e+00
-1.908079e-10    3.382973e-10    0.000000e+00
-1.559635e-10    1.805256e-10    0.000000e+00
-3.472342e-10    5.988189e-10    0.000000e+00
-3.086917e-10    3.950909e-10    0.000000e+00
-5.263594e-10    6.720466e-10    0.000000e+00
-1.177242e-13    -3.286811e-11    0.000000e+00
-4.219091e-12    -4.141607e-11    0.000000e+00
-8.901281e-14    -1.751621e-11    0.000000e+00
-3.805515e-12    -2.558451e-11    0.000000e+00
-2.234407e-12    -1.087027e-11    0.000000e+00
-1.052328e-10    -6.227617e-11    0.000000e+00
-1.300466e-10    -7.918121e-11    0.000000e+00
-8.118238e-11    -8.059853e-11    0.000000e+00
-8.337109e-11    -2.621763e-11    0.000000e+00
-1.234926e-10    -3.893182e-11    0.000000e+00
-7.745998e-11    -4.392971e-11    0.000000e+00
-7.657474e-11    -9.410317e-12    0.000000e+00
-4.779906e-11    -1.431312e-11    0.000000e+00
-3.322968e-10    1.427437e-10    0.000000e+00
-4.167350e-10    2.925158e-10    0.000000e+00
-2.994068e-10    6.236525e-11    0.000000e+00
-2.378921e-10    9.454530e-11    0.000000e+00
-3.169710e-10    2.002732e-10    0.000000e+00
-2.581752e-10    6.015850e-11    0.000000e+00
-1.808270e-10    9.763518e-11    0.000000e+00
-1.561025e-10    3.815336e-11    0.000000e+00
-4.011923e-10    3.762488e-10    0.000000e+00
-2.539358e-10    2.180508e-10    0.000000e+00
-1.852388e-10    -1.185460e-11    0.000000e+00
-1.638081e-10    -4.748258e-11    0.000000e+00
-1.288997e-10    -1.428443e-11    0.000000e+00
-2.424954e-10    9.011731e-12    0.000000e+00
-1.852060e-10    1.999506e-11    0.000000e+00
-2.004933e-10    -4.438795e-11    0.000000e+00
-1.145609e-10    5.309819e-12    0.000000e+00
-3.749727e-11    -4.992397e-11    0.000000e+00
-4.878286e-11    -6.965580e-11    0.000000e+00
-2.771593e-11    -5.688544e-11    0.000000e+00
-2.926591e-11    -2.461735e-11    0.000000e+00
-4.615668e-11    -3.993442e-11    0.000000e+00
-2.581615e-11    -3.377295e-11    0.000000e+00
-2.816600e-11    -1.461657e-11    0.000000e+00
-1.553896e-11    -1.329164e-11    0.000000e+00
-6.439561e-11    -5.894482e-11    0.000000e+00
-5.082257e-11    -2.742292e-11    0.000000e+00
-1.277755e-11    -2.857416e-11    0.000000e+00
-8.706373e-12    -3.521870e-11    0.000000e+00
-6.613646e-12    -1.862767e-11    0.000000e+00
-2.016339e-11    -4.117864e-11    0.000000e+00
-1.551884e-11    -2.117377e-11    0.000000e+00
-1.395770e-11    -4.689240e-11    0.000000e+00
-7.583930e-12    -1.182231e-11    0.000000e+00

CELL_DATA      259
TENSORS Element_Stress1.600000e+00 double
-8.860914e+02 -3.834570e+02        0
-3.834570e+02 -1.745656e+02        0
       0        0 1.600278e+02

-8.651868e+02 -3.217028e+02        0
-3.217028e+02 -1.654887e+02        0
       0        0 -4.024843e+02

-8.066719e+02 -3.815390e+02        0
-3.815390e+02 -1.874170e+02        0
       0        0 3.029104e+02

-7.005538e+02 -2.898028e+02        0
-2.898028e+02 -1.635802e+02        0
       0        0 -1.739092e+02

-9.644023e+02 -3.563268e+02        0
-3.563268e+02 -1.315962e+02        0
       0        0 7.522108e+02

-9.715728e+02 -3.807675e+02        0
-3.807675e+02 -1.494013e+02        0
       0        0 8.132422e+02

-1.024862e+03 -3.471500e+02        0
-3.471500e+02 -1.653777e+02        0
       0        0 -6.352808e+02

-9.641668e+02 -3.856058e+02        0
-3.856058e+02 -1.627341e+02        0
       0        0 1.581941e+01

-9.609767e+02 -3.350647e+02        0
-3.350647e+02 -1.165157e+02        0
       0        0 6.893583e+02

-1.846189e+03 -5.853074e+02        0
-5.853074e+02 -2.585885e+02        0
       0        0 -1.673031e+03

8.002455e+02 -2.697024e+02        0
-2.697024e+02 -4.360093e+01        0
       0        0 1.081201e+03

-1.894085e+03 -5.823245e+02        0
-5.823245e+02 -1.097847e+03        0
       0        0 -1.720203e+03

1.279947e+03 -2.126852e+02        0
-2.126852e+02 -1.735980e+02        0
       0        0 1.333610e+03

-4.326291e+03 -4.458994e+02        0
-4.458994e+02 -5.169406e+02        0
       0        0 -4.403281e+03

-5.449360e+03 -1.277533e+03        0
-1.277533e+03 -2.872378e+03        0
       0        0 -5.166429e+03

3.478035e+02 -2.348984e+02        0
-2.348984e+02 -2.616627e+01        0
       0        0 8.216170e+02

-1.739124e+03 -5.342694e+02        0
-5.342694e+02 -1.305612e+02        0
       0        0 -1.598560e+03

-3.761102e+03 -4.370777e+02        0
-4.370777e+02 -2.693298e+02        0
       0        0 -3.952219e+03

-1.592582e+03 -4.777450e+02        0
-4.777450e+02 -1.105232e+02        0
       0        0 -1.349015e+03

-2.913605e+02 -2.078221e+02        0
-2.078221e+02 -3.564475e+01        0
       0        0 5.054457e+02

-1.660639e+03 -5.019624e+02        0
-5.019624e+02 -1.122017e+02        0
       0        0 -1.486035e+03

-1.137112e+01 -2.121439e+02        0
-2.121439e+02 -2.931721e+01        0
       0        0 6.311122e+02

-2.912563e+03 -4.573551e+02        0
-4.573551e+02 -1.772145e+02        0
       0        0 -3.151742e+03

-3.304937e+03 -4.518264e+02        0
-4.518264e+02 -2.052372e+02        0
       0        0 -3.544030e+03

-5.075846e+02 -2.136941e+02        0
-2.136941e+02 -4.267261e+01        0
       0        0 4.319259e+02

-1.523061e+03 -4.577437e+02        0
-4.577437e+02 -1.132250e+02        0
       0        0 -1.194567e+03

-2.571072e+03 -4.558810e+02        0
-4.558810e+02 -1.650531e+02        0
       0        0 -2.777004e+03

-1.374557e+03 -4.266034e+02        0
-4.266034e+02 -1.231894e+02        0
       0        0 -8.547821e+02

-7.860196e+02 -2.408761e+02        0
-2.408761e+02 -5.882690e+01        0
       0        0 4.031193e+02

-1.450383e+03 -4.408887e+02        0
-4.408887e+02 -1.178332e+02        0
       0        0 -1.028451e+03

-6.695891e+02 -2.255557e+02        0
-2.255557e+02 -5.042278e+01        0
       0        0 4.005475e+02

-2.009461e+03 -4.384823e+02        0
-4.384823e+02 -1.576774e+02        0
       0        0 -2.081051e+03

-2.272380e+03 -4.491181e+02        0
-4.491181e+02 -1.595984e+02        0
       0        0 -2.420083e+03

-8.650528e+02 -2.580348e+02        0
-2.580348e+02 -6.795890e+01        0
       0        0 4.325582e+02

-1.295859e+03 -4.145910e+02        0
-4.145910e+02 -1.289886e+02        0
       0        0 -6.767749e+02

-1.775969e+03 -4.249938e+02        0
-4.249938e+02 -1.575303e+02        0
       0        0 -1.759301e+03

-1.131195e+03 -3.964904e+02        0
-3.964904e+02 -1.423903e+02        0
       0        0 -3.174076e+02

-9.421729e+02 -2.948166e+02        0
-2.948166e+02 -8.908140e+01        0
       0        0 5.474556e+02

-1.214596e+03 -4.046155e+02        0
-4.046155e+02 -1.353028e+02        0
       0        0 -4.969422e+02

-9.145874e+02 -2.761202e+02        0
-2.761202e+02 -7.796054e+01        0
       0        0 4.825769e+02

-1.372892e+03 -3.911929e+02        0
-3.911929e+02 -1.594484e+02        0
       0        0 -1.162931e+03

-1.565778e+03 -4.092098e+02        0
-4.092098e+02 -1.582836e+02        0
       0        0 -1.453743e+03

-9.551667e+02 -3.145276e+02        0
-3.145276e+02 -1.017408e+02        0
       0        0 6.211439e+02

-1.046021e+03 -3.899393e+02        0
-3.899393e+02 -1.511454e+02        0
       0        0 -1.414687e+02

-1.191709e+03 -3.704297e+02        0
-3.704297e+02 -1.605585e+02        0
       0        0 -8.858684e+02

-9.851800e+02 -4.095888e+02        0
-4.095888e+02 -1.706652e+02        0
       0        0 8.681560e+02

-7.262509e+02 -3.794339e+02        0
-3.794339e+02 -2.021177e+02        0
       0        0 4.401853e+02

-5.285663e+02 -2.501258e+02        0
-2.501258e+02 -1.589954e+02        0
       0        0 4.971574e+01

-1.040447e+03 -4.850409e+02        0
-4.850409e+02 -2.271011e+02        0
       0        0 9.479614e+02

-1.007440e+03 -4.439503e+02        0
-4.439503e+02 -1.962575e+02        0
       0        0 9.140554e+02

-1.540094e+02 -1.409451e+02        0
-1.409451e+02 -1.373357e+02        0
       0        0 4.829159e+02

-5.636013e+02 -3.738081e+02        0
-3.738081e+02 -2.375676e+02        0
       0        0 6.913058e+02

-3.469705e+02 -2.010778e+02        0
-2.010778e+02 -1.506235e+02        0
       0        0 2.687070e+02

-6.451412e+02 -3.769247e+02        0
-3.769247e+02 -2.188136e+02        0
       0        0 5.702226e+02

-1.085904e+03 -5.343594e+02        0
-5.343594e+02 -2.643016e+02        0
       0        0 9.667359e+02

-4.821929e+02 -3.698961e+02        0
-3.698961e+02 -2.581971e+02        0
       0        0 8.013647e+02

5.208819e+01 -6.828609e+01        0
-6.828609e+01 -1.171815e+02        0
       0        0 6.919907e+02

-1.219242e+03 -6.621753e+02        0
-6.621753e+02 -3.612781e+02        0
       0        0 9.458175e+02

-1.146044e+03 -5.919340e+02        0
-5.919340e+02 -3.077390e+02        0
       0        0 9.671651e+02

5.110602e+02 1.222786e+02        0
1.222786e+02 -5.151651e+01        0
       0        0 1.089768e+03

-3.286430e+02 -3.604017e+02        0
-3.604017e+02 -3.052031e+02        0
       0        0 9.756649e+02

2.730620e+02 1.843947e+01        0
1.843947e+01 -9.044506e+01        0
       0        0 8.943856e+02

-4.016261e+02 -3.660957e+02        0
-3.660957e+02 -2.803376e+02        0
       0        0 8.979420e+02

-1.315205e+03 -7.291471e+02        0
-7.291471e+02 -4.158659e+02        0
       0        0 8.997647e+02

-2.647370e+02 -3.475887e+02        0
-3.475887e+02 -3.724935e+02        0
       0        0 1.019861e+03

7.095722e+02 2.611239e+02        0
2.611239e+02 -5.022244e+00        0
       0        0 1.256048e+03

-1.430561e+03 -7.907257e+02        0
-7.907257e+02 -1.450739e+03        0
       0        0 5.048204e+02

-1.422055e+03 -8.632353e+02        0
-8.632353e+02 -6.604983e+02        0
       0        0 7.757452e+02

1.630051e+02 4.849201e+02        0
4.849201e+02 4.260048e+02        0
       0        0 1.333094e+03

-4.414771e+02 1.768635e+02        0
1.768635e+02 -3.635063e+02        0
       0        0 1.015633e+03

5.865180e+02 4.484292e+02        0
4.484292e+02 1.070303e+02        0
       0        0 1.319045e+03

-2.423155e+02 -1.290182e+02        0
-1.290182e+02 -4.833842e+02        0
       0        0 1.023140e+03

2.009321e+01 -3.443832e+01        0
-3.443832e+01 -9.902075e+02        0
       0        0 9.033617e+02

1.645542e+01 -1.268186e+02        0
-1.268186e+02 3.022750e+01        0
       0        0 1.058075e+03

2.220934e+01 -2.010849e+02        0
-2.010849e+02 3.795595e+02        0
       0        0 1.272569e+03

2.006086e+01 -6.909011e+01        0
-6.909011e+01 -4.226639e+02        0
       0        0 6.675332e+02

1.412043e+01 -2.156034e+01        0
-2.156034e+01 -3.511666e+02        0
       0        0 7.010145e+02

2.901062e+01 -1.174989e+02        0
-1.174989e+02 -4.279841e+02        0
       0        0 8.079945e+02

1.748661e+01 -3.041259e+01        0
-3.041259e+01 -5.046560e+02        0
       0        0 7.944394e+02

4.230681e+00 -2.061694e+01        0
-2.061694e+01 -4.213293e+02        0
       0        0 6.506813e+02

1.008580e+01 -6.771802e+01        0
-6.771802e+01 -2.332205e+02        0
       0        0 8.467564e+02

7.447723e+00 1.571467e+00        0
1.571467e+00 -4.167520e+02        0
       0        0 4.054370e+02

7.322108e+00 -1.685208e+00        0
-1.685208e+00 -1.841148e+02        0
       0        0 4.909508e+02

1.318523e+01 -2.960658e+01        0
-2.960658e+01 -4.191152e+02        0
       0        0 5.313142e+02

1.052354e+01 -1.141804e+01        0
-1.141804e+01 -2.472549e+02        0
       0        0 5.970419e+02

-3.020323e+00 4.011941e+01        0
4.011941e+01 -6.268445e+02        0
       0        0 3.274172e+02

3.620840e-02 1.457281e+01        0
1.457281e+01 -5.486067e+02        0
       0        0 4.764659e+02

-5.302634e-01 4.179469e+01        0
4.179469e+01 -4.153006e+02        0
       0        0 1.977236e+02

2.056861e+00 1.512509e+01        0
1.512509e+01 -1.444062e+02        0
       0        0 2.949534e+02

2.908119e+00 2.506761e+01        0
2.506761e+01 -4.155223e+02        0
       0        0 2.936435e+02

4.468340e+00 7.295349e+00        0
7.295349e+00 -1.525363e+02        0
       0        0 3.888708e+02

-6.439037e+00 6.810288e+01        0
6.810288e+01 -6.809248e+02        0
       0        0 1.057086e+02

-5.132889e+00 5.743851e+01        0
5.743851e+01 -6.675521e+02        0
       0        0 2.041996e+02

-4.540772e+00 5.889343e+01        0
5.889343e+01 -4.173099e+02        0
       0        0 5.406518e+01

-1.398955e+00 2.661708e+01        0
2.661708e+01 -1.709885e+02        0
       0        0 1.406926e+02

-2.970648e+00 5.273556e+01        0
5.273556e+01 -4.159456e+02        0
       0        0 1.180586e+02

1.019052e-01 2.160015e+01        0
2.160015e+01 -1.525771e+02        0
       0        0 2.117719e+02

-7.292466e+00 7.521409e+01        0
7.521409e+01 -6.597762e+02        0
       0        0 -2.694007e+01

-7.110442e+00 7.358178e+01        0
7.358178e+01 -6.758559e+02        0
       0        0 2.963575e+01

-5.597329e+00 6.063622e+01        0
6.063622e+01 -4.215825e+02        0
       0        0 -3.179811e+01

-3.138906e+00 3.228278e+01        0
3.228278e+01 -2.195363e+02        0
       0        0 3.625756e+01

-5.372694e+00 6.123091e+01        0
6.123091e+01 -4.192489e+02        0
       0        0 4.582173e+00

-2.467417e+00 3.016214e+01        0
3.016214e+01 -1.946447e+02        0
       0        0 8.221131e+01

-6.700035e+00 7.144226e+01        0
7.144226e+01 -6.171999e+02        0
       0        0 -9.386762e+01

-7.115787e+00 7.416974e+01        0
7.416974e+01 -6.386813e+02        0
       0        0 -6.712404e+01

-3.442479e+00 3.302877e+01        0
3.302877e+01 -2.422552e+02        0
       0        0 2.537555e+00

-5.340076e+00 5.785618e+01        0
5.785618e+01 -4.234677e+02        0
       0        0 -5.628752e+01

-6.133963e+00 6.784077e+01        0
6.784077e+01 -5.984065e+02        0
       0        0 -1.096213e+02

4.630365e+01 -2.413537e+02        0
-2.413537e+02 -4.627702e+02        0
       0        0 1.053037e+03

2.260270e+01 -3.939634e+01        0
-3.939634e+01 -7.199782e+02        0
       0        0 8.660377e+02

3.809001e+01 -1.729885e+02        0
-1.729885e+02 -4.351125e+02        0
       0        0 9.427783e+02

-1.258951e+02 2.105852e+02        0
2.105852e+02 7.438605e+02        0
       0        0 1.385767e+03

-7.640982e+01 -1.492989e+02        0
-1.492989e+02 7.086427e+02        0
       0        0 1.400386e+03

-6.105797e+02 -4.130511e+02        0
-4.130511e+02 -1.849883e+03        0
       0        0 6.033925e+02

-5.555477e+02 -6.435537e+01        0
-6.435537e+01 -1.808617e+02        0
       0        0 1.058022e+03

-2.136043e+01 -7.881772e+01        0
-7.881772e+01 -1.404180e+03        0
       0        0 8.586357e+02

-1.290252e+02 -2.830139e+02        0
-2.830139e+02 -4.005551e+02        0
       0        0 1.100504e+03

-5.431103e+01 5.093318e+01        0
5.093318e+01 8.334244e+01        0
       0        0 9.678813e+02

-1.416676e+02 2.430903e+02        0
2.430903e+02 -4.076535e+02        0
       0        0 8.225677e+02

-1.129983e+02 2.983961e+02        0
2.983961e+02 -9.925978e+02        0
       0        0 6.750402e+02

-3.607311e+01 9.522151e+01        0
9.522151e+01 -1.168180e+02        0
       0        0 8.153485e+02

-6.821681e+01 2.153058e+02        0
2.153058e+02 -4.368524e+02        0
       0        0 7.220700e+02

-3.858050e+01 1.786028e+02        0
1.786028e+02 -7.434004e+02        0
       0        0 6.448699e+02

-2.313530e+01 1.005494e+02        0
1.005494e+02 -3.162956e+02        0
       0        0 6.400977e+02

-3.156195e+01 1.688803e+02        0
1.688803e+02 -4.429841e+02        0
       0        0 6.004705e+02

-1.372847e+01 1.176822e+02        0
1.176822e+02 -5.323019e+02        0
       0        0 5.770781e+02

-1.276673e+01 8.217302e+01        0
8.217302e+01 -5.587685e+02        0
       0        0 3.263897e+02

-1.709263e+01 9.181454e+01        0
9.181454e+01 -4.660307e+02        0
       0        0 4.720000e+02

-3.633588e+00 5.429165e+01        0
5.429165e+01 -3.132031e+02        0
       0        0 3.831094e+02

-1.150992e+01 9.050123e+01        0
9.050123e+01 -4.432607e+02        0
       0        0 3.510231e+02

-7.407576e+00 8.027853e+01        0
8.027853e+01 -3.954182e+02        0
       0        0 4.832717e+02

-1.896776e+01 1.245797e+02        0
1.245797e+02 -4.431104e+02        0
       0        0 4.720741e+02

-7.083005e+00 6.635116e+01        0
6.635116e+01 -6.274274e+02        0
       0        0 1.097881e+02

-9.483492e+00 7.352358e+01        0
7.352358e+01 -6.082306e+02        0
       0        0 2.059113e+02

-3.998260e-01 2.750309e+01        0
2.750309e+01 -2.551258e+02        0
       0        0 1.995117e+02

-3.109795e+00 4.978746e+01        0
4.978746e+01 -4.428286e+02        0
       0        0 1.532680e+02

-1.453028e+00 3.734391e+01        0
3.734391e+01 -2.706497e+02        0
       0        0 2.865425e+02

-6.347100e+00 6.604261e+01        0
6.604261e+01 -4.433064e+02        0
       0        0 2.438655e+02

-5.467338e+00 6.094239e+01        0
6.094239e+01 -6.272219e+02        0
       0        0 3.556517e+01

-1.382832e+00 4.025382e+01        0
4.025382e+01 -4.417932e+02        0
       0        0 7.964703e+01

-1.722462e-01 2.289653e+01        0
2.289653e+01 -2.560212e+02        0
       0        0 1.252465e+02

-4.082027e+00 5.572084e+01        0
5.572084e+01 -6.017985e+02        0
       0        0 -6.024080e+01

-4.508582e+00 5.740513e+01        0
5.740513e+01 -6.164009e+02        0
       0        0 -1.999412e+01

-1.100144e+00 2.320513e+01        0
2.320513e+01 -2.753711e+02        0
       0        0 1.958832e+01

-9.921952e-01 3.576943e+01        0
3.576943e+01 -4.380832e+02        0
       0        0 -2.075240e+01

-4.821945e-01 2.191310e+01        0
2.191310e+01 -2.649140e+02        0
       0        0 6.516021e+01

-7.890534e-01 3.601466e+01        0
3.601466e+01 -4.401985e+02        0
       0        0 2.212890e+01

-4.368196e+00 5.735477e+01        0
5.735477e+01 -5.799944e+02        0
       0        0 -1.060749e+02

-4.070763e+00 5.577094e+01        0
5.577094e+01 -5.884895e+02        0
       0        0 -8.816466e+01

-2.554809e+00 2.849280e+01        0
2.849280e+01 -2.839330e+02        0
       0        0 -2.877911e+01

-2.698615e+00 4.278127e+01        0
4.278127e+01 -4.325487e+02        0
       0        0 -6.845372e+01

-1.840808e+00 2.568511e+01        0
2.568511e+01 -2.827401e+02        0
       0        0 -1.163859e+01

-1.708565e+00 3.836458e+01        0
3.836458e+01 -4.355072e+02        0
       0        0 -5.053332e+01

-5.500017e+00 6.389131e+01        0
6.389131e+01 -5.847641e+02        0
       0        0 -1.165823e+02

-4.877565e+00 6.018763e+01        0
6.018763e+01 -5.784566e+02        0
       0        0 -1.154010e+02

-3.436315e+00 3.256529e+01        0
3.256529e+01 -2.623304e+02        0
       0        0 -2.080402e+01

-4.696413e+00 5.345088e+01        0
5.345088e+01 -4.258955e+02        0
       0        0 -7.088333e+01

-3.124321e+00 3.095793e+01        0
3.095793e+01 -2.772612e+02        0
       0        0 -3.191417e+01

-3.756741e+00 4.809873e+01        0
4.809873e+01 -4.293050e+02        0
       0        0 -7.522095e+01

1.371790e+03 -2.616745e+02        0
-2.616745e+02 1.028882e+01        0
       0        0 6.794648e+02

1.746209e+03 -8.494232e+01        0
-8.494232e+01 -7.868436e+01        0
       0        0 8.831002e+02

-9.649344e+02 4.835358e+01        0
4.835358e+01 -3.369765e+01        0
       0        0 -4.458586e+02

-2.018919e-01 -3.600336e+02        0
-3.600336e+02 4.554595e+01        0
       0        0 5.341726e+01

-2.044989e+03 4.353169e+02        0
4.353169e+02 -1.105336e+03        0
       0        0 -1.186969e+03

-2.318570e+02 -2.555502e+01        0
-2.555502e+01 -5.045118e+02        0
       0        0 -1.859986e+02

8.893207e+02 -1.927472e+02        0
-1.927472e+02 2.782481e+01        0
       0        0 4.486744e+02

1.395489e+02 -3.202145e+02        0
-3.202145e+02 1.206059e+02        0
       0        0 1.164702e+02

-4.275755e+02 -1.407643e+02        0
-1.407643e+02 1.433786e+02        0
       0        0 -1.746072e+02

3.264562e+02 -8.176595e+01        0
-8.176595e+01 1.256996e+01        0
       0        0 1.644546e+02

5.502015e+02 -1.245949e+02        0
-1.245949e+02 1.874694e+01        0
       0        0 2.793332e+02

-8.656780e+01 -1.598211e+02        0
-1.598211e+02 1.232900e+02        0
       0        0 -3.278915e+01

1.197653e+02 -1.726559e+02        0
-1.726559e+02 6.678269e+01        0
       0        0 7.154166e+01

-1.908981e+02 -1.790929e+02        0
-1.790929e+02 1.455131e+02        0
       0        0 -7.296626e+01

1.581201e+02 -2.406262e+02        0
-2.406262e+02 9.167283e+01        0
       0        0 1.031969e+02

8.416180e+01 -3.438396e+01        0
-3.438396e+01 6.537461e+00        0
       0        0 3.578013e+01

1.794344e+02 -5.362649e+01        0
-5.362649e+01 8.784905e+00        0
       0        0 8.704856e+01

-2.622431e+01 -8.608990e+01        0
-8.608990e+01 8.209127e+01        0
       0        0 -1.352345e+01

3.698995e+01 -7.945504e+01        0
-7.945504e+01 3.852343e+01        0
       0        0 1.832467e+01

-4.408009e+01 -1.232448e+02        0
-1.232448e+02 1.015323e+02        0
       0        0 -1.809947e+01

7.444299e+01 -1.199300e+02        0
-1.199300e+02 5.004380e+01        0
       0        0 4.163969e+01

2.517053e+01 -2.075259e+01        0
-2.075259e+01 4.975878e+00        0
       0        0 3.250047e+00

1.077991e+01 -4.906921e+01        0
-4.906921e+01 3.006390e+01        0
       0        0 1.976407e+00

-1.872692e+01 -5.471800e+01        0
-5.471800e+01 6.594539e+01        0
       0        0 -1.294612e+01

-2.371938e+01 -3.344469e+00        0
-3.344469e+00 3.487472e+00        0
       0        0 -2.405655e+01

-8.297258e+00 -1.095592e+01        0
-1.095592e+01 3.967393e+00        0
       0        0 -1.564465e+01

-1.429249e+01 -9.397472e+00        0
-9.397472e+00 4.882281e+01        0
       0        0 -1.408800e+01

-1.273271e+01 -8.262272e+00        0
-8.262272e+00 2.164651e+01        0
       0        0 -1.281068e+01

-1.555536e+01 -2.975166e+01        0
-2.975166e+01 5.449013e+01        0
       0        0 -1.353880e+01

-5.137396e+00 -2.628824e+01        0
-2.628824e+01 2.439919e+01        0
       0        0 -8.139089e+00

-1.490064e+03 6.769515e+02        0
6.769515e+02 -1.656867e+02        0
       0        0 -9.005030e+02

-2.922806e+03 1.086168e+03        0
1.086168e+03 -6.747802e+02        0
       0        0 -1.464366e+03

1.693888e+02 4.833284e+02        0
4.833284e+02 -1.647923e+02        0
       0        0 6.019336e+02

-5.831097e+02 9.112675e+02        0
9.112675e+02 -2.495627e+02        0
       0        0 -1.521397e+02

1.264691e+03 3.070731e+02        0
3.070731e+02 -1.078096e+02        0
       0        0 8.446514e+02

-5.783098e+02 9.021587e+02        0
9.021587e+02 -5.547463e+02        0
       0        0 -2.907564e+02

-5.526959e+02 4.492957e+02        0
4.492957e+02 -2.305891e+02        0
       0        0 -4.648218e+02

-4.585901e+02 7.286236e+02        0
7.286236e+02 -4.154525e+02        0
       0        0 -2.182053e+01

-7.017287e+02 5.973051e+02        0
5.973051e+02 -3.402451e+02        0
       0        0 4.027164e+02

2.123365e+02 -6.023931e+01        0
-6.023931e+01 -5.945571e+01        0
       0        0 4.011705e+02

-2.043393e+01 1.800049e+02        0
1.800049e+02 -1.821992e+02        0
       0        0 -1.036558e+01

-1.268257e+03 9.291534e+02        0
9.291534e+02 -7.824216e+02        0
       0        0 3.577684e+02

-3.912645e+02 4.136707e+02        0
4.136707e+02 -5.074764e+02        0
       0        0 3.955917e+02

-1.149817e+03 7.756666e+02        0
7.756666e+02 -5.500824e+02        0
       0        0 3.349200e+02

-4.026113e+02 5.484465e+02        0
5.484465e+02 -5.010458e+02        0
       0        0 1.751223e+02

1.789849e+02 -2.557421e+02        0
-2.557421e+02 2.351926e+02        0
       0        0 9.663088e+02

2.472658e+02 -2.082045e+02        0
-2.082045e+02 9.773783e+01        0
       0        0 7.333996e+02

-9.371850e+02 9.650189e+02        0
9.650189e+02 -1.176708e+03        0
       0        0 5.177467e+02

-3.747060e+02 2.830782e+02        0
2.830782e+02 -4.348740e+02        0
       0        0 7.594050e+02

-1.162812e+03 9.974619e+02        0
9.974619e+02 -1.003188e+03        0
       0        0 4.305188e+02

-3.883168e+02 3.280414e+02        0
3.280414e+02 -4.754726e+02        0
       0        0 5.995015e+02

8.013882e+01 -2.200120e+02        0
-2.200120e+02 3.147322e+02        0
       0        0 1.095930e+03

-3.418316e+02 2.646110e+02        0
2.646110e+02 -4.040641e+02        0
       0        0 8.611056e+02

-6.760044e+02 8.461117e+02        0
8.461117e+02 -1.273691e+03        0
       0        0 5.948585e+02

-4.839703e+01 -3.304101e+01        0
-3.304101e+01 2.382822e+02        0
       0        0 1.080412e+03

-3.254403e+00 -1.336988e+02        0
-1.336988e+02 3.162795e+02        0
       0        0 1.129242e+03

-2.513911e+02 4.776733e+02        0
4.776733e+02 -1.186964e+03        0
       0        0 6.723839e+02

-2.216432e+02 2.503020e+02        0
2.503020e+02 -3.846694e+02        0
       0        0 8.869453e+02

-4.366310e+02 6.722035e+02        0
6.722035e+02 -1.279597e+03        0
       0        0 6.476421e+02

-2.894677e+02 2.579917e+02        0
2.579917e+02 -3.898504e+02        0
       0        0 9.014568e+02

-6.284403e+02 5.729161e+02        0
5.729161e+02 -5.735059e+02        0
       0        0 -5.497307e+02

-1.069612e+03 5.167445e+02        0
5.167445e+02 -3.580984e+02        0
       0        0 -6.458538e+02

-4.843315e+02 8.342633e+02        0
8.342633e+02 -1.507078e+03        0
       0        0 -7.813968e+02

-1.517786e+03 1.347430e+03        0
1.347430e+03 -1.776233e+03        0
       0        0 -1.262105e+03

-3.375809e+02 4.422259e+02        0
4.422259e+02 -7.235032e+02        0
       0        0 -3.697674e+02

-4.245895e+02 5.045775e+02        0
5.045775e+02 -7.071422e+02        0
       0        0 -4.706558e+02

-2.867322e+02 4.241187e+02        0
4.241187e+02 -1.176849e+03        0
       0        0 -4.756070e+02

-2.778806e+02 5.771017e+02        0
5.771017e+02 -1.278898e+03        0
       0        0 -5.749488e+02

-2.597804e+02 2.265143e+01        0
2.265143e+01 1.229082e+02        0
       0        0 -1.446151e+02

-2.226617e+02 -7.802204e+01        0
-7.802204e+01 1.427328e+02        0
       0        0 -1.131658e+02

-3.941232e+02 1.013881e+02        0
1.013881e+02 4.847078e+01        0
       0        0 -2.367910e+02

-3.767578e+02 -2.976716e+01        0
-2.976716e+01 1.204126e+02        0
       0        0 -1.956315e+02

-5.534721e+02 2.799509e+02        0
2.799509e+02 -1.505982e+02        0
       0        0 -3.761664e+02

-6.305359e+02 1.283332e+02        0
1.283332e+02 1.846681e+01        0
       0        0 -3.436852e+02

-9.486198e+01 1.731778e+02        0
1.731778e+02 1.039113e+01        0
       0        0 -5.877265e+01

-2.140424e+02 1.112533e+02        0
1.112533e+02 7.625257e+01        0
       0        0 -1.252388e+02

-1.699671e+02 2.631609e+02        0
2.631609e+02 -1.116175e+02        0
       0        0 -1.269188e+02

-3.195353e+02 1.949222e+02        0
1.949222e+02 -3.322081e+01        0
       0        0 -2.117853e+02

-2.610990e+02 3.667862e+02        0
3.667862e+02 -3.442361e+02        0
       0        0 -2.317179e+02

-4.173509e+02 3.294581e+02        0
3.294581e+02 -2.781900e+02        0
       0        0 -3.341930e+02

-9.252110e+01 -1.373206e+01        0
-1.373206e+01 1.279714e+02        0
       0        0 -5.041163e+01

-7.619928e+01 -5.903270e+01        0
-5.903270e+01 1.160033e+02        0
       0        0 -4.127823e+01

-1.598590e+02 -6.650727e+00        0
-6.650727e+00 1.383248e+02        0
       0        0 -8.583691e+01

-1.312403e+02 -7.623414e+01        0
-7.623414e+01 1.346861e+02        0
       0        0 -6.709478e+01

-1.237731e+01 6.237176e+01        0
6.237176e+01 8.191806e+01        0
       0        0 1.721412e+00

-7.029593e+01 3.199411e+01        0
3.199411e+01 1.154456e+02        0
       0        0 -3.558137e+01

-4.350678e+01 1.068629e+02        0
1.068629e+02 6.439853e+01        0
       0        0 -1.913351e+01

-1.289179e+02 6.076353e+01        0
6.076353e+01 1.132066e+02        0
       0        0 -6.908793e+01

-1.533101e+01 -2.538799e+00        0
-2.538799e+00 8.686522e+01        0
       0        0 -1.490633e+01

-1.776781e+01 -6.979234e+00        0
-6.979234e+00 7.318048e+01        0
       0        0 -1.738987e+01

-2.654045e+01 -7.689842e+00        0
-7.689842e+00 9.518373e+01        0
       0        0 -1.943826e+01

-2.601460e+01 -2.198513e+01        0
-2.198513e+01 8.104333e+01        0
       0        0 -2.024396e+01

-5.044363e+01 -1.216042e+01        0
-1.216042e+01 1.104244e+02        0
       0        0 -3.016874e+01

-4.386202e+01 -3.942359e+01        0
-3.942359e+01 9.628000e+01        0
       0        0 -2.733058e+01

1.714952e+01 4.908583e+00        0
4.908583e+00 7.574228e+01        0
       0        0 1.733562e+01

-3.386996e+00 2.043775e+00        0
2.043775e+00 8.716148e+01        0
       0        0 -3.009694e+00

1.349775e+01 1.654770e+01        0
1.654770e+01 7.900731e+01        0
       0        0 1.587202e+01

-1.298458e+01 7.141720e+00        0
7.141720e+00 9.387771e+01        0
       0        0 -7.086800e+00

4.872614e+00 3.411467e+01        0
3.411467e+01 8.303559e+01        0
       0        0 1.167687e+01

-3.360652e+01 1.591686e+01        0
1.591686e+01 1.051769e+02        0
       0        0 -1.678816e+01

POINT_DATA     938
VECTORS DISPLACEMENT_1.800000e+00 double
3.778544e-09    3.162601e-08    0.000000e+00
4.107931e-09    2.982175e-08    0.000000e+00
3.457699e-09    3.347263e-08    0.000000e+00
-1.267285e-09    3.197554e-08    0.000000e+00
-7.583465e-10    2.981139e-08    0.000000e+00
-2.002916e-10    2.772369e-08    0.000000e+00
4.010125e-10    2.573263e-08    0.000000e+00
1.038364e-09    2.386121e-08    0.000000e+00
1.702411e-09    2.213622e-08    0.000000e+00
2.381446e-09    2.058921e-08    0.000000e+00
3.060111e-09    1.925637e-08    0.000000e+00
3.719819e-09    1.818438e-08    0.000000e+00
4.317892e-09    1.744572e-08    0.000000e+00
4.736152e-09    1.705665e-08    0.000000e+00
5.106703e-09    1.690636e-08    0.000000e+00
-1.904377e-11    5.804078e-08    0.000000e+00
-3.799947e-10    5.791769e-08    0.000000e+00
-7.165967e-11    5.700992e-08    0.000000e+00
-7.855181e-10    5.683497e-08    0.000000e+00
-1.322027e-10    5.377135e-08    0.000000e+00
-1.324584e-09    5.354494e-08    0.000000e+00
-1.080246e-10    5.174683e-08    0.000000e+00
-1.458378e-09    5.149469e-08    0.000000e+00
-1.162044e-10    5.555225e-08    0.000000e+00
-1.099846e-09    5.535031e-08    0.000000e+00
8.805268e-11    4.722044e-08    0.000000e+00
-1.458755e-09    4.692019e-08    0.000000e+00
2.669511e-10    4.481455e-08    0.000000e+00
-1.332478e-09    4.449295e-08    0.000000e+00
7.884413e-10    3.989460e-08    0.000000e+00
-8.509215e-10    3.953645e-08    0.000000e+00
1.127049e-09    3.743191e-08    0.000000e+00
-5.065428e-10    3.705933e-08    0.000000e+00
5.008067e-10    4.236305e-08    0.000000e+00
-1.128136e-09    4.202214e-08    0.000000e+00
-3.619384e-11    4.954564e-08    0.000000e+00
-1.502112e-09    4.926867e-08    0.000000e+00
2.788239e-09    3.776744e-08    0.000000e+00
2.459175e-09    4.020507e-08    0.000000e+00
2.165654e-09    4.264608e-08    0.000000e+00
1.907337e-09    4.506707e-08    0.000000e+00
1.681457e-09    4.743803e-08    0.000000e+00
1.482311e-09    4.972308e-08    0.000000e+00
1.300883e-09    5.187926e-08    0.000000e+00
1.124313e-09    5.385403e-08    0.000000e+00
9.347666e-10    5.558377e-08    0.000000e+00
7.060712e-10    5.699057e-08    0.000000e+00
3.973323e-10    5.796404e-08    0.000000e+00
4.890829e-12    5.832324e-08    0.000000e+00
-8.546381e-12    5.849609e-08    0.000000e+00
1.354894e-11    5.860462e-08    0.000000e+00
-3.155720e-10    5.938195e-08    0.000000e+00
-8.665812e-10    5.769514e-08    0.000000e+00
-1.574099e-09    5.652834e-08    0.000000e+00
-2.134087e-09    5.501769e-08    0.000000e+00
-2.555394e-09    5.319871e-08    0.000000e+00
-2.837069e-09    5.113910e-08    0.000000e+00
-2.989149e-09    4.890346e-08    0.000000e+00
-3.021347e-09    4.654533e-08    0.000000e+00
-2.943930e-09    4.410857e-08    0.000000e+00
-2.766682e-09    4.162872e-08    0.000000e+00
-2.498656e-09    3.913469e-08    0.000000e+00
-2.148017e-09    3.665044e-08    0.000000e+00
-1.721873e-09    3.419702e-08    0.000000e+00
-1.068564e-10    3.460830e-08    0.000000e+00
1.506428e-09    3.499354e-08    0.000000e+00
3.150941e-09    3.535288e-08    0.000000e+00
4.439084e-09    2.806961e-08    0.000000e+00
4.763623e-09    2.638048e-08    0.000000e+00
5.071383e-09    2.476665e-08    0.000000e+00
5.350160e-09    2.324217e-08    0.000000e+00
5.585514e-09    2.182296e-08    0.000000e+00
5.761422e-09    2.052748e-08    0.000000e+00
5.856680e-09    1.937376e-08    0.000000e+00
5.893536e-09    1.836311e-08    0.000000e+00
5.684958e-09    1.742675e-08    0.000000e+00
5.536909e-09    1.721746e-08    0.000000e+00
5.310797e-09    1.706550e-08    0.000000e+00
3.884444e-09    2.382560e-08    0.000000e+00
2.779260e-09    2.295268e-08    0.000000e+00
2.631068e-09    2.911195e-08    0.000000e+00
1.208642e-09    2.841441e-08    0.000000e+00
1.847558e-09    3.298601e-08    0.000000e+00
2.848430e-10    3.248843e-08    0.000000e+00
2.228709e-09    3.102321e-08    0.000000e+00
7.292613e-10    3.041950e-08    0.000000e+00
3.047049e-09    2.726547e-08    0.000000e+00
1.715789e-09    2.648892e-08    0.000000e+00
3.468286e-09    2.549794e-08    0.000000e+00
2.242676e-09    2.466131e-08    0.000000e+00
4.963725e-09    1.958726e-08    0.000000e+00
4.302498e-09    1.880979e-08    0.000000e+00
4.283100e-09    2.226728e-08    0.000000e+00
3.313032e-09    2.138748e-08    0.000000e+00
4.648257e-09    2.084375e-08    0.000000e+00
3.828051e-09    1.999321e-08    0.000000e+00
5.204135e-09    1.850930e-08    0.000000e+00
4.721366e-09    1.787779e-08    0.000000e+00
5.412807e-09    1.769058e-08    0.000000e+00
5.064676e-09    1.730031e-08    0.000000e+00
4.211703e-09    1.633874e-08    0.000000e+00
4.299825e-09    1.675429e-08    0.000000e+00
1.535156e-09    1.555802e-08    0.000000e+00
1.532387e-09    1.586063e-08    0.000000e+00
8.748481e-10    1.535561e-08    0.000000e+00
8.609979e-10    1.555601e-08    0.000000e+00
1.171332e-09    1.545159e-08    0.000000e+00
1.160663e-09    1.570237e-08    0.000000e+00
4.647233e-10    1.518638e-08    0.000000e+00
4.556451e-10    1.529682e-08    0.000000e+00
3.387605e-10    1.510978e-08    0.000000e+00
3.360239e-10    1.518153e-08    0.000000e+00
6.412972e-10    1.526783e-08    0.000000e+00
6.282523e-10    1.542116e-08    0.000000e+00
1.967802e-09    1.567745e-08    0.000000e+00
1.978027e-09    1.603022e-08    0.000000e+00
3.548911e-10    1.502973e-08    0.000000e+00
4.881092e-10    1.506915e-08    0.000000e+00
6.694609e-10    1.510934e-08    0.000000e+00
9.044584e-10    1.515180e-08    0.000000e+00
1.198059e-09    1.519899e-08    0.000000e+00
1.553728e-09    1.525448e-08    0.000000e+00
1.972282e-09    1.532306e-08    0.000000e+00
2.450504e-09    1.541079e-08    0.000000e+00
2.979533e-09    1.552506e-08    0.000000e+00
3.543039e-09    1.567446e-08    0.000000e+00
4.115056e-09    1.586895e-08    0.000000e+00
4.658726e-09    1.611763e-08    0.000000e+00
5.120665e-09    1.643578e-08    0.000000e+00
5.475730e-09    1.680056e-08    0.000000e+00
5.360920e-09    1.699746e-08    0.000000e+00
5.299120e-09    1.715872e-08    0.000000e+00
4.915872e-09    1.722490e-08    0.000000e+00
4.364330e-09    1.716289e-08    0.000000e+00
3.745764e-09    1.702278e-08    0.000000e+00
3.120786e-09    1.683273e-08    0.000000e+00
2.530574e-09    1.661592e-08    0.000000e+00
2.000543e-09    1.638924e-08    0.000000e+00
1.543927e-09    1.616460e-08    0.000000e+00
1.165039e-09    1.594977e-08    0.000000e+00
8.620736e-10    1.574912e-08    0.000000e+00
6.294970e-10    1.556442e-08    0.000000e+00
4.599676e-10    1.539550e-08    0.000000e+00
3.458394e-10    1.524083e-08    0.000000e+00
2.802755e-10    1.509804e-08    0.000000e+00
2.628211e-10    1.507361e-08    0.000000e+00
2.573210e-10    1.503659e-08    0.000000e+00
2.644769e-10    1.499041e-08    0.000000e+00
3.069678e-09    1.639400e-08    0.000000e+00
3.020488e-09    1.596627e-08    0.000000e+00
2.494149e-09    1.620924e-08    0.000000e+00
2.466144e-09    1.581261e-08    0.000000e+00
3.683103e-09    1.657849e-08    0.000000e+00
3.612315e-09    1.614074e-08    0.000000e+00
5.316052e-09    1.702764e-08    0.000000e+00
5.242411e-09    1.681036e-08    0.000000e+00
4.867462e-09    1.690901e-08    0.000000e+00
4.774809e-09    1.655856e-08    0.000000e+00
5.505364e-09    1.706858e-08    0.000000e+00
5.550315e-09    1.704792e-08    0.000000e+00
3.775642e-09    1.401942e-08    0.000000e+00
3.841103e-09    1.389721e-08    0.000000e+00
3.852252e-09    1.380604e-08    0.000000e+00
3.835925e-09    1.369928e-08    0.000000e+00
3.588110e-09    1.364134e-08    0.000000e+00
3.196978e-09    1.364321e-08    0.000000e+00
2.736209e-09    1.369742e-08    0.000000e+00
2.265222e-09    1.378886e-08    0.000000e+00
1.823009e-09    1.390365e-08    0.000000e+00
1.430809e-09    1.403145e-08    0.000000e+00
1.098167e-09    1.416495e-08    0.000000e+00
8.268793e-10    1.429949e-08    0.000000e+00
6.141794e-10    1.443263e-08    0.000000e+00
4.552413e-10    1.456372e-08    0.000000e+00
3.450756e-10    1.469353e-08    0.000000e+00
2.798884e-10    1.482396e-08    0.000000e+00
2.579861e-10    1.495773e-08    0.000000e+00
2.065748e-10    1.494406e-08    0.000000e+00
1.965918e-10    1.489871e-08    0.000000e+00
2.316673e-10    1.485582e-08    0.000000e+00
3.117607e-10    1.481705e-08    0.000000e+00
4.394058e-10    1.478376e-08    0.000000e+00
6.190858e-10    1.475650e-08    0.000000e+00
8.561691e-10    1.473442e-08    0.000000e+00
1.155354e-09    1.471457e-08    0.000000e+00
1.518524e-09    1.469110e-08    0.000000e+00
1.941964e-09    1.465441e-08    0.000000e+00
2.412802e-09    1.459017e-08    0.000000e+00
2.905484e-09    1.447936e-08    0.000000e+00
3.379988e-09    1.429221e-08    0.000000e+00
1.005300e-09    1.436486e-08    0.000000e+00
9.244672e-10    1.455472e-08    0.000000e+00
2.632349e-09    1.399541e-08    0.000000e+00
2.523709e-09    1.428397e-08    0.000000e+00
3.548512e-09    1.385041e-08    0.000000e+00
3.482358e-09    1.405011e-08    0.000000e+00
3.117679e-09    1.391436e-08    0.000000e+00
3.018747e-09    1.417946e-08    0.000000e+00
1.712274e-09    1.417484e-08    0.000000e+00
1.610461e-09    1.443441e-08    0.000000e+00
2.152923e-09    1.408319e-08    0.000000e+00
2.044746e-09    1.436616e-08    0.000000e+00
1.327467e-09    1.426907e-08    0.000000e+00
1.235417e-09    1.449569e-08    0.000000e+00
3.968361e-10    1.465693e-08    0.000000e+00
3.489112e-10    1.474204e-08    0.000000e+00
7.456770e-10    1.446154e-08    0.000000e+00
6.762892e-10    1.461450e-08    0.000000e+00
5.446592e-10    1.455885e-08    0.000000e+00
4.863007e-10    1.467669e-08    0.000000e+00
2.418627e-10    1.485799e-08    0.000000e+00
2.139544e-10    1.488275e-08    0.000000e+00
2.970933e-10    1.475633e-08    0.000000e+00
2.591778e-10    1.481075e-08    0.000000e+00
2.299255e-10    1.496321e-08    0.000000e+00
2.126039e-10    1.495798e-08    0.000000e+00
-5.830663e-14    -4.854348e-11    0.000000e+00
-6.527341e-12    -5.217955e-11    0.000000e+00
-1.441484e-11    -6.222506e-11    0.000000e+00
-2.531860e-11    -7.764378e-11    0.000000e+00
-4.138845e-11    -9.526757e-11    0.000000e+00
-6.591102e-11    -1.074273e-10    0.000000e+00
-1.049595e-10    -9.736112e-11    0.000000e+00
-1.696515e-10    -3.321785e-11    0.000000e+00
-2.872761e-10    1.465265e-10    0.000000e+00
-4.686116e-10    5.288938e-10    0.000000e+00
-9.050977e-10    1.314999e-09    0.000000e+00
-3.175431e-10    1.426139e-09    0.000000e+00
4.919364e-10    1.503184e-09    0.000000e+00
1.414136e-09    1.631939e-09    0.000000e+00
8.705346e-10    5.946903e-10    0.000000e+00
4.877647e-10    1.470873e-10    0.000000e+00
2.609062e-10    -3.408413e-11    0.000000e+00
1.300658e-10    -1.004708e-10    0.000000e+00
5.547584e-11    -1.149625e-10    0.000000e+00
1.585755e-11    -1.070329e-10    0.000000e+00
-2.162378e-12    -9.204586e-11    0.000000e+00
-7.236692e-12    -7.791868e-11    0.000000e+00
-5.174000e-12    -6.842747e-11    0.000000e+00
1.956499e-13    -6.524188e-11    0.000000e+00
1.020925e-13    -6.217429e-11    0.000000e+00
2.693901e-14    -5.749844e-11    0.000000e+00
3.346214e-11    -1.297609e-10    0.000000e+00
-1.541307e-11    -1.280487e-10    0.000000e+00
2.236310e-10    7.885830e-11    0.000000e+00
-7.876762e-11    8.598005e-11    0.000000e+00
3.403399e-10    4.828389e-10    0.000000e+00
-1.816229e-10    4.733990e-10    0.000000e+00
1.353487e-10    -7.670301e-11    0.000000e+00
-3.300977e-11    -7.387687e-11    0.000000e+00
7.303760e-11    -1.266512e-10    0.000000e+00
-1.943472e-11    -1.254359e-10    0.000000e+00
-2.338395e-13    -9.420154e-11    0.000000e+00
-1.099431e-11    -9.044161e-11    0.000000e+00
1.072562e-11    -1.141656e-10    0.000000e+00
-1.345662e-11    -1.112917e-10    0.000000e+00
-3.683259e-12    -7.706102e-11    0.000000e+00
-7.771569e-12    -7.278397e-11    0.000000e+00
-2.802228e-12    -6.597428e-11    0.000000e+00
-4.012806e-12    -6.144184e-11    0.000000e+00
-1.731657e-09    3.729233e-09    0.000000e+00
-1.598900e-09    6.230648e-09    0.000000e+00
-9.503226e-10    8.588984e-09    0.000000e+00
5.293786e-11    1.056118e-08    0.000000e+00
1.170870e-09    1.203160e-08    0.000000e+00
2.222289e-09    1.300305e-08    0.000000e+00
3.070365e-09    1.354398e-08    0.000000e+00
3.631003e-09    1.375974e-08    0.000000e+00
3.880385e-09    1.377317e-08    0.000000e+00
3.999416e-09    1.368829e-08    0.000000e+00
4.082070e-09    1.322229e-08    0.000000e+00
4.014778e-09    1.256208e-08    0.000000e+00
3.808028e-09    1.164973e-08    0.000000e+00
3.490110e-09    1.043845e-08    0.000000e+00
3.107378e-09    8.925861e-09    0.000000e+00
2.704933e-09    7.147087e-09    0.000000e+00
2.308483e-09    5.192859e-09    0.000000e+00
1.895205e-09    3.241248e-09    0.000000e+00
2.004666e-09    1.151268e-08    0.000000e+00
2.770733e-09    1.099608e-08    0.000000e+00
-2.419773e-10    5.835726e-09    0.000000e+00
9.934616e-10    5.491566e-09    0.000000e+00
-4.427808e-10    3.503359e-09    0.000000e+00
6.799956e-10    3.300937e-09    0.000000e+00
3.215374e-10    8.087035e-09    0.000000e+00
1.496612e-09    7.624455e-09    0.000000e+00
1.126785e-09    1.001574e-08    0.000000e+00
2.122948e-09    9.490844e-09    0.000000e+00
3.444817e-09    1.322855e-08    0.000000e+00
3.768666e-09    1.290082e-08    0.000000e+00
2.813139e-09    1.256618e-08    0.000000e+00
3.344392e-09    1.212106e-08    0.000000e+00
3.836816e-09    1.358903e-08    0.000000e+00
3.998078e-09    1.340302e-08    0.000000e+00
3.967906e-09    1.374963e-08    0.000000e+00
4.017867e-09    1.370961e-08    0.000000e+00
0.000000e+00    0.000000e+00    0.000000e+00
0.000000e+00    0.000000e+00    0.000000e+00
0.000000e+00    0.000000e+00    0.000000e+00
0.000000e+00    0.000000e+00    0.000000e+00
0.000000e+00    0.000000e+00    0.000000e+00
0.000000e+00    0.000000e+00    0.000000e+00
0.000000e+00    0.000000e+00    0.000000e+00
0.000000e+00    0.000000e+00    0.000000e+00
0.000000e+00    0.000000e+00    0.000000e+00
0.000000e+00    0.000000e+00    0.000000e+00
0.000000e+00    0.000000e+00    0.000000e+00
-1.029756e-10    1.951236e-10    0.000000e+00
-2.477437e-10    4.210411e-10    0.000000e+00
-4.187248e-10    6.808024e-10    0.000000e+00
-1.062145e-13    -3.637189e-11    0.000000e+00
-1.052044e-13    -2.246107e-11    0.000000e+00
-5.519427e-14    -9.518692e-12    0.000000e+00
-9.251907e-11    -7.388616e-11    0.000000e+00
-8.824308e-11    -3.868537e-11    0.000000e+00
-5.469078e-11    -1.141151e-11    0.000000e+00
-3.231114e-10    1.407046e-10    0.000000e+00
-2.623087e-10    1.096025e-10    0.000000e+00
-1.543407e-10    5.633133e-11    0.000000e+00
-2.975113e-10    2.719468e-10    0.000000e+00
-4.087996e-10    3.953529e-10    0.000000e+00
-1.552505e-10    1.235324e-10    0.000000e+00
-1.368862e-10    -2.608797e-11    0.000000e+00
-1.976884e-10    1.517075e-11    0.000000e+00
-1.458458e-10    -6.070882e-11    0.000000e+00
-2.193663e-10    -3.495325e-12    0.000000e+00
-8.481243e-11    -3.466475e-12    0.000000e+00
-1.214764e-10    1.658559e-11    0.000000e+00
-3.330997e-11    -5.658151e-11    0.000000e+00
-3.128286e-11    -3.303406e-11    0.000000e+00
-1.897588e-11    -1.255186e-11    0.000000e+00
-5.403987e-11    -3.806889e-11    0.000000e+00
-5.683115e-11    -6.794499e-11    0.000000e+00
-3.319003e-11    -1.325120e-11    0.000000e+00
-7.166559e-12    -2.399949e-11    0.000000e+00
-1.671260e-11    -2.772573e-11    0.000000e+00
-7.887279e-12    -3.905439e-11    0.000000e+00
-1.810163e-11    -4.607022e-11    0.000000e+00
-4.230716e-12    -1.006366e-11    0.000000e+00
-9.992387e-12    -1.118203e-11    0.000000e+00
2.322681e-09    3.517585e-08    0.000000e+00
2.972168e-09    3.655819e-08    0.000000e+00
3.306318e-09    3.441042e-08    0.000000e+00
6.979958e-10    3.480441e-08    0.000000e+00
1.317494e-09    3.620975e-08    0.000000e+00
1.677915e-09    3.398628e-08    0.000000e+00
-9.124424e-10    3.440695e-08    0.000000e+00
-3.079466e-10    3.583226e-08    0.000000e+00
8.838900e-11    3.354568e-08    0.000000e+00
-1.936636e-09    3.541523e-08    0.000000e+00
-1.495369e-09    3.307751e-08    0.000000e+00
-2.325832e-09    3.788608e-08    0.000000e+00
-1.325248e-09    3.686011e-08    0.000000e+00
-2.636097e-09    4.037731e-08    0.000000e+00
-1.672531e-09    3.934179e-08    0.000000e+00
-2.859842e-09    4.286670e-08    0.000000e+00
-1.944640e-09    4.183281e-08    0.000000e+00
-2.988454e-09    4.532796e-08    0.000000e+00
-2.134670e-09    4.430950e-08    0.000000e+00
-3.012492e-09    4.772899e-08    0.000000e+00
-2.235468e-09    4.674310e-08    0.000000e+00
-2.921899e-09    5.003013e-08    0.000000e+00
-2.239663e-09    4.909828e-08    0.000000e+00
-2.706539e-09    5.218237e-08    0.000000e+00
-2.140056e-09    5.133129e-08    0.000000e+00
-2.356553e-09    5.412626e-08    0.000000e+00
-1.929910e-09    5.338868e-08    0.000000e+00
-1.865420e-09    5.578983e-08    0.000000e+00
-1.604876e-09    5.520390e-08    0.000000e+00
-1.231481e-09    5.710426e-08    0.000000e+00
-1.160983e-09    5.670325e-08    0.000000e+00
-5.102270e-10    5.813687e-08    0.000000e+00
-6.069394e-10    5.783852e-08    0.000000e+00
6.854358e-11    5.900388e-08    0.000000e+00
1.150355e-11    5.854621e-08    0.000000e+00
-1.816779e-10    5.834337e-08    0.000000e+00
-5.781617e-12    5.843284e-08    0.000000e+00
1.177128e-12    5.834535e-08    0.000000e+00
2.095186e-10    5.822143e-08    0.000000e+00
5.667037e-10    5.754158e-08    0.000000e+00
1.724631e-10    5.803281e-08    0.000000e+00
8.316205e-10    5.633430e-08    0.000000e+00
2.981754e-10    5.702604e-08    0.000000e+00
1.037515e-09    5.475492e-08    0.000000e+00
3.920570e-10    5.558921e-08    0.000000e+00
1.218544e-09    5.289393e-08    0.000000e+00
4.805927e-10    5.383008e-08    0.000000e+00
1.396131e-09    5.082131e-08    0.000000e+00
5.826503e-10    5.182729e-08    0.000000e+00
1.585395e-09    4.859490e-08    0.000000e+00
7.108629e-10    4.964597e-08    0.000000e+00
1.797204e-09    4.626221e-08    0.000000e+00
8.740165e-10    4.733867e-08    0.000000e+00
2.038871e-09    4.386244e-08    0.000000e+00
1.077714e-09    4.494843e-08    0.000000e+00
2.314613e-09    4.142835e-08    0.000000e+00
1.324945e-09    4.251067e-08    0.000000e+00
2.625974e-09    3.898646e-08    0.000000e+00
1.616491e-09    4.005465e-08    0.000000e+00
1.951137e-09    3.760338e-08    0.000000e+00
-7.719979e-10    4.941909e-08    0.000000e+00
-1.485342e-09    4.811092e-08    0.000000e+00
-1.485983e-09    5.040463e-08    0.000000e+00
2.520688e-11    4.839597e-08    0.000000e+00
-7.280914e-11    5.066480e-08    0.000000e+00
-3.162870e-10    4.219943e-08    0.000000e+00
-9.920881e-10    4.078313e-08    0.000000e+00
-1.233601e-09    4.326474e-08    0.000000e+00
6.445324e-10    4.113049e-08    0.000000e+00
3.834829e-10    4.359346e-08    0.000000e+00
3.081001e-10    3.725011e-08    0.000000e+00
-6.806036e-10    3.829889e-08    0.000000e+00
9.580472e-10    3.866243e-08    0.000000e+00
-3.364682e-11    3.972110e-08    0.000000e+00
-5.355454e-10    4.466202e-08    0.000000e+00
-1.399698e-09    4.571790e-08    0.000000e+00
1.768896e-10    4.602585e-08    0.000000e+00
-6.882167e-10    4.708027e-08    0.000000e+00
-6.095964e-10    5.547104e-08    0.000000e+00
-1.219450e-09    5.448871e-08    0.000000e+00
-9.510779e-10    5.614609e-08    0.000000e+00
-1.243592e-10    5.469524e-08    0.000000e+00
-9.354414e-11    5.632394e-08    0.000000e+00
-7.858864e-10    5.163499e-08    0.000000e+00
-1.398038e-09    5.255084e-08    0.000000e+00
-1.205998e-10    5.278451e-08    0.000000e+00
-7.306816e-10    5.367503e-08    0.000000e+00
-4.276523e-10    5.694557e-08    0.000000e+00
-5.894661e-10    5.744565e-08    0.000000e+00
-4.347628e-11    5.758188e-08    0.000000e+00
-1.982400e-10    5.800425e-08    0.000000e+00
4.947601e-09    1.696486e-08    0.000000e+00
5.206316e-09    1.698868e-08    0.000000e+00
5.272464e-09    1.693920e-08    0.000000e+00
4.556510e-09    1.722026e-08    0.000000e+00
4.889595e-09    1.716866e-08    0.000000e+00
4.037636e-09    1.776702e-08    0.000000e+00
4.507139e-09    1.763655e-08    0.000000e+00
3.397995e-09    1.868380e-08    0.000000e+00
4.006536e-09    1.847987e-08    0.000000e+00
2.726495e-09    1.989304e-08    0.000000e+00
3.442023e-09    1.961414e-08    0.000000e+00
2.046028e-09    2.133776e-08    0.000000e+00
2.846343e-09    2.098114e-08    0.000000e+00
1.373224e-09    2.297787e-08    0.000000e+00
2.241043e-09    2.254031e-08    0.000000e+00
7.215178e-10    2.477942e-08    0.000000e+00
1.641392e-09    2.425930e-08    0.000000e+00
1.013955e-10    2.671347e-08    0.000000e+00
1.059749e-09    2.611056e-08    0.000000e+00
-4.789451e-10    2.875515e-08    0.000000e+00
5.058067e-10    2.807021e-08    0.000000e+00
-1.013035e-09    3.088299e-08    0.000000e+00
-1.274137e-11    3.011775e-08    0.000000e+00
-4.892991e-10    3.223530e-08    0.000000e+00
3.620603e-09    3.254597e-08    0.000000e+00
2.646558e-09    3.323097e-08    0.000000e+00
3.946375e-09    3.071937e-08    0.000000e+00
2.997097e-09    3.132505e-08    0.000000e+00
4.277457e-09    2.893990e-08    0.000000e+00
3.362224e-09    2.946587e-08    0.000000e+00
4.606303e-09    2.721783e-08    0.000000e+00
3.734683e-09    2.766484e-08    0.000000e+00
4.923651e-09    2.556470e-08    0.000000e+00
4.106074e-09    2.593437e-08    0.000000e+00
5.218374e-09    2.399369e-08    0.000000e+00
4.466118e-09    2.428868e-08    0.000000e+00
5.477047e-09    2.251945e-08    0.000000e+00
4.802396e-09    2.274381e-08    0.000000e+00
5.684678e-09    2.116052e-08    0.000000e+00
5.100042e-09    2.131903e-08    0.000000e+00
5.822404e-09    1.992960e-08    0.000000e+00
5.341615e-09    2.003561e-08    0.000000e+00
5.886588e-09    1.886984e-08    0.000000e+00
5.511679e-09    1.892513e-08    0.000000e+00
5.808922e-09    1.787268e-08    0.000000e+00
5.598022e-09    1.795188e-08    0.000000e+00
5.655824e-09    1.730519e-08    0.000000e+00
5.593093e-09    1.709151e-08    0.000000e+00
5.422621e-09    1.714012e-08    0.000000e+00
5.492366e-09    1.739436e-08    0.000000e+00
5.619228e-09    1.716237e-08    0.000000e+00
5.217684e-09    1.715724e-08    0.000000e+00
5.460034e-09    1.706183e-08    0.000000e+00
3.326287e-09    2.338295e-08    0.000000e+00
3.681400e-09    2.464999e-08    0.000000e+00
4.090237e-09    2.303209e-08    0.000000e+00
2.514127e-09    2.379281e-08    0.000000e+00
3.050759e-09    2.215247e-08    0.000000e+00
1.917349e-09    2.876312e-08    0.000000e+00
2.431988e-09    3.006148e-08    0.000000e+00
2.841938e-09    2.818098e-08    0.000000e+00
9.694217e-10    2.941056e-08    0.000000e+00
1.463375e-09    2.744304e-08    0.000000e+00
1.064415e-09    3.273965e-08    0.000000e+00
2.039604e-09    3.199992e-08    0.000000e+00
5.069728e-10    3.144952e-08    0.000000e+00
1.476944e-09    3.072264e-08    0.000000e+00
2.378198e-09    2.687552e-08    0.000000e+00
3.261510e-09    2.637210e-08    0.000000e+00
1.981277e-09    2.556392e-08    0.000000e+00
2.851242e-09    2.507594e-08    0.000000e+00
4.618774e-09    1.917899e-08    0.000000e+00
4.816027e-09    2.019487e-08    0.000000e+00
5.095759e-09    1.902862e-08    0.000000e+00
4.074176e-09    1.937552e-08    0.000000e+00
4.522681e-09    1.830831e-08    0.000000e+00
3.790598e-09    2.181794e-08    0.000000e+00
4.473990e-09    2.153839e-08    0.000000e+00
3.576904e-09    2.066875e-08    0.000000e+00
4.228868e-09    2.040520e-08    0.000000e+00
4.950981e-09    1.816617e-08    0.000000e+00
5.319029e-09    1.806227e-08    0.000000e+00
4.909719e-09    1.754821e-08    0.000000e+00
5.231365e-09    1.746651e-08    0.000000e+00
2.593045e-10    1.501439e-08    0.000000e+00
3.046439e-10    1.501007e-08    0.000000e+00
2.292488e-10    1.496718e-08    0.000000e+00
2.585237e-10    1.505648e-08    0.000000e+00
2.928326e-10    1.507270e-08    0.000000e+00
2.289541e-10    1.499683e-08    0.000000e+00
2.701309e-10    1.508758e-08    0.000000e+00
2.939988e-10    1.512667e-08    0.000000e+00
2.405604e-10    1.501764e-08    0.000000e+00
3.073608e-10    1.516813e-08    0.000000e+00
2.634439e-10    1.502685e-08    0.000000e+00
3.964368e-10    1.531653e-08    0.000000e+00
3.394402e-10    1.521293e-08    0.000000e+00
5.373394e-10    1.547807e-08    0.000000e+00
4.561858e-10    1.534783e-08    0.000000e+00
7.374254e-10    1.565477e-08    0.000000e+00
6.271189e-10    1.549422e-08    0.000000e+00
1.004352e-09    1.584754e-08    0.000000e+00
8.596718e-10    1.565353e-08    0.000000e+00
1.344771e-09    1.605564e-08    0.000000e+00
1.160945e-09    1.582634e-08    0.000000e+00
1.762619e-09    1.627611e-08    0.000000e+00
1.536323e-09    1.601197e-08    0.000000e+00
2.256969e-09    1.650297e-08    0.000000e+00
1.987700e-09    1.620801e-08    0.000000e+00
2.819428e-09    1.672648e-08    0.000000e+00
2.511295e-09    1.640978e-08    0.000000e+00
3.431075e-09    1.693234e-08    0.000000e+00
3.095038e-09    1.660971e-08    0.000000e+00
4.059269e-09    1.710069e-08    0.000000e+00
3.715682e-09    1.679668e-08    0.000000e+00
4.652920e-09    1.720579e-08    0.000000e+00
4.335395e-09    1.695552e-08    0.000000e+00
5.140497e-09    1.720946e-08    0.000000e+00
4.898203e-09    1.706538e-08    0.000000e+00
5.380068e-09    1.708117e-08    0.000000e+00
5.319767e-09    1.710215e-08    0.000000e+00
5.437922e-09    1.704288e-08    0.000000e+00
5.301781e-09    1.660308e-08    0.000000e+00
5.529738e-09    1.699154e-08    0.000000e+00
4.905572e-09    1.626949e-08    0.000000e+00
5.181844e-09    1.663541e-08    0.000000e+00
4.392731e-09    1.598522e-08    0.000000e+00
4.718864e-09    1.635376e-08    0.000000e+00
3.830155e-09    1.576547e-08    0.000000e+00
4.162868e-09    1.611176e-08    0.000000e+00
3.258323e-09    1.559465e-08    0.000000e+00
3.576582e-09    1.591244e-08    0.000000e+00
2.709506e-09    1.546404e-08    0.000000e+00
2.998274e-09    1.574795e-08    0.000000e+00
2.204342e-09    1.536405e-08    0.000000e+00
2.456319e-09    1.561259e-08    0.000000e+00
1.755239e-09    1.528676e-08    0.000000e+00
1.967902e-09    1.550038e-08    0.000000e+00
1.368010e-09    1.522541e-08    0.000000e+00
1.542282e-09    1.540606e-08    0.000000e+00
1.043672e-09    1.517459e-08    0.000000e+00
1.182579e-09    1.532507e-08    0.000000e+00
7.799234e-10    1.513014e-08    0.000000e+00
8.876203e-10    1.525361e-08    0.000000e+00
5.724222e-10    1.508907e-08    0.000000e+00
6.534507e-10    1.518871e-08    0.000000e+00
4.158305e-10    1.504940e-08    0.000000e+00
4.745994e-10    1.512814e-08    0.000000e+00
3.451164e-10    1.507039e-08    0.000000e+00
1.971287e-09    1.585316e-08    0.000000e+00
1.746033e-09    1.594410e-08    0.000000e+00
2.227765e-09    1.611873e-08    0.000000e+00
1.742945e-09    1.561592e-08    0.000000e+00
2.209193e-09    1.574285e-08    0.000000e+00
6.329609e-10    1.534529e-08    0.000000e+00
5.348803e-10    1.535777e-08    0.000000e+00
7.366604e-10    1.548721e-08    0.000000e+00
5.462888e-10    1.522642e-08    0.000000e+00
7.505564e-10    1.531082e-08    0.000000e+00
3.357655e-10    1.514691e-08    0.000000e+00
3.896380e-10    1.523813e-08    0.000000e+00
3.958169e-10    1.514755e-08    0.000000e+00
4.584632e-10    1.524266e-08    0.000000e+00
1.164102e-09    1.557703e-08    0.000000e+00
1.002087e-09    1.562772e-08    0.000000e+00
1.337303e-09    1.578003e-08    0.000000e+00
1.014897e-09    1.540243e-08    0.000000e+00
1.344649e-09    1.550333e-08    0.000000e+00
8.660422e-10    1.545626e-08    0.000000e+00
1.531946e-09    1.570896e-08    0.000000e+00
4.257792e-09    1.654959e-08    0.000000e+00
3.993825e-09    1.666808e-08    0.000000e+00
4.593639e-09    1.683485e-08    0.000000e+00
3.913422e-09    1.623656e-08    0.000000e+00
4.501384e-09    1.644578e-08    0.000000e+00
3.044500e-09    1.617980e-08    0.000000e+00
2.775558e-09    1.630119e-08    0.000000e+00
3.373486e-09    1.648668e-08    0.000000e+00
2.737245e-09    1.588690e-08    0.000000e+00
3.313306e-09    1.605069e-08    0.000000e+00
2.478906e-09    1.601019e-08    0.000000e+00
3.648157e-09    1.636062e-08    0.000000e+00
5.287570e-09    1.693283e-08    0.000000e+00
5.113219e-09    1.697465e-08    0.000000e+00
5.452018e-09    1.706145e-08    0.000000e+00
5.023279e-09    1.667980e-08    0.000000e+00
5.426618e-09    1.693268e-08    0.000000e+00
4.825301e-09    1.674232e-08    0.000000e+00
5.547243e-09    1.707714e-08    0.000000e+00
3.817812e-09    1.394949e-08    0.000000e+00
3.590120e-09    1.417264e-08    0.000000e+00
3.901974e-09    1.386851e-08    0.000000e+00
3.851635e-09    1.385096e-08    0.000000e+00
3.679616e-09    1.397791e-08    0.000000e+00
3.952311e-09    1.381460e-08    0.000000e+00
3.846381e-09    1.375664e-08    0.000000e+00
3.720940e-09    1.382839e-08    0.000000e+00
3.939574e-09    1.378626e-08    0.000000e+00
3.733340e-09    1.366936e-08    0.000000e+00
3.893633e-09    1.374227e-08    0.000000e+00
3.406501e-09    1.363713e-08    0.000000e+00
3.571241e-09    1.374873e-08    0.000000e+00
2.971365e-09    1.366487e-08    0.000000e+00
3.159131e-09    1.378213e-08    0.000000e+00
2.499049e-09    1.373943e-08    0.000000e+00
2.684564e-09    1.384964e-08    0.000000e+00
2.038869e-09    1.384405e-08    0.000000e+00
2.208381e-09    1.393868e-08    0.000000e+00
1.619838e-09    1.396643e-08    0.000000e+00
1.766403e-09    1.404139e-08    0.000000e+00
1.256791e-09    1.409781e-08    0.000000e+00
1.377647e-09    1.415194e-08    0.000000e+00
9.549532e-10    1.423227e-08    0.000000e+00
1.050187e-09    1.426620e-08    0.000000e+00
7.134842e-10    1.436630e-08    0.000000e+00
7.847905e-10    1.438154e-08    0.000000e+00
5.283165e-10    1.449840e-08    0.000000e+00
5.780387e-10    1.449662e-08    0.000000e+00
3.943399e-10    1.462867e-08    0.000000e+00
4.247642e-10    1.461118e-08    0.000000e+00
3.070228e-10    1.475850e-08    0.000000e+00
3.198786e-10    1.472588e-08    0.000000e+00
2.635346e-10    1.489023e-08    0.000000e+00
2.596761e-10    1.484211e-08    0.000000e+00
2.426877e-10    1.496188e-08    0.000000e+00
1.958406e-10    1.492117e-08    0.000000e+00
2.081834e-10    1.495193e-08    0.000000e+00
2.085665e-10    1.487685e-08    0.000000e+00
2.039690e-10    1.489175e-08    0.000000e+00
2.659856e-10    1.483583e-08    0.000000e+00
2.441362e-10    1.483448e-08    0.000000e+00
3.693975e-10    1.479967e-08    0.000000e+00
3.289938e-10    1.478092e-08    0.000000e+00
5.224147e-10    1.476940e-08    0.000000e+00
4.614043e-10    1.473174e-08    0.000000e+00
7.301253e-10    1.474497e-08    0.000000e+00
6.461156e-10    1.468704e-08    0.000000e+00
9.977914e-10    1.472455e-08    0.000000e+00
8.886563e-10    1.464595e-08    0.000000e+00
1.329012e-09    1.470385e-08    0.000000e+00
1.193732e-09    1.460605e-08    0.000000e+00
1.723256e-09    1.467525e-08    0.000000e+00
1.563025e-09    1.456280e-08    0.000000e+00
2.172757e-09    1.462690e-08    0.000000e+00
1.992364e-09    1.450887e-08    0.000000e+00
2.658497e-09    1.454218e-08    0.000000e+00
2.468121e-09    1.443363e-08    0.000000e+00
3.147677e-09    1.439832e-08    0.000000e+00
2.963427e-09    1.432262e-08    0.000000e+00
3.435848e-09    1.416072e-08    0.000000e+00
9.633682e-10    1.446103e-08    0.000000e+00
1.158439e-09    1.431682e-08    0.000000e+00
8.678580e-10    1.441311e-08    0.000000e+00
1.071904e-09    1.452529e-08    0.000000e+00
7.927687e-10    1.458441e-08    0.000000e+00
2.578514e-09    1.413909e-08    0.000000e+00
2.877326e-09    1.395404e-08    0.000000e+00
2.389472e-09    1.403872e-08    0.000000e+00
2.771646e-09    1.423535e-08    0.000000e+00
2.280063e-09    1.432740e-08    0.000000e+00
3.519647e-09    1.394743e-08    0.000000e+00
3.344037e-09    1.388131e-08    0.000000e+00
3.258632e-09    1.411894e-08    0.000000e+00
3.070376e-09    1.404486e-08    0.000000e+00
1.660243e-09    1.430547e-08    0.000000e+00
1.926416e-09    1.412862e-08    0.000000e+00
1.512266e-09    1.422171e-08    0.000000e+00
1.820839e-09    1.440158e-08    0.000000e+00
1.415045e-09    1.446561e-08    0.000000e+00
2.098311e-09    1.422498e-08    0.000000e+00
1.280022e-09    1.438351e-08    0.000000e+00
3.715400e-10    1.470063e-08    0.000000e+00
4.644410e-10    1.460776e-08    0.000000e+00
3.412241e-10    1.470641e-08    0.000000e+00
4.113689e-10    1.470895e-08    0.000000e+00
2.983347e-10    1.477597e-08    0.000000e+00
7.094920e-10    1.453926e-08    0.000000e+00
6.381691e-10    1.451011e-08    0.000000e+00
5.743664e-10    1.464524e-08    0.000000e+00
5.140667e-10    1.461896e-08    0.000000e+00
2.266065e-10    1.487152e-08    0.000000e+00
2.640504e-10    1.480680e-08    0.000000e+00
2.304517e-10    1.491005e-08    0.000000e+00
2.311048e-10    1.484634e-08    0.000000e+00
2.077243e-10    1.491995e-08    0.000000e+00
2.768471e-10    1.478466e-08    0.000000e+00
2.198775e-10    1.496182e-08    0.000000e+00
-3.176328e-12    -4.951247e-11    0.000000e+00
-1.728784e-14    -5.358898e-11    0.000000e+00
-8.342055e-14    -4.281910e-11    0.000000e+00
-1.018720e-11    -5.641784e-11    0.000000e+00
-5.250948e-12    -5.743629e-11    0.000000e+00
-7.403507e-12    -4.601008e-11    0.000000e+00
-1.934297e-11    -6.938236e-11    0.000000e+00
-1.108628e-11    -6.831549e-11    0.000000e+00
-1.675227e-11    -5.463084e-11    0.000000e+00
-3.249671e-11    -8.653325e-11    0.000000e+00
-1.825465e-11    -8.517343e-11    0.000000e+00
-3.034911e-11    -6.772356e-11    0.000000e+00
-5.220159e-11    -1.028633e-10    0.000000e+00
-2.780883e-11    -1.048424e-10    0.000000e+00
-5.105905e-11    -8.240302e-11    0.000000e+00
-8.296818e-11    -1.069753e-10    0.000000e+00
-4.181722e-11    -1.198595e-10    0.000000e+00
-8.287191e-11    -9.142375e-11    0.000000e+00
-1.323771e-10    -7.548601e-11    0.000000e+00
-6.481944e-11    -1.139647e-10    0.000000e+00
-1.312786e-10    -7.993040e-11    0.000000e+00
-2.200515e-10    3.481272e-11    0.000000e+00
-1.089979e-10    -5.660871e-11    0.000000e+00
-2.062723e-10    -1.655774e-11    0.000000e+00
-3.630653e-10    2.973295e-10    0.000000e+00
-1.952028e-10    1.140390e-10    0.000000e+00
-3.167291e-10    1.430347e-10    0.000000e+00
-6.565662e-10    8.145789e-10    0.000000e+00
-3.774013e-10    5.021127e-10    0.000000e+00
-4.915145e-10    4.833965e-10    0.000000e+00
-6.528096e-10    1.351122e-09    0.000000e+00
-1.426777e-09    2.565851e-09    0.000000e+00
-5.793584e-10    9.648227e-10    0.000000e+00
6.998550e-11    1.465854e-09    0.000000e+00
-2.590740e-10    8.282904e-10    0.000000e+00
-3.506244e-10    2.344790e-09    0.000000e+00
9.369822e-10    1.553006e-09    0.000000e+00
4.196483e-10    8.879729e-10    0.000000e+00
5.903414e-10    2.318981e-09    0.000000e+00
1.136084e-09    1.015682e-09    0.000000e+00
1.682956e-09    2.361430e-09    0.000000e+00
6.572673e-10    3.211671e-10    0.000000e+00
6.223166e-10    5.251824e-10    0.000000e+00
3.587372e-10    3.612282e-11    0.000000e+00
3.707118e-10    1.032093e-10    0.000000e+00
1.864270e-10    -7.623711e-11    0.000000e+00
2.088147e-10    -6.018554e-11    0.000000e+00
8.715979e-11    -1.118876e-10    0.000000e+00
1.087408e-10    -1.162732e-10    0.000000e+00
3.219104e-11    -1.125927e-10    0.000000e+00
4.938121e-11    -1.238113e-10    0.000000e+00
4.705173e-12    -9.979780e-11    0.000000e+00
1.657294e-11    -1.113573e-10    0.000000e+00
-5.949333e-12    -8.456563e-11    0.000000e+00
8.955819e-13    -9.346628e-11    0.000000e+00
-6.855242e-12    -7.245461e-11    0.000000e+00
-4.237135e-12    -7.759064e-11    0.000000e+00
-2.798995e-12    -6.594967e-11    0.000000e+00
-3.423398e-12    -6.717652e-11    0.000000e+00
1.289196e-13    -6.364228e-11    0.000000e+00
6.513949e-14    -6.025513e-11    0.000000e+00
-1.536084e-12    -6.311219e-11    0.000000e+00
-2.032597e-12    -5.849111e-11    0.000000e+00
1.075817e-11    -1.313053e-10    0.000000e+00
5.076971e-11    -1.318706e-10    0.000000e+00
2.028552e-11    -1.231736e-10    0.000000e+00
-1.670709e-11    -1.304960e-10    0.000000e+00
-1.437714e-11    -1.208695e-10    0.000000e+00
6.827178e-11    7.414032e-11    0.000000e+00
2.776497e-10    2.331710e-10    0.000000e+00
1.762102e-10    -1.887169e-11    0.000000e+00
-1.186633e-10    2.401948e-10    0.000000e+00
-4.924777e-11    -1.175143e-11    0.000000e+00
6.507898e-11    4.658343e-10    0.000000e+00
5.140735e-11    -8.111442e-11    0.000000e+00
1.010061e-10    -1.103245e-10    0.000000e+00
-2.376398e-11    -1.083911e-10    0.000000e+00
2.859637e-11    -1.296532e-10    0.000000e+00
-4.597236e-12    -9.334452e-11    0.000000e+00
4.038979e-12    -1.041356e-10    0.000000e+00
-2.702907e-12    -8.499068e-11    0.000000e+00
-1.230714e-11    -1.007706e-10    0.000000e+00
-9.465850e-12    -8.092767e-11    0.000000e+00
6.801343e-14    -1.142936e-10    0.000000e+00
-5.085410e-12    -7.559295e-11    0.000000e+00
-3.642143e-12    -7.063314e-11    0.000000e+00
-5.942466e-12    -6.619899e-11    0.000000e+00
-3.100319e-12    -6.418415e-11    0.000000e+00
-1.701343e-09    4.994534e-09    0.000000e+00
-1.026460e-09    3.593274e-09    0.000000e+00
-1.293631e-09    7.431329e-09    0.000000e+00
-9.083064e-10    6.027964e-09    0.000000e+00
-4.441231e-10    9.618336e-09    0.000000e+00
-2.982813e-10    8.331654e-09    0.000000e+00
6.351813e-10    1.134481e-08    0.000000e+00
5.991520e-10    1.028679e-08    0.000000e+00
1.733478e-09    1.256294e-08    0.000000e+00
1.594949e-09    1.177250e-08    0.000000e+00
2.690521e-09    1.331079e-08    0.000000e+00
2.523022e-09    1.278681e-08    0.000000e+00
3.396026e-09    1.367821e-08    0.000000e+00
3.261788e-09    1.338956e-08    0.000000e+00
3.797800e-09    1.378203e-08    0.000000e+00
3.737441e-09    1.367815e-08    0.000000e+00
3.927129e-09    1.376531e-08    0.000000e+00
4.058331e-09    1.347280e-08    0.000000e+00
4.019997e-09    1.369426e-08    0.000000e+00
4.068712e-09    1.291298e-08    0.000000e+00
4.052753e-09    1.331114e-08    0.000000e+00
3.933557e-09    1.212931e-08    0.000000e+00
3.903887e-09    1.273425e-08    0.000000e+00
3.672516e-09    1.106849e-08    0.000000e+00
3.585437e-09    1.189256e-08    0.000000e+00
3.322908e-09    9.703996e-09    0.000000e+00
3.133787e-09    1.072808e-08    0.000000e+00
2.931669e-09    8.051168e-09    0.000000e+00
2.609873e-09    9.220638e-09    0.000000e+00
2.536695e-09    6.170279e-09    0.000000e+00
2.084910e-09    7.395931e-09    0.000000e+00
2.140395e-09    4.190535e-09    0.000000e+00
1.621671e-09    5.345307e-09    0.000000e+00
1.248491e-09    3.261869e-09    0.000000e+00
2.392231e-09    1.125844e-08    0.000000e+00
1.588111e-09    1.080690e-08    0.000000e+00
2.441579e-09    1.208023e-08    0.000000e+00
2.470544e-09    1.027825e-08    0.000000e+00
3.086693e-09    1.159258e-08    0.000000e+00
3.729543e-10    5.660161e-09    0.000000e+00
-3.658332e-10    4.641750e-09    0.000000e+00
2.950580e-11    6.975825e-09    0.000000e+00
8.368187e-10    4.383061e-09    0.000000e+00
1.251787e-09    6.572916e-09    0.000000e+00
1.237193e-10    3.384511e-09    0.000000e+00
9.098452e-10    7.855083e-09    0.000000e+00
7.316842e-10    9.087261e-09    0.000000e+00
1.825826e-09    8.586807e-09    0.000000e+00
1.627104e-09    9.756418e-09    0.000000e+00
3.613663e-09    1.306763e-08    0.000000e+00
3.166927e-09    1.293120e-08    0.000000e+00
3.679477e-09    1.343360e-08    0.000000e+00
3.588081e-09    1.254031e-08    0.000000e+00
3.914414e-09    1.317478e-08    0.000000e+00
3.084831e-09    1.234759e-08    0.000000e+00
3.924423e-09    1.349760e-08    0.000000e+00
3.937993e-09    1.368502e-08    0.000000e+00
4.036055e-09    1.357262e-08    0.000000e+00
3.999146e-09    1.372991e-08    0.000000e+00
0.000000e+00    0.000000e+00    0.000000e+00
-2.529799e-14    -4.258709e-12    0.000000e+00
0.000000e+00    0.000000e+00    0.000000e+00
-2.168849e-12    -4.446692e-12    0.000000e+00
0.000000e+00    0.000000e+00    0.000000e+00
-5.162756e-12    -4.782001e-12    0.000000e+00
0.000000e+00    0.000000e+00    0.000000e+00
-9.905216e-12    -5.077859e-12    0.000000e+00
0.000000e+00    0.000000e+00    0.000000e+00
-1.748819e-11    -4.871307e-12    0.000000e+00
0.000000e+00    0.000000e+00    0.000000e+00
-2.909777e-11    -3.279358e-12    0.000000e+00
0.000000e+00    0.000000e+00    0.000000e+00
-4.550988e-11    1.270738e-12    0.000000e+00
0.000000e+00    0.000000e+00    0.000000e+00
-6.575524e-11    1.117526e-11    0.000000e+00
0.000000e+00    0.000000e+00    0.000000e+00
-8.417477e-11    2.935445e-11    0.000000e+00
0.000000e+00    0.000000e+00    0.000000e+00
-8.754827e-11    5.683498e-11    0.000000e+00
-3.968853e-11    9.296836e-11    0.000000e+00
-1.710971e-10    3.033507e-10    0.000000e+00
-1.398522e-10    1.618770e-10    0.000000e+00
-3.113644e-10    5.369599e-10    0.000000e+00
-2.768033e-10    3.542774e-10    0.000000e+00
-4.719857e-10    6.026231e-10    0.000000e+00
-1.055631e-13    -2.947278e-11    0.000000e+00
-3.783252e-12    -3.713772e-11    0.000000e+00
-7.981764e-14    -1.570676e-11    0.000000e+00
-3.412399e-12    -2.294159e-11    0.000000e+00
-2.003589e-12    -9.747356e-12    0.000000e+00
-9.436212e-11    -5.584294e-11    0.000000e+00
-1.166125e-10    -7.100166e-11    0.000000e+00
-7.279611e-11    -7.227258e-11    0.000000e+00
-7.475872e-11    -2.350930e-11    0.000000e+00
-1.107356e-10    -3.491010e-11    0.000000e+00
-6.945824e-11    -3.939170e-11    0.000000e+00
-6.866445e-11    -8.438217e-12    0.000000e+00
-4.286134e-11    -1.283455e-11    0.000000e+00
-2.979700e-10    1.279981e-10    0.000000e+00
-3.736856e-10    2.622984e-10    0.000000e+00
-2.684776e-10    5.592282e-11    0.000000e+00
-2.133175e-10    8.477862e-11    0.000000e+00
-2.842274e-10    1.795847e-10    0.000000e+00
-2.315053e-10    5.394403e-11    0.000000e+00
-1.621472e-10    8.754931e-11    0.000000e+00
-1.399768e-10    3.421205e-11    0.000000e+00
-3.597485e-10    3.373817e-10    0.000000e+00
-2.277039e-10    1.955258e-10    0.000000e+00
-1.661033e-10    -1.063000e-11    0.000000e+00
-1.468864e-10    -4.257755e-11    0.000000e+00
-1.155842e-10    -1.280883e-11    0.000000e+00
-2.174453e-10    8.080805e-12    0.000000e+00
-1.660739e-10    1.792954e-11    0.000000e+00
-1.797821e-10    -3.980260e-11    0.000000e+00
-1.027266e-10    4.761306e-12    0.000000e+00
-3.362375e-11    -4.476674e-11    0.000000e+00
-4.374351e-11    -6.246025e-11    0.000000e+00
-2.485283e-11    -5.100908e-11    0.000000e+00
-2.624270e-11    -2.207434e-11    0.000000e+00
-4.138862e-11    -3.580913e-11    0.000000e+00
-2.314930e-11    -3.028415e-11    0.000000e+00
-2.525641e-11    -1.310665e-11    0.000000e+00
-1.393376e-11    -1.191860e-11    0.000000e+00
-5.774344e-11    -5.285572e-11    0.000000e+00
-4.557252e-11    -2.459009e-11    0.000000e+00
-1.145761e-11    -2.562241e-11    0.000000e+00
-7.806990e-12    -3.158055e-11    0.000000e+00
-5.930446e-12    -1.670341e-11    0.000000e+00
-1.808048e-11    -3.692482e-11    0.000000e+00
-1.391572e-11    -1.898649e-11    0.000000e+00
-1.251584e-11    -4.204834e-11    0.000000e+00
-6.800498e-12    -1.060104e-11    0.000000e+00

CELL_DATA      259
TENSORS Element_Stress1.800000e+00 double
-7.945567e+02 -3.438453e+02        0
-3.438453e+02 -1.565327e+02        0
       0        0 1.434967e+02

-7.758116e+02 -2.884704e+02        0
-2.884704e+02 -1.483935e+02        0
       0        0 -3.609070e+02

-7.233414e+02 -3.421254e+02        0
-3.421254e+02 -1.680565e+02        0
       0        0 2.716193e+02

-6.281855e+02 -2.598657e+02        0
-2.598657e+02 -1.466821e+02        0
       0        0 -1.559441e+02

-8.647780e+02 -3.195177e+02        0
-3.195177e+02 -1.180021e+02        0
       0        0 6.745062e+02

-8.712078e+02 -3.414336e+02        0
-3.414336e+02 -1.339679e+02        0
       0        0 7.292329e+02

-9.189922e+02 -3.112888e+02        0
-3.112888e+02 -1.482939e+02        0
       0        0 -5.696552e+02

-8.645669e+02 -3.457721e+02        0
-3.457721e+02 -1.459234e+02        0
       0        0 1.418524e+01

-8.617063e+02 -3.004520e+02        0
-3.004520e+02 -1.044794e+02        0
       0        0 6.181465e+02

-1.655475e+03 -5.248442e+02        0
-5.248442e+02 -2.318759e+02        0
       0        0 -1.500205e+03

7.175789e+02 -2.418417e+02        0
-2.418417e+02 -3.909689e+01        0
       0        0 9.695113e+02

-1.698423e+03 -5.221695e+02        0
-5.221695e+02 -9.844374e+02        0
       0        0 -1.542503e+03

1.147727e+03 -1.907145e+02        0
-1.907145e+02 -1.556650e+02        0
       0        0 1.195846e+03

-3.879378e+03 -3.998373e+02        0
-3.998373e+02 -4.635398e+02        0
       0        0 -3.948415e+03

-4.886432e+03 -1.145562e+03        0
-1.145562e+03 -2.575657e+03        0
       0        0 -4.632728e+03

3.118749e+02 -2.106330e+02        0
-2.106330e+02 -2.346325e+01        0
       0        0 7.367426e+02

-1.559470e+03 -4.790785e+02        0
-4.790785e+02 -1.170740e+02        0
       0        0 -1.433426e+03

-3.372575e+03 -3.919269e+02        0
-3.919269e+02 -2.415076e+02        0
       0        0 -3.543948e+03

-1.428066e+03 -4.283932e+02        0
-4.283932e+02 -9.910597e+01        0
       0        0 -1.209660e+03

-2.612625e+02 -1.863537e+02        0
-1.863537e+02 -3.196259e+01        0
       0        0 4.532324e+02

-1.489093e+03 -4.501089e+02        0
-4.501089e+02 -1.006111e+02        0
       0        0 -1.332525e+03

-1.019647e+01 -1.902291e+02        0
-1.902291e+02 -2.628869e+01        0
       0        0 5.659173e+02

-2.611691e+03 -4.101095e+02        0
-4.101095e+02 -1.589080e+02        0
       0        0 -2.826162e+03

-2.963531e+03 -4.051520e+02        0
-4.051520e+02 -1.840359e+02        0
       0        0 -3.177926e+03

-4.551503e+02 -1.916192e+02        0
-1.916192e+02 -3.826446e+01        0
       0        0 3.873072e+02

-1.365727e+03 -4.104580e+02        0
-4.104580e+02 -1.015287e+02        0
       0        0 -1.071166e+03

-2.305476e+03 -4.087877e+02        0
-4.087877e+02 -1.480028e+02        0
       0        0 -2.490135e+03

-1.232563e+03 -3.825346e+02        0
-3.825346e+02 -1.104637e+02        0
       0        0 -7.664817e+02

-7.048225e+02 -2.159933e+02        0
-2.159933e+02 -5.274999e+01        0
       0        0 3.614764e+02

-1.300556e+03 -3.953442e+02        0
-3.953442e+02 -1.056609e+02        0
       0        0 -9.222103e+02

-6.004195e+02 -2.022554e+02        0
-2.022554e+02 -4.521402e+01        0
       0        0 3.591703e+02

-1.801881e+03 -3.931864e+02        0
-3.931864e+02 -1.413890e+02        0
       0        0 -1.866075e+03

-2.037639e+03 -4.027235e+02        0
-4.027235e+02 -1.431116e+02        0
       0        0 -2.170084e+03

-7.756914e+02 -2.313794e+02        0
-2.313794e+02 -6.093863e+01        0
       0        0 3.878743e+02

-1.161995e+03 -3.717631e+02        0
-3.717631e+02 -1.156638e+02        0
       0        0 -6.068630e+02

-1.592509e+03 -3.810913e+02        0
-3.810913e+02 -1.412572e+02        0
       0        0 -1.577562e+03

-1.014341e+03 -3.555323e+02        0
-3.555323e+02 -1.276811e+02        0
       0        0 -2.846189e+02

-8.448449e+02 -2.643615e+02        0
-2.643615e+02 -7.987915e+01        0
       0        0 4.909026e+02

-1.089127e+03 -3.628181e+02        0
-3.628181e+02 -1.213258e+02        0
       0        0 -4.456073e+02

-8.201091e+02 -2.475966e+02        0
-2.475966e+02 -6.990709e+01        0
       0        0 4.327259e+02

-1.231070e+03 -3.507821e+02        0
-3.507821e+02 -1.429771e+02        0
       0        0 -1.042799e+03

-1.404031e+03 -3.669378e+02        0
-3.669378e+02 -1.419326e+02        0
       0        0 -1.303569e+03

-8.564964e+02 -2.820364e+02        0
-2.820364e+02 -9.123081e+01        0
       0        0 5.569787e+02

-9.379651e+02 -3.496579e+02        0
-3.496579e+02 -1.355318e+02        0
       0        0 -1.268548e+02

-1.068603e+03 -3.321637e+02        0
-3.321637e+02 -1.439726e+02        0
       0        0 -7.943568e+02

-8.834094e+02 -3.672777e+02        0
-3.672777e+02 -1.530353e+02        0
       0        0 7.784741e+02

-6.512280e+02 -3.402378e+02        0
-3.402378e+02 -1.812386e+02        0
       0        0 3.947134e+02

-4.739645e+02 -2.242874e+02        0
-2.242874e+02 -1.425709e+02        0
       0        0 4.458003e+01

-9.329674e+02 -4.349354e+02        0
-4.349354e+02 -2.036412e+02        0
       0        0 8.500354e+02

-9.033698e+02 -3.980896e+02        0
-3.980896e+02 -1.759838e+02        0
       0        0 8.196320e+02

-1.381000e+02 -1.263853e+02        0
-1.263853e+02 -1.231487e+02        0
       0        0 4.330299e+02

-5.053804e+02 -3.351931e+02        0
-3.351931e+02 -2.130265e+02        0
       0        0 6.198928e+02

-3.111279e+02 -1.803062e+02        0
-1.803062e+02 -1.350638e+02        0
       0        0 2.409491e+02

-5.784971e+02 -3.379877e+02        0
-3.379877e+02 -1.962098e+02        0
       0        0 5.113177e+02

-9.737284e+02 -4.791592e+02        0
-4.791592e+02 -2.369988e+02        0
       0        0 8.668706e+02

-4.323816e+02 -3.316853e+02        0
-3.316853e+02 -2.315250e+02        0
       0        0 7.185825e+02

4.670740e+01 -6.123202e+01        0
-6.123202e+01 -1.050764e+02        0
       0        0 6.205070e+02

-1.093292e+03 -5.937715e+02        0
-5.937715e+02 -3.239575e+02        0
       0        0 8.481130e+02

-1.027655e+03 -5.307863e+02        0
-5.307863e+02 -2.759491e+02        0
       0        0 8.672554e+02

4.582669e+02 1.096470e+02        0
1.096470e+02 -4.619477e+01        0
       0        0 9.771931e+02

-2.946936e+02 -3.231716e+02        0
-3.231716e+02 -2.736751e+02        0
       0        0 8.748772e+02

2.448542e+02 1.653464e+01        0
1.653464e+01 -8.110194e+01        0
       0        0 8.019942e+02

-3.601375e+02 -3.282774e+02        0
-3.282774e+02 -2.513783e+02        0
       0        0 8.051832e+02

-1.179342e+03 -6.538250e+02        0
-6.538250e+02 -3.729063e+02        0
       0        0 8.068176e+02

-2.373893e+02 -3.116822e+02        0
-3.116822e+02 -3.340143e+02        0
       0        0 9.145078e+02

6.362722e+02 2.341494e+02        0
2.341494e+02 -4.503438e+00        0
       0        0 1.126296e+03

-1.282782e+03 -7.090425e+02        0
-7.090425e+02 -1.300875e+03        0
       0        0 4.526717e+02

-1.275155e+03 -7.740617e+02        0
-7.740617e+02 -5.922677e+02        0
       0        0 6.956095e+02

1.461664e+02 4.348271e+02        0
4.348271e+02 3.819978e+02        0
       0        0 1.195383e+03

-3.958718e+02 1.585932e+02        0
1.585932e+02 -3.259555e+02        0
       0        0 9.107168e+02

5.259297e+02 4.021058e+02        0
4.021058e+02 9.597390e+01        0
       0        0 1.182785e+03

-2.172839e+02 -1.156904e+02        0
-1.156904e+02 -4.334498e+02        0
       0        0 9.174478e+02

1.801755e+01 -3.088078e+01        0
-3.088078e+01 -8.879175e+02        0
       0        0 8.100430e+02

1.475555e+01 -1.137181e+02        0
-1.137181e+02 2.710495e+01        0
       0        0 9.487741e+02

1.991508e+01 -1.803125e+02        0
-1.803125e+02 3.403504e+02        0
       0        0 1.141110e+03

1.798854e+01 -6.195299e+01        0
-6.195299e+01 -3.790020e+02        0
       0        0 5.985760e+02

1.266176e+01 -1.933312e+01        0
-1.933312e+01 -3.148906e+02        0
       0        0 6.285986e+02

2.601378e+01 -1.053611e+02        0
-1.053611e+02 -3.837727e+02        0
       0        0 7.245274e+02

1.568022e+01 -2.727092e+01        0
-2.727092e+01 -4.525243e+02        0
       0        0 7.123725e+02

3.793645e+00 -1.848718e+01        0
-1.848718e+01 -3.778053e+02        0
       0        0 5.834649e+02

9.043918e+00 -6.072264e+01        0
-6.072264e+01 -2.091285e+02        0
       0        0 7.592851e+02

6.678361e+00 1.409132e+00        0
1.409132e+00 -3.737008e+02        0
       0        0 3.635547e+02

6.565723e+00 -1.511124e+00        0
-1.511124e+00 -1.650954e+02        0
       0        0 4.402348e+02

1.182318e+01 -2.654817e+01        0
-2.654817e+01 -3.758199e+02        0
       0        0 4.764286e+02

9.436444e+00 -1.023854e+01        0
-1.023854e+01 -2.217131e+02        0
       0        0 5.353665e+02

-2.708319e+00 3.597501e+01        0
3.597501e+01 -5.620904e+02        0
       0        0 2.935945e+02

3.246802e-02 1.306741e+01        0
1.306741e+01 -4.919347e+02        0
       0        0 4.272462e+02

-4.754863e-01 3.747724e+01        0
3.747724e+01 -3.723994e+02        0
       0        0 1.772984e+02

1.844384e+00 1.356265e+01        0
1.356265e+01 -1.294888e+02        0
       0        0 2.644843e+02

2.607706e+00 2.247808e+01        0
2.247808e+01 -3.725982e+02        0
       0        0 2.633097e+02

4.006753e+00 6.541728e+00        0
6.541728e+00 -1.367791e+02        0
       0        0 3.486999e+02

-5.773875e+00 6.106775e+01        0
6.106775e+01 -6.105842e+02        0
       0        0 9.478872e+01

-4.602653e+00 5.150502e+01        0
5.150502e+01 -5.985929e+02        0
       0        0 1.831054e+02

-4.071703e+00 5.280965e+01        0
5.280965e+01 -3.742011e+02        0
       0        0 4.848016e+01

-1.254440e+00 2.386750e+01        0
2.386750e+01 -1.533252e+02        0
       0        0 1.261588e+02

-2.663775e+00 4.728789e+01        0
4.728789e+01 -3.729778e+02        0
       0        0 1.058630e+02

9.137822e-02 1.936882e+01        0
1.936882e+01 -1.368156e+02        0
       0        0 1.898955e+02

-6.539143e+00 6.744436e+01        0
6.744436e+01 -5.916202e+02        0
       0        0 -2.415712e+01

-6.375922e+00 6.598066e+01        0
6.598066e+01 -6.060389e+02        0
       0        0 2.657433e+01

-5.019116e+00 5.437240e+01        0
5.437240e+01 -3.780324e+02        0
       0        0 -2.851332e+01

-2.814652e+00 2.894791e+01        0
2.894791e+01 -1.968578e+02        0
       0        0 3.251210e+01

-4.817686e+00 5.490566e+01        0
5.490566e+01 -3.759398e+02        0
       0        0 4.108827e+00

-2.212529e+00 2.704634e+01        0
2.704634e+01 -1.745376e+02        0
       0        0 7.371875e+01

-6.007911e+00 6.406216e+01        0
6.406216e+01 -5.534422e+02        0
       0        0 -8.417095e+01

-6.380714e+00 6.650789e+01        0
6.650789e+01 -5.727045e+02        0
       0        0 -6.019002e+01

-3.086865e+00 2.961685e+01        0
2.961685e+01 -2.172298e+02        0
       0        0 2.275422e+00

-4.788438e+00 5.187954e+01        0
5.187954e+01 -3.797228e+02        0
       0        0 -5.047293e+01

-5.500315e+00 6.083271e+01        0
6.083271e+01 -5.365901e+02        0
       0        0 -9.829722e+01

4.152041e+01 -2.164215e+02        0
-2.164215e+02 -4.149653e+02        0
       0        0 9.442566e+02

2.026780e+01 -3.532664e+01        0
-3.532664e+01 -6.456033e+02        0
       0        0 7.765746e+02

3.415525e+01 -1.551185e+02        0
-1.551185e+02 -3.901647e+02        0
       0        0 8.453878e+02

-1.128900e+02 1.888315e+02        0
1.888315e+02 6.670186e+02        0
       0        0 1.242615e+03

-6.851656e+01 -1.338761e+02        0
-1.338761e+02 6.354388e+02        0
       0        0 1.255724e+03

-5.475059e+02 -3.703823e+02        0
-3.703823e+02 -1.658787e+03        0
       0        0 5.410611e+02

-4.981587e+02 -5.770735e+01        0
-5.770735e+01 -1.621784e+02        0
       0        0 9.487264e+02

-1.915386e+01 -7.067573e+01        0
-7.067573e+01 -1.259126e+03        0
       0        0 7.699372e+02

-1.156967e+02 -2.537781e+02        0
-2.537781e+02 -3.591771e+02        0
       0        0 9.868204e+02

-4.870061e+01 4.567170e+01        0
4.567170e+01 7.473303e+01        0
       0        0 8.678976e+02

-1.270331e+02 2.179786e+02        0
2.179786e+02 -3.655422e+02        0
       0        0 7.375951e+02

-1.013254e+02 2.675713e+02        0
2.675713e+02 -8.900608e+02        0
       0        0 6.053074e+02

-3.234670e+01 8.538498e+01        0
8.538498e+01 -1.047505e+02        0
       0        0 7.311217e+02

-6.116991e+01 1.930644e+02        0
1.930644e+02 -3.917248e+02        0
       0        0 6.474790e+02

-3.459507e+01 1.601528e+02        0
1.601528e+02 -6.666059e+02        0
       0        0 5.782538e+02

-2.074538e+01 9.016249e+01        0
9.016249e+01 -2.836217e+02        0
       0        0 5.739746e+02

-2.830155e+01 1.514347e+02        0
1.514347e+02 -3.972231e+02        0
       0        0 5.384409e+02

-1.231030e+01 1.055254e+02        0
1.055254e+02 -4.773143e+02        0
       0        0 5.174650e+02

-1.144790e+01 7.368442e+01        0
7.368442e+01 -5.010468e+02        0
       0        0 2.926731e+02

-1.532694e+01 8.232995e+01        0
8.232995e+01 -4.178890e+02        0
       0        0 4.232416e+02

-3.258232e+00 4.868323e+01        0
4.868323e+01 -2.808487e+02        0
       0        0 3.435336e+02

-1.032093e+01 8.115231e+01        0
8.115231e+01 -3.974711e+02        0
       0        0 3.147618e+02

-6.642362e+00 7.198563e+01        0
7.198563e+01 -3.545709e+02        0
       0        0 4.333490e+02

-1.700836e+01 1.117104e+02        0
1.117104e+02 -3.973363e+02        0
       0        0 4.233081e+02

-6.351320e+00 5.949698e+01        0
5.949698e+01 -5.626131e+02        0
       0        0 9.844682e+01

-8.503832e+00 6.592848e+01        0
6.592848e+01 -5.453994e+02        0
       0        0 1.846403e+02

-3.585233e-01 2.466197e+01        0
2.466197e+01 -2.287709e+02        0
       0        0 1.789019e+02

-2.788548e+00 4.464433e+01        0
4.464433e+01 -3.970837e+02        0
       0        0 1.374352e+02

-1.302928e+00 3.348622e+01        0
3.348622e+01 -2.426911e+02        0
       0        0 2.569422e+02

-5.691434e+00 5.922030e+01        0
5.922030e+01 -3.975122e+02        0
       0        0 2.186738e+02

-4.902553e+00 5.464694e+01        0
5.464694e+01 -5.624289e+02        0
       0        0 3.189123e+01

-1.239984e+00 3.609554e+01        0
3.609554e+01 -3.961552e+02        0
       0        0 7.141936e+01

-1.544529e-01 2.053129e+01        0
2.053129e+01 -2.295738e+02        0
       0        0 1.123083e+02

-3.660347e+00 4.996479e+01        0
4.996479e+01 -5.396318e+02        0
       0        0 -5.401783e+01

-4.042838e+00 5.147508e+01        0
5.147508e+01 -5.527257e+02        0
       0        0 -1.792869e+01

-9.864977e-01 2.080800e+01        0
2.080800e+01 -2.469248e+02        0
       0        0 1.756482e+01

-8.896998e-01 3.207439e+01        0
3.207439e+01 -3.928285e+02        0
       0        0 -1.860865e+01

-4.323830e-01 1.964944e+01        0
1.964944e+01 -2.375479e+02        0
       0        0 5.842905e+01

-7.075430e-01 3.229429e+01        0
3.229429e+01 -3.947253e+02        0
       0        0 1.984295e+01

-3.916954e+00 5.142993e+01        0
5.142993e+01 -5.200801e+02        0
       0        0 -9.511724e+01

-3.650246e+00 5.000972e+01        0
5.000972e+01 -5.276976e+02        0
       0        0 -7.905711e+01

-2.290893e+00 2.554945e+01        0
2.554945e+01 -2.546022e+02        0
       0        0 -2.580618e+01

-2.419844e+00 3.836190e+01        0
3.836190e+01 -3.878658e+02        0
       0        0 -6.138234e+01

-1.650650e+00 2.303180e+01        0
2.303180e+01 -2.535326e+02        0
       0        0 -1.043630e+01

-1.532068e+00 3.440146e+01        0
3.440146e+01 -3.905186e+02        0
       0        0 -4.531314e+01

-4.931857e+00 5.729124e+01        0
5.729124e+01 -5.243570e+02        0
       0        0 -1.045391e+02

-4.373705e+00 5.397016e+01        0
5.397016e+01 -5.187011e+02        0
       0        0 -1.034799e+02

-3.081338e+00 2.920124e+01        0
2.920124e+01 -2.352312e+02        0
       0        0 -1.865493e+01

-4.211266e+00 4.792932e+01        0
4.792932e+01 -3.818998e+02        0
       0        0 -6.356097e+01

-2.801574e+00 2.775992e+01        0
2.775992e+01 -2.486197e+02        0
       0        0 -2.861738e+01

-3.368663e+00 4.313006e+01        0
4.313006e+01 -3.849572e+02        0
       0        0 -6.745050e+01

1.230082e+03 -2.346431e+02        0
-2.346431e+02 9.225971e+00        0
       0        0 6.092750e+02

1.565823e+03 -7.616764e+01        0
-7.616764e+01 -7.055614e+01        0
       0        0 7.918745e+02

-8.652552e+02 4.335857e+01        0
4.335857e+01 -3.021663e+01        0
       0        0 -3.998007e+02

-1.810361e-01 -3.228416e+02        0
-3.228416e+02 4.084098e+01        0
       0        0 4.789917e+01

-1.833738e+03 3.903479e+02        0
3.903479e+02 -9.911528e+02        0
       0        0 -1.064353e+03

-2.079058e+02 -2.291515e+01        0
-2.291515e+01 -4.523949e+02        0
       0        0 -1.667847e+02

7.974525e+02 -1.728361e+02        0
-1.728361e+02 2.495046e+01        0
       0        0 4.023256e+02

1.251332e+02 -2.871359e+02        0
-2.871359e+02 1.081471e+02        0
       0        0 1.044387e+02

-3.834063e+02 -1.262231e+02        0
-1.262231e+02 1.285673e+02        0
       0        0 -1.565700e+02

2.927327e+02 -7.331940e+01        0
-7.331940e+01 1.127146e+01        0
       0        0 1.474661e+02

4.933648e+02 -1.117241e+02        0
-1.117241e+02 1.681035e+01        0
       0        0 2.504777e+02

-7.762521e+01 -1.433113e+02        0
-1.433113e+02 1.105540e+02        0
       0        0 -2.940198e+01

1.073934e+02 -1.548203e+02        0
-1.548203e+02 5.988393e+01        0
       0        0 6.415129e+01

-1.711780e+02 -1.605923e+02        0
-1.605923e+02 1.304814e+02        0
       0        0 -6.542873e+01

1.417860e+02 -2.157692e+02        0
-2.157692e+02 8.220288e+01        0
       0        0 9.253649e+01

7.546775e+01 -3.083205e+01        0
-3.083205e+01 5.862130e+00        0
       0        0 3.208399e+01

1.608985e+02 -4.808679e+01        0
-4.808679e+01 7.877411e+00        0
       0        0 7.805631e+01

-2.351530e+01 -7.719668e+01        0
-7.719668e+01 7.361111e+01        0
       0        0 -1.212645e+01

3.316883e+01 -7.124721e+01        0
-7.124721e+01 3.454389e+01        0
       0        0 1.643170e+01

-3.952655e+01 -1.105134e+02        0
-1.105134e+02 9.104388e+01        0
       0        0 -1.622977e+01

6.675291e+01 -1.075410e+02        0
-1.075410e+02 4.487420e+01        0
       0        0 3.733825e+01

2.257038e+01 -1.860881e+01        0
-1.860881e+01 4.461862e+00        0
       0        0 2.914312e+00

9.666330e+00 -4.400028e+01        0
-4.400028e+01 2.695825e+01        0
       0        0 1.772241e+00

-1.679240e+01 -4.906555e+01        0
-4.906555e+01 5.913313e+01        0
       0        0 -1.160876e+01

-2.126913e+01 -2.998980e+00        0
-2.998980e+00 3.127211e+00        0
       0        0 -2.157147e+01

-7.440138e+00 -9.824152e+00        0
-9.824152e+00 3.557555e+00        0
       0        0 -1.402853e+01

-1.281605e+01 -8.426698e+00        0
-8.426698e+00 4.377933e+01        0
       0        0 -1.263269e+01

-1.141740e+01 -7.408766e+00        0
-7.408766e+00 1.941039e+01        0
       0        0 -1.148731e+01

-1.394847e+01 -2.667827e+01        0
-2.667827e+01 4.886122e+01        0
       0        0 -1.214022e+01

-4.606695e+00 -2.357262e+01        0
-2.357262e+01 2.187872e+01        0
       0        0 -7.298308e+00

-1.336138e+03 6.070213e+02        0
6.070213e+02 -1.485710e+02        0
       0        0 -8.074796e+02

-2.620875e+03 9.739649e+02        0
9.739649e+02 -6.050743e+02        0
       0        0 -1.313094e+03

1.518907e+02 4.333998e+02        0
4.333998e+02 -1.477690e+02        0
       0        0 5.397529e+02

-5.228735e+02 8.171321e+02        0
8.171321e+02 -2.237825e+02        0
       0        0 -1.364235e+02

1.134047e+03 2.753520e+02        0
2.753520e+02 -9.667272e+01        0
       0        0 7.573975e+02

-5.185695e+02 8.089643e+02        0
8.089643e+02 -4.974402e+02        0
       0        0 -2.607208e+02

-4.956015e+02 4.028828e+02        0
4.028828e+02 -2.067689e+02        0
       0        0 -4.168050e+02

-4.112170e+02 6.533557e+02        0
6.533557e+02 -3.725356e+02        0
       0        0 -1.956643e+01

-6.292390e+02 5.356025e+02        0
5.356025e+02 -3.050973e+02        0
       0        0 3.611151e+02

1.904018e+02 -5.401649e+01        0
-5.401649e+01 -5.331384e+01        0
       0        0 3.597290e+02

-1.832307e+01 1.614101e+02        0
1.614101e+02 -1.633777e+02        0
       0        0 -9.294795e+00

-1.137244e+03 8.331704e+02        0
8.331704e+02 -7.015962e+02        0
       0        0 3.208104e+02

-3.508463e+02 3.709379e+02        0
3.709379e+02 -4.550533e+02        0
       0        0 3.547264e+02

-1.031039e+03 6.955390e+02        0
6.955390e+02 -4.932580e+02        0
       0        0 3.003222e+02

-3.610209e+02 4.917911e+02        0
4.917911e+02 -4.492870e+02        0
       0        0 1.570319e+02

1.604955e+02 -2.293235e+02        0
-2.293235e+02 2.108968e+02        0
       0        0 8.664876e+02

2.217228e+02 -1.866966e+02        0
-1.866966e+02 8.764135e+01        0
       0        0 6.576383e+02

-8.403723e+02 8.653309e+02        0
8.653309e+02 -1.055152e+03        0
       0        0 4.642626e+02

-3.359982e+02 2.538358e+02        0
2.538358e+02 -3.899508e+02        0
       0        0 6.809572e+02

-1.042692e+03 8.944225e+02        0
8.944225e+02 -8.995573e+02        0
       0        0 3.860455e+02

-3.482031e+02 2.941542e+02        0
2.941542e+02 -4.263556e+02        0
       0        0 5.375721e+02

7.186035e+01 -1.972844e+02        0
-1.972844e+02 2.822199e+02        0
       0        0 9.827191e+02

-3.065199e+02 2.372763e+02        0
2.372763e+02 -3.623236e+02        0
       0        0 7.721520e+02

-6.061721e+02 7.587070e+02        0
7.587070e+02 -1.142117e+03        0
       0        0 5.334087e+02

-4.339754e+01 -2.962782e+01        0
-2.962782e+01 2.136673e+02        0
       0        0 9.688036e+02

-2.918218e+00 -1.198875e+02        0
-1.198875e+02 2.836073e+02        0
       0        0 1.012589e+03

-2.254220e+02 4.283289e+02        0
4.283289e+02 -1.064349e+03        0
       0        0 6.029256e+02

-1.987471e+02 2.244454e+02        0
2.244454e+02 -3.449324e+02        0
       0        0 7.953224e+02

-3.915264e+02 6.027638e+02        0
6.027638e+02 -1.147413e+03        0
       0        0 5.807397e+02

-2.595652e+02 2.313408e+02        0
2.313408e+02 -3.495782e+02        0
       0        0 8.083349e+02

-5.635214e+02 5.137330e+02        0
5.137330e+02 -5.142618e+02        0
       0        0 -4.929427e+02

-9.591194e+02 4.633640e+02        0
4.633640e+02 -3.211063e+02        0
       0        0 -5.791361e+02

-4.342993e+02 7.480826e+02        0
7.480826e+02 -1.351394e+03        0
       0        0 -7.006773e+02

-1.360996e+03 1.208239e+03        0
1.208239e+03 -1.592745e+03        0
       0        0 -1.131728e+03

-3.027083e+02 3.965432e+02        0
3.965432e+02 -6.487642e+02        0
       0        0 -3.315698e+02

-3.807288e+02 4.524539e+02        0
4.524539e+02 -6.340933e+02        0
       0        0 -4.220363e+02

-2.571123e+02 3.803066e+02        0
3.803066e+02 -1.055278e+03        0
       0        0 -4.264761e+02

-2.491751e+02 5.174862e+02        0
5.174862e+02 -1.146785e+03        0
       0        0 -5.155557e+02

-2.329447e+02 2.031150e+01        0
2.031150e+01 1.102116e+02        0
       0        0 -1.296761e+02

-1.996604e+02 -6.996224e+01        0
-6.996224e+01 1.279883e+02        0
       0        0 -1.014756e+02

-3.534096e+02 9.091455e+01        0
9.091455e+01 4.346367e+01        0
       0        0 -2.123301e+02

-3.378381e+02 -2.669217e+01        0
-2.669217e+01 1.079738e+02        0
       0        0 -1.754224e+02

-4.962975e+02 2.510315e+02        0
2.510315e+02 -1.350412e+02        0
       0        0 -3.373078e+02

-5.654005e+02 1.150762e+02        0
1.150762e+02 1.655916e+01        0
       0        0 -3.081820e+02

-8.506258e+01 1.552883e+02        0
1.552883e+02 9.317709e+00        0
       0        0 -5.270134e+01

-1.919315e+02 9.976063e+01        0
9.976063e+01 6.837555e+01        0
       0        0 -1.123014e+02

-1.524092e+02 2.359760e+02        0
2.359760e+02 -1.000872e+02        0
       0        0 -1.138079e+02

-2.865268e+02 1.747864e+02        0
1.747864e+02 -2.978905e+01        0
       0        0 -1.899075e+02

-2.341271e+02 3.288966e+02        0
3.288966e+02 -3.086759e+02        0
       0        0 -2.077811e+02

-3.742379e+02 2.954246e+02        0
2.954246e+02 -2.494525e+02        0
       0        0 -2.996704e+02

-8.296352e+01 -1.231351e+01        0
-1.231351e+01 1.147517e+02        0
       0        0 -4.520403e+01

-6.832777e+01 -5.293453e+01        0
-5.293453e+01 1.040200e+02        0
       0        0 -3.701412e+01

-1.433453e+02 -5.963696e+00        0
-5.963696e+00 1.240356e+02        0
       0        0 -7.696982e+01

-1.176830e+02 -6.835903e+01        0
-6.835903e+01 1.207728e+02        0
       0        0 -6.016378e+01

-1.109871e+01 5.592866e+01        0
5.592866e+01 7.345580e+01        0
       0        0 1.543588e+00

-6.303425e+01 2.868906e+01        0
2.868906e+01 1.035199e+02        0
       0        0 -3.190576e+01

-3.901246e+01 9.582380e+01        0
9.582380e+01 5.774606e+01        0
       0        0 -1.715698e+01

-1.156005e+02 5.448656e+01        0
5.448656e+01 1.015122e+02        0
       0        0 -6.195103e+01

-1.374730e+01 -2.276537e+00        0
-2.276537e+00 7.789190e+01        0
       0        0 -1.336648e+01

-1.593236e+01 -6.258268e+00        0
-6.258268e+00 6.562081e+01        0
       0        0 -1.559346e+01

-2.379878e+01 -6.895469e+00        0
-6.895469e+00 8.535110e+01        0
       0        0 -1.743025e+01

-2.332725e+01 -1.971403e+01        0
-1.971403e+01 7.267142e+01        0
       0        0 -1.815273e+01

-4.523272e+01 -1.090423e+01        0
-1.090423e+01 9.901734e+01        0
       0        0 -2.705226e+01

-3.933100e+01 -3.535107e+01        0
-3.535107e+01 8.633412e+01        0
       0        0 -2.450729e+01

1.537795e+01 4.401519e+00        0
4.401519e+00 6.791798e+01        0
       0        0 1.554482e+01

-3.037114e+00 1.832650e+00        0
1.832650e+00 7.815756e+01        0
       0        0 -2.698788e+00

1.210341e+01 1.483830e+01        0
1.483830e+01 7.084573e+01        0
       0        0 1.423241e+01

-1.164325e+01 6.403969e+00        0
6.403969e+00 8.417999e+01        0
       0        0 -6.354722e+00

4.369266e+00 3.059057e+01        0
3.059057e+01 7.445788e+01        0
       0        0 1.047063e+01

-3.013491e+01 1.427263e+01        0
1.427263e+01 9.431194e+01        0
       0        0 -1.505391e+01

POINT_DATA     938
VECTORS DISPLACEMENT_2.000000e+00 double
3.343248e-09    2.798262e-08    0.000000e+00
3.634688e-09    2.638622e-08    0.000000e+00
3.059364e-09    2.961651e-08    0.000000e+00
-1.121291e-09    2.829188e-08    0.000000e+00
-6.709833e-10    2.637705e-08    0.000000e+00
-1.772176e-10    2.452986e-08    0.000000e+00
3.548150e-10    2.276817e-08    0.000000e+00
9.187424e-10    2.111235e-08    0.000000e+00
1.506290e-09    1.958608e-08    0.000000e+00
2.107098e-09    1.821729e-08    0.000000e+00
2.707579e-09    1.703800e-08    0.000000e+00
3.291288e-09    1.608950e-08    0.000000e+00
3.820461e-09    1.543593e-08    0.000000e+00
4.190537e-09    1.509168e-08    0.000000e+00
4.518400e-09    1.495871e-08    0.000000e+00
-1.684989e-11    5.135436e-08    0.000000e+00
-3.362185e-10    5.124545e-08    0.000000e+00
-6.340432e-11    5.044226e-08    0.000000e+00
-6.950247e-10    5.028746e-08    0.000000e+00
-1.169726e-10    4.757678e-08    0.000000e+00
-1.171989e-09    4.737645e-08    0.000000e+00
-9.557996e-11    4.578549e-08    0.000000e+00
-1.290370e-09    4.556239e-08    0.000000e+00
-1.028174e-10    4.915251e-08    0.000000e+00
-9.731413e-10    4.897384e-08    0.000000e+00
7.790882e-11    4.178055e-08    0.000000e+00
-1.290703e-09    4.151488e-08    0.000000e+00
2.361977e-10    3.965181e-08    0.000000e+00
-1.178973e-09    3.936726e-08    0.000000e+00
6.976112e-10    3.529865e-08    0.000000e+00
-7.528935e-10    3.498177e-08    0.000000e+00
9.972108e-10    3.311967e-08    0.000000e+00
-4.481879e-10    3.279001e-08    0.000000e+00
4.431127e-10    3.748274e-08    0.000000e+00
-9.981722e-10    3.718110e-08    0.000000e+00
-3.202423e-11    4.383788e-08    0.000000e+00
-1.329066e-09    4.359281e-08    0.000000e+00
2.467028e-09    3.341655e-08    0.000000e+00
2.175872e-09    3.557336e-08    0.000000e+00
1.916166e-09    3.773316e-08    0.000000e+00
1.687608e-09    3.987525e-08    0.000000e+00
1.487750e-09    4.197307e-08    0.000000e+00
1.311546e-09    4.399487e-08    0.000000e+00
1.151018e-09    4.590265e-08    0.000000e+00
9.947901e-10    4.764993e-08    0.000000e+00
8.270794e-10    4.918040e-08    0.000000e+00
6.247302e-10    5.042513e-08    0.000000e+00
3.515588e-10    5.128646e-08    0.000000e+00
4.327395e-12    5.160428e-08    0.000000e+00
-7.561819e-12    5.175722e-08    0.000000e+00
1.198807e-11    5.185324e-08    0.000000e+00
-2.792174e-10    5.254102e-08    0.000000e+00
-7.667491e-10    5.104853e-08    0.000000e+00
-1.392759e-09    5.001616e-08    0.000000e+00
-1.888235e-09    4.867954e-08    0.000000e+00
-2.261007e-09    4.707010e-08    0.000000e+00
-2.510233e-09    4.524777e-08    0.000000e+00
-2.644793e-09    4.326968e-08    0.000000e+00
-2.673282e-09    4.118320e-08    0.000000e+00
-2.604783e-09    3.902717e-08    0.000000e+00
-2.447954e-09    3.683300e-08    0.000000e+00
-2.210805e-09    3.462629e-08    0.000000e+00
-1.900561e-09    3.242823e-08    0.000000e+00
-1.523509e-09    3.025745e-08    0.000000e+00
-9.454634e-11    3.062135e-08    0.000000e+00
1.332884e-09    3.096221e-08    0.000000e+00
2.787946e-09    3.128015e-08    0.000000e+00
3.927692e-09    2.483593e-08    0.000000e+00
4.214843e-09    2.334139e-08    0.000000e+00
4.487149e-09    2.191348e-08    0.000000e+00
4.733810e-09    2.056462e-08    0.000000e+00
4.942051e-09    1.930890e-08    0.000000e+00
5.097694e-09    1.816267e-08    0.000000e+00
5.181978e-09    1.714186e-08    0.000000e+00
5.214588e-09    1.624764e-08    0.000000e+00
5.030038e-09    1.541915e-08    0.000000e+00
4.899045e-09    1.523397e-08    0.000000e+00
4.698982e-09    1.509952e-08    0.000000e+00
3.436947e-09    2.108084e-08    0.000000e+00
2.459083e-09    2.030848e-08    0.000000e+00
2.327963e-09    2.575819e-08    0.000000e+00
1.069404e-09    2.514101e-08    0.000000e+00
1.634716e-09    2.918595e-08    0.000000e+00
2.520285e-10    2.874569e-08    0.000000e+00
1.971957e-09    2.744927e-08    0.000000e+00
6.452489e-10    2.691511e-08    0.000000e+00
2.696022e-09    2.412443e-08    0.000000e+00
1.518126e-09    2.343734e-08    0.000000e+00
3.068732e-09    2.256052e-08    0.000000e+00
1.984315e-09    2.182028e-08    0.000000e+00
4.391893e-09    1.733076e-08    0.000000e+00
3.806841e-09    1.664287e-08    0.000000e+00
3.789677e-09    1.970204e-08    0.000000e+00
2.931363e-09    1.892360e-08    0.000000e+00
4.112768e-09    1.844251e-08    0.000000e+00
3.387051e-09    1.768995e-08    0.000000e+00
4.604608e-09    1.637699e-08    0.000000e+00
4.177454e-09    1.581823e-08    0.000000e+00
4.789240e-09    1.565259e-08    0.000000e+00
4.481214e-09    1.530728e-08    0.000000e+00
3.726506e-09    1.445648e-08    0.000000e+00
3.804476e-09    1.482416e-08    0.000000e+00
1.358303e-09    1.376570e-08    0.000000e+00
1.355853e-09    1.403345e-08    0.000000e+00
7.740637e-10    1.358661e-08    0.000000e+00
7.618091e-10    1.376392e-08    0.000000e+00
1.036392e-09    1.367153e-08    0.000000e+00
1.026952e-09    1.389342e-08    0.000000e+00
4.111862e-10    1.343688e-08    0.000000e+00
4.031538e-10    1.353459e-08    0.000000e+00
2.997346e-10    1.336910e-08    0.000000e+00
2.973132e-10    1.343259e-08    0.000000e+00
5.674183e-10    1.350894e-08    0.000000e+00
5.558763e-10    1.364461e-08    0.000000e+00
1.741107e-09    1.387138e-08    0.000000e+00
1.750154e-09    1.418351e-08    0.000000e+00
3.140069e-10    1.329828e-08    0.000000e+00
4.318780e-10    1.333315e-08    0.000000e+00
5.923375e-10    1.336871e-08    0.000000e+00
8.002628e-10    1.340628e-08    0.000000e+00
1.060040e-09    1.344803e-08    0.000000e+00
1.374735e-09    1.349714e-08    0.000000e+00
1.745071e-09    1.355781e-08    0.000000e+00
2.168201e-09    1.363544e-08    0.000000e+00
2.636284e-09    1.373654e-08    0.000000e+00
3.134873e-09    1.386872e-08    0.000000e+00
3.640993e-09    1.404081e-08    0.000000e+00
4.122031e-09    1.426085e-08    0.000000e+00
4.530753e-09    1.454235e-08    0.000000e+00
4.844914e-09    1.486510e-08    0.000000e+00
4.743330e-09    1.503931e-08    0.000000e+00
4.688650e-09    1.518200e-08    0.000000e+00
4.349553e-09    1.524055e-08    0.000000e+00
3.861549e-09    1.518569e-08    0.000000e+00
3.314244e-09    1.506172e-08    0.000000e+00
2.761265e-09    1.489356e-08    0.000000e+00
2.239047e-09    1.470173e-08    0.000000e+00
1.770076e-09    1.450116e-08    0.000000e+00
1.366064e-09    1.430240e-08    0.000000e+00
1.030824e-09    1.411232e-08    0.000000e+00
7.627609e-10    1.393479e-08    0.000000e+00
5.569776e-10    1.377136e-08    0.000000e+00
4.069783e-10    1.362190e-08    0.000000e+00
3.059980e-10    1.348505e-08    0.000000e+00
2.479871e-10    1.335872e-08    0.000000e+00
2.325436e-10    1.333710e-08    0.000000e+00
2.276771e-10    1.330435e-08    0.000000e+00
2.340086e-10    1.326349e-08    0.000000e+00
2.716045e-09    1.450537e-08    0.000000e+00
2.672522e-09    1.412692e-08    0.000000e+00
2.206818e-09    1.434190e-08    0.000000e+00
2.182039e-09    1.399096e-08    0.000000e+00
3.258801e-09    1.466861e-08    0.000000e+00
3.196169e-09    1.428129e-08    0.000000e+00
4.703631e-09    1.506602e-08    0.000000e+00
4.638474e-09    1.487377e-08    0.000000e+00
4.306720e-09    1.496106e-08    0.000000e+00
4.224741e-09    1.465098e-08    0.000000e+00
4.871134e-09    1.510224e-08    0.000000e+00
4.910907e-09    1.508396e-08    0.000000e+00
3.340679e-09    1.240435e-08    0.000000e+00
3.398599e-09    1.229622e-08    0.000000e+00
3.408464e-09    1.221556e-08    0.000000e+00
3.394019e-09    1.212109e-08    0.000000e+00
3.174752e-09    1.206983e-08    0.000000e+00
2.828680e-09    1.207148e-08    0.000000e+00
2.420992e-09    1.211945e-08    0.000000e+00
2.004263e-09    1.220036e-08    0.000000e+00
1.612994e-09    1.230192e-08    0.000000e+00
1.265976e-09    1.241500e-08    0.000000e+00
9.716556e-10    1.253312e-08    0.000000e+00
7.316210e-10    1.265216e-08    0.000000e+00
5.434246e-10    1.276996e-08    0.000000e+00
4.027965e-10    1.288594e-08    0.000000e+00
3.053222e-10    1.300080e-08    0.000000e+00
2.476447e-10    1.311621e-08    0.000000e+00
2.282656e-10    1.323457e-08    0.000000e+00
1.827769e-10    1.322247e-08    0.000000e+00
1.739440e-10    1.318235e-08    0.000000e+00
2.049787e-10    1.314440e-08    0.000000e+00
2.758452e-10    1.311010e-08    0.000000e+00
3.887853e-10    1.308064e-08    0.000000e+00
5.477658e-10    1.305652e-08    0.000000e+00
7.575366e-10    1.303698e-08    0.000000e+00
1.022255e-09    1.301942e-08    0.000000e+00
1.343586e-09    1.299865e-08    0.000000e+00
1.718245e-09    1.296619e-08    0.000000e+00
2.134842e-09    1.290935e-08    0.000000e+00
2.570766e-09    1.281131e-08    0.000000e+00
2.990606e-09    1.264572e-08    0.000000e+00
8.894877e-10    1.271000e-08    0.000000e+00
8.179665e-10    1.287799e-08    0.000000e+00
2.329097e-09    1.238310e-08    0.000000e+00
2.232972e-09    1.263843e-08    0.000000e+00
3.139716e-09    1.225481e-08    0.000000e+00
3.081183e-09    1.243151e-08    0.000000e+00
2.758516e-09    1.231139e-08    0.000000e+00
2.670981e-09    1.254595e-08    0.000000e+00
1.515017e-09    1.254186e-08    0.000000e+00
1.424933e-09    1.277153e-08    0.000000e+00
1.904902e-09    1.246077e-08    0.000000e+00
1.809186e-09    1.271115e-08    0.000000e+00
1.174540e-09    1.262525e-08    0.000000e+00
1.093095e-09    1.282575e-08    0.000000e+00
3.511197e-10    1.296842e-08    0.000000e+00
3.087159e-10    1.304372e-08    0.000000e+00
6.597734e-10    1.279554e-08    0.000000e+00
5.983792e-10    1.293088e-08    0.000000e+00
4.819133e-10    1.288164e-08    0.000000e+00
4.302778e-10    1.298590e-08    0.000000e+00
2.139996e-10    1.314632e-08    0.000000e+00
1.893064e-10    1.316822e-08    0.000000e+00
2.628675e-10    1.305637e-08    0.000000e+00
2.293199e-10    1.310452e-08    0.000000e+00
2.034376e-10    1.323941e-08    0.000000e+00
1.881115e-10    1.323479e-08    0.000000e+00
-5.158958e-14    -4.295117e-11    0.000000e+00
-5.775377e-12    -4.616835e-11    0.000000e+00
-1.275422e-11    -5.505660e-11    0.000000e+00
-2.240185e-11    -6.869905e-11    0.000000e+00
-3.662041e-11    -8.429254e-11    0.000000e+00
-5.831793e-11    -9.505143e-11    0.000000e+00
-9.286797e-11    -8.614491e-11    0.000000e+00
-1.501072e-10    -2.939108e-11    0.000000e+00
-2.541813e-10    1.296464e-10    0.000000e+00
-4.146265e-10    4.679641e-10    0.000000e+00
-8.008285e-10    1.163508e-09    0.000000e+00
-2.809614e-10    1.261844e-09    0.000000e+00
4.352643e-10    1.330014e-09    0.000000e+00
1.251224e-09    1.443936e-09    0.000000e+00
7.702471e-10    5.261807e-10    0.000000e+00
4.315731e-10    1.301426e-10    0.000000e+00
2.308492e-10    -3.015756e-11    0.000000e+00
1.150820e-10    -8.889632e-11    0.000000e+00
4.908490e-11    -1.017186e-10    0.000000e+00
1.403073e-11    -9.470250e-11    0.000000e+00
-1.913267e-12    -8.144198e-11    0.000000e+00
-6.403010e-12    -6.894228e-11    0.000000e+00
-4.577944e-12    -6.054447e-11    0.000000e+00
1.731106e-13    -5.772587e-11    0.000000e+00
9.033125e-14    -5.501167e-11    0.000000e+00
2.383557e-14    -5.087449e-11    0.000000e+00
2.960723e-11    -1.148121e-10    0.000000e+00
-1.363745e-11    -1.132972e-10    0.000000e+00
1.978682e-10    6.977366e-11    0.000000e+00
-6.969342e-11    7.607496e-11    0.000000e+00
3.011320e-10    4.272148e-10    0.000000e+00
-1.606995e-10    4.188624e-10    0.000000e+00
1.197562e-10    -6.786666e-11    0.000000e+00
-2.920698e-11    -6.536610e-11    0.000000e+00
6.462351e-11    -1.120607e-10    0.000000e+00
-1.719580e-11    -1.109854e-10    0.000000e+00
-2.069007e-13    -8.334932e-11    0.000000e+00
-9.727739e-12    -8.002254e-11    0.000000e+00
9.490008e-12    -1.010134e-10    0.000000e+00
-1.190639e-11    -9.847064e-11    0.000000e+00
-3.258940e-12    -6.818342e-11    0.000000e+00
-6.876267e-12    -6.439910e-11    0.000000e+00
-2.479405e-12    -5.837390e-11    0.000000e+00
-3.550522e-12    -5.436360e-11    0.000000e+00
-1.532166e-09    3.299617e-09    0.000000e+00
-1.414703e-09    5.512864e-09    0.000000e+00
-8.408434e-10    7.599514e-09    0.000000e+00
4.683930e-11    9.344511e-09    0.000000e+00
1.035984e-09    1.064554e-08    0.000000e+00
1.966276e-09    1.150507e-08    0.000000e+00
2.716652e-09    1.198368e-08    0.000000e+00
3.212703e-09    1.217459e-08    0.000000e+00
3.433356e-09    1.218647e-08    0.000000e+00
3.538675e-09    1.211137e-08    0.000000e+00
3.611806e-09    1.169905e-08    0.000000e+00
3.552267e-09    1.111490e-08    0.000000e+00
3.369335e-09    1.030766e-08    0.000000e+00
3.088042e-09    9.235916e-09    0.000000e+00
2.749401e-09    7.897582e-09    0.000000e+00
2.393318e-09    6.323727e-09    0.000000e+00
2.042541e-09    4.594631e-09    0.000000e+00
1.676873e-09    2.867849e-09    0.000000e+00
1.773724e-09    1.018640e-08    0.000000e+00
2.451538e-09    9.729306e-09    0.000000e+00
-2.141010e-10    5.163437e-09    0.000000e+00
8.790127e-10    4.858925e-09    0.000000e+00
-3.917715e-10    3.099764e-09    0.000000e+00
6.016586e-10    2.920662e-09    0.000000e+00
2.844956e-10    7.155391e-09    0.000000e+00
1.324199e-09    6.746102e-09    0.000000e+00
9.969770e-10    8.861906e-09    0.000000e+00
1.878380e-09    8.397478e-09    0.000000e+00
3.047967e-09    1.170460e-08    0.000000e+00
3.334507e-09    1.141462e-08    0.000000e+00
2.489059e-09    1.111853e-08    0.000000e+00
2.959111e-09    1.072468e-08    0.000000e+00
3.394807e-09    1.202354e-08    0.000000e+00
3.537491e-09    1.185896e-08    0.000000e+00
3.510795e-09    1.216564e-08    0.000000e+00
3.555000e-09    1.213023e-08    0.000000e+00
0.000000e+00    0.000000e+00    0.000000e+00
0.000000e+00    0.000000e+00    0.000000e+00
0.000000e+00    0.000000e+00    0.000000e+00
0.000000e+00    0.000000e+00    0.000000e+00
0.000000e+00    0.000000e+00    0.000000e+00
0.000000e+00    0.000000e+00    0.000000e+00
0.000000e+00    0.000000e+00    0.000000e+00
0.000000e+00    0.000000e+00    0.000000e+00
0.000000e+00    0.000000e+00    0.000000e+00
0.000000e+00    0.000000e+00    0.000000e+00
0.000000e+00    0.000000e+00    0.000000e+00
-9.111257e-11    1.726449e-10    0.000000e+00
-2.192031e-10    3.725363e-10    0.000000e+00
-3.704868e-10    6.023725e-10    0.000000e+00
-9.397837e-14    -3.218177e-11    0.000000e+00
-9.308459e-14    -1.987351e-11    0.000000e+00
-4.883577e-14    -8.422118e-12    0.000000e+00
-8.186067e-11    -6.537431e-11    0.000000e+00
-7.807729e-11    -3.422873e-11    0.000000e+00
-4.839028e-11    -1.009688e-11    0.000000e+00
-2.858883e-10    1.244952e-10    0.000000e+00
-2.320902e-10    9.697607e-11    0.000000e+00
-1.365603e-10    4.984184e-11    0.000000e+00
-2.632374e-10    2.406179e-10    0.000000e+00
-3.617050e-10    3.498074e-10    0.000000e+00
-1.373653e-10    1.093012e-10    0.000000e+00
-1.211166e-10    -2.308258e-11    0.000000e+00
-1.749143e-10    1.342305e-11    0.000000e+00
-1.290441e-10    -5.371504e-11    0.000000e+00
-1.940948e-10    -3.092656e-12    0.000000e+00
-7.504186e-11    -3.067130e-12    0.000000e+00
-1.074820e-10    1.467489e-11    0.000000e+00
-2.947259e-11    -5.006319e-11    0.000000e+00
-2.767901e-11    -2.922846e-11    0.000000e+00
-1.678982e-11    -1.110586e-11    0.000000e+00
-4.781436e-11    -3.368327e-11    0.000000e+00
-5.028408e-11    -6.011758e-11    0.000000e+00
-2.936647e-11    -1.172463e-11    0.000000e+00
-6.340956e-12    -2.123470e-11    0.000000e+00
-1.478727e-11    -2.453167e-11    0.000000e+00
-6.978647e-12    -3.455524e-11    0.000000e+00
-1.601628e-11    -4.076283e-11    0.000000e+00
-3.743328e-12    -8.904304e-12    0.000000e+00
-8.841243e-12    -9.893839e-12    0.000000e+00
2.055103e-09    3.112352e-08    0.000000e+00
2.629767e-09    3.234661e-08    0.000000e+00
2.925423e-09    3.044626e-08    0.000000e+00
6.175852e-10    3.079486e-08    0.000000e+00
1.165716e-09    3.203831e-08    0.000000e+00
1.484615e-09    3.007098e-08    0.000000e+00
-8.073270e-10    3.044320e-08    0.000000e+00
-2.724705e-10    3.170430e-08    0.000000e+00
7.820639e-11    2.968115e-08    0.000000e+00
-1.713531e-09    3.133532e-08    0.000000e+00
-1.323100e-09    2.926691e-08    0.000000e+00
-2.057891e-09    3.352152e-08    0.000000e+00
-1.172577e-09    3.261374e-08    0.000000e+00
-2.332413e-09    3.572575e-08    0.000000e+00
-1.479852e-09    3.480953e-08    0.000000e+00
-2.530382e-09    3.792836e-08    0.000000e+00
-1.720613e-09    3.701358e-08    0.000000e+00
-2.644178e-09    4.010608e-08    0.000000e+00
-1.888751e-09    3.920495e-08    0.000000e+00
-2.665446e-09    4.223051e-08    0.000000e+00
-1.977937e-09    4.135819e-08    0.000000e+00
-2.585290e-09    4.426655e-08    0.000000e+00
-1.981649e-09    4.344205e-08    0.000000e+00
-2.394740e-09    4.617084e-08    0.000000e+00
-1.893517e-09    4.541781e-08    0.000000e+00
-2.085073e-09    4.789080e-08    0.000000e+00
-1.707580e-09    4.723819e-08    0.000000e+00
-1.650519e-09    4.936272e-08    0.000000e+00
-1.419991e-09    4.884429e-08    0.000000e+00
-1.089612e-09    5.052572e-08    0.000000e+00
-1.027235e-09    5.017091e-08    0.000000e+00
-4.514477e-10    5.143938e-08    0.000000e+00
-5.370187e-10    5.117540e-08    0.000000e+00
6.064721e-11    5.220651e-08    0.000000e+00
1.017831e-11    5.180156e-08    0.000000e+00
-1.607482e-10    5.162209e-08    0.000000e+00
-5.115562e-12    5.170125e-08    0.000000e+00
1.041521e-12    5.162384e-08    0.000000e+00
1.853816e-10    5.151420e-08    0.000000e+00
5.014182e-10    5.091267e-08    0.000000e+00
1.525950e-10    5.134731e-08    0.000000e+00
7.358160e-10    4.984447e-08    0.000000e+00
2.638250e-10    5.045652e-08    0.000000e+00
9.179911e-10    4.844703e-08    0.000000e+00
3.468912e-10    4.918521e-08    0.000000e+00
1.078165e-09    4.680043e-08    0.000000e+00
4.252274e-10    4.762874e-08    0.000000e+00
1.235294e-09    4.496659e-08    0.000000e+00
5.155277e-10    4.585667e-08    0.000000e+00
1.402754e-09    4.299667e-08    0.000000e+00
6.289700e-10    4.392664e-08    0.000000e+00
1.590162e-09    4.093271e-08    0.000000e+00
7.733279e-10    4.188515e-08    0.000000e+00
1.803989e-09    3.880939e-08    0.000000e+00
9.535592e-10    3.977027e-08    0.000000e+00
2.047965e-09    3.665572e-08    0.000000e+00
1.172308e-09    3.761335e-08    0.000000e+00
2.323456e-09    3.449514e-08    0.000000e+00
1.430268e-09    3.544027e-08    0.000000e+00
1.726362e-09    3.327139e-08    0.000000e+00
-6.830621e-10    4.372590e-08    0.000000e+00
-1.314227e-09    4.256844e-08    0.000000e+00
-1.314794e-09    4.459791e-08    0.000000e+00
2.230299e-11    4.282065e-08    0.000000e+00
-6.442137e-11    4.482810e-08    0.000000e+00
-2.798500e-10    3.733796e-08    0.000000e+00
-8.777974e-10    3.608482e-08    0.000000e+00
-1.091487e-09    3.828055e-08    0.000000e+00
5.702808e-10    3.639217e-08    0.000000e+00
3.393049e-10    3.857140e-08    0.000000e+00
2.726063e-10    3.295882e-08    0.000000e+00
-6.021966e-10    3.388678e-08    0.000000e+00
8.476781e-10    3.420843e-08    0.000000e+00
-2.977063e-11    3.514515e-08    0.000000e+00
-4.738494e-10    3.951686e-08    0.000000e+00
-1.238450e-09    4.045110e-08    0.000000e+00
1.565116e-10    4.072357e-08    0.000000e+00
-6.089327e-10    4.165652e-08    0.000000e+00
-5.393696e-10    4.908065e-08    0.000000e+00
-1.078967e-09    4.821149e-08    0.000000e+00
-8.415117e-10    4.967794e-08    0.000000e+00
-1.100327e-10    4.839423e-08    0.000000e+00
-8.276765e-11    4.983530e-08    0.000000e+00
-6.953506e-10    4.568653e-08    0.000000e+00
-1.236981e-09    4.649687e-08    0.000000e+00
-1.067064e-10    4.670362e-08    0.000000e+00
-6.465055e-10    4.749155e-08    0.000000e+00
-3.783858e-10    5.038531e-08    0.000000e+00
-5.215584e-10    5.082778e-08    0.000000e+00
-3.846772e-11    5.094833e-08    0.000000e+00
-1.754023e-10    5.132204e-08    0.000000e+00
4.377626e-09    1.501047e-08    0.000000e+00
4.606537e-09    1.503155e-08    0.000000e+00
4.665065e-09    1.498776e-08    0.000000e+00
4.031590e-09    1.523645e-08    0.000000e+00
4.326303e-09    1.519080e-08    0.000000e+00
3.572492e-09    1.572022e-08    0.000000e+00
3.987907e-09    1.560478e-08    0.000000e+00
3.006538e-09    1.653138e-08    0.000000e+00
3.544974e-09    1.635095e-08    0.000000e+00
2.412397e-09    1.760132e-08    0.000000e+00
3.045495e-09    1.735455e-08    0.000000e+00
1.810321e-09    1.887960e-08    0.000000e+00
2.518438e-09    1.856406e-08    0.000000e+00
1.215025e-09    2.033077e-08    0.000000e+00
1.982870e-09    1.994362e-08    0.000000e+00
6.383974e-10    2.192478e-08    0.000000e+00
1.452300e-09    2.146457e-08    0.000000e+00
8.971449e-11    2.363602e-08    0.000000e+00
9.376637e-10    2.310256e-08    0.000000e+00
-4.237696e-10    2.544250e-08    0.000000e+00
4.475367e-10    2.483646e-08    0.000000e+00
-8.963309e-10    2.732520e-08    0.000000e+00
-1.127354e-11    2.664812e-08    0.000000e+00
-4.329308e-10    2.852172e-08    0.000000e+00
3.203501e-09    2.879660e-08    0.000000e+00
2.341669e-09    2.940269e-08    0.000000e+00
3.491744e-09    2.718043e-08    0.000000e+00
2.651825e-09    2.771634e-08    0.000000e+00
3.784685e-09    2.560596e-08    0.000000e+00
2.974888e-09    2.607134e-08    0.000000e+00
4.075647e-09    2.408228e-08    0.000000e+00
3.304440e-09    2.447779e-08    0.000000e+00
4.356436e-09    2.261959e-08    0.000000e+00
3.633045e-09    2.294668e-08    0.000000e+00
4.617206e-09    2.122957e-08    0.000000e+00
3.951612e-09    2.149057e-08    0.000000e+00
4.846079e-09    1.992516e-08    0.000000e+00
4.249149e-09    2.012367e-08    0.000000e+00
5.029791e-09    1.872278e-08    0.000000e+00
4.512506e-09    1.886303e-08    0.000000e+00
5.151650e-09    1.763367e-08    0.000000e+00
4.726249e-09    1.772747e-08    0.000000e+00
5.208440e-09    1.669599e-08    0.000000e+00
4.876722e-09    1.674491e-08    0.000000e+00
5.139722e-09    1.581371e-08    0.000000e+00
4.953118e-09    1.588378e-08    0.000000e+00
5.004261e-09    1.531160e-08    0.000000e+00
4.948757e-09    1.512253e-08    0.000000e+00
4.797923e-09    1.516554e-08    0.000000e+00
4.859634e-09    1.539050e-08    0.000000e+00
4.971881e-09    1.518523e-08    0.000000e+00
4.616596e-09    1.518069e-08    0.000000e+00
4.831026e-09    1.509627e-08    0.000000e+00
2.943091e-09    2.068918e-08    0.000000e+00
3.257295e-09    2.181026e-08    0.000000e+00
3.619033e-09    2.037875e-08    0.000000e+00
2.224494e-09    2.105183e-08    0.000000e+00
2.699305e-09    1.960045e-08    0.000000e+00
1.696467e-09    2.544955e-08    0.000000e+00
2.151817e-09    2.659833e-08    0.000000e+00
2.514540e-09    2.493447e-08    0.000000e+00
8.577422e-10    2.602240e-08    0.000000e+00
1.294791e-09    2.428154e-08    0.000000e+00
9.417921e-10    2.896797e-08    0.000000e+00
1.804637e-09    2.831346e-08    0.000000e+00
4.485684e-10    2.782647e-08    0.000000e+00
1.306797e-09    2.718332e-08    0.000000e+00
2.104224e-09    2.377940e-08    0.000000e+00
2.885777e-09    2.333397e-08    0.000000e+00
1.753029e-09    2.261890e-08    0.000000e+00
2.522772e-09    2.218714e-08    0.000000e+00
4.086681e-09    1.696952e-08    0.000000e+00
4.261211e-09    1.786838e-08    0.000000e+00
4.508716e-09    1.683648e-08    0.000000e+00
3.604823e-09    1.714342e-08    0.000000e+00
4.001658e-09    1.619915e-08    0.000000e+00
3.353913e-09    1.930447e-08    0.000000e+00
3.958577e-09    1.905712e-08    0.000000e+00
3.164837e-09    1.828766e-08    0.000000e+00
3.741693e-09    1.805448e-08    0.000000e+00
4.380617e-09    1.607339e-08    0.000000e+00
4.706266e-09    1.598146e-08    0.000000e+00
4.344108e-09    1.552661e-08    0.000000e+00
4.628700e-09    1.545433e-08    0.000000e+00
2.294320e-10    1.328470e-08    0.000000e+00
2.695483e-10    1.328088e-08    0.000000e+00
2.028389e-10    1.324292e-08    0.000000e+00
2.287412e-10    1.332194e-08    0.000000e+00
2.590977e-10    1.333629e-08    0.000000e+00
2.025781e-10    1.326917e-08    0.000000e+00
2.390113e-10    1.334946e-08    0.000000e+00
2.601295e-10    1.338404e-08    0.000000e+00
2.128473e-10    1.328758e-08    0.000000e+00
2.719522e-10    1.342073e-08    0.000000e+00
2.330946e-10    1.329573e-08    0.000000e+00
3.507664e-10    1.355203e-08    0.000000e+00
3.003360e-10    1.346037e-08    0.000000e+00
4.754367e-10    1.369497e-08    0.000000e+00
4.036322e-10    1.357973e-08    0.000000e+00
6.524724e-10    1.385131e-08    0.000000e+00
5.548734e-10    1.370925e-08    0.000000e+00
8.886485e-10    1.402187e-08    0.000000e+00
7.606357e-10    1.385021e-08    0.000000e+00
1.189850e-09    1.420600e-08    0.000000e+00
1.027201e-09    1.400311e-08    0.000000e+00
1.559561e-09    1.440107e-08    0.000000e+00
1.359336e-09    1.416735e-08    0.000000e+00
1.996961e-09    1.460179e-08    0.000000e+00
1.758713e-09    1.434081e-08    0.000000e+00
2.494624e-09    1.479955e-08    0.000000e+00
2.221988e-09    1.451934e-08    0.000000e+00
3.035807e-09    1.498170e-08    0.000000e+00
2.738483e-09    1.469624e-08    0.000000e+00
3.591633e-09    1.513065e-08    0.000000e+00
3.287627e-09    1.486167e-08    0.000000e+00
4.116894e-09    1.522364e-08    0.000000e+00
3.835948e-09    1.500221e-08    0.000000e+00
4.548300e-09    1.522689e-08    0.000000e+00
4.333920e-09    1.509941e-08    0.000000e+00
4.760272e-09    1.511338e-08    0.000000e+00
4.706918e-09    1.513194e-08    0.000000e+00
4.811462e-09    1.507950e-08    0.000000e+00
4.691004e-09    1.469037e-08    0.000000e+00
4.892700e-09    1.503408e-08    0.000000e+00
4.340440e-09    1.439521e-08    0.000000e+00
4.584885e-09    1.471897e-08    0.000000e+00
3.886679e-09    1.414369e-08    0.000000e+00
4.175241e-09    1.446977e-08    0.000000e+00
3.388913e-09    1.394925e-08    0.000000e+00
3.683296e-09    1.425565e-08    0.000000e+00
2.882957e-09    1.379812e-08    0.000000e+00
3.164552e-09    1.407929e-08    0.000000e+00
2.397365e-09    1.368255e-08    0.000000e+00
2.652867e-09    1.393375e-08    0.000000e+00
1.950397e-09    1.359408e-08    0.000000e+00
2.173346e-09    1.381398e-08    0.000000e+00
1.553031e-09    1.352569e-08    0.000000e+00
1.741196e-09    1.371470e-08    0.000000e+00
1.210413e-09    1.347141e-08    0.000000e+00
1.364608e-09    1.363125e-08    0.000000e+00
9.234389e-10    1.342644e-08    0.000000e+00
1.046343e-09    1.355959e-08    0.000000e+00
6.900746e-10    1.338712e-08    0.000000e+00
7.853645e-10    1.349636e-08    0.000000e+00
5.064779e-10    1.335078e-08    0.000000e+00
5.781718e-10    1.343894e-08    0.000000e+00
3.679259e-10    1.331568e-08    0.000000e+00
4.199246e-10    1.338534e-08    0.000000e+00
3.053583e-10    1.333425e-08    0.000000e+00
1.744190e-09    1.402684e-08    0.000000e+00
1.544886e-09    1.410730e-08    0.000000e+00
1.971122e-09    1.426181e-08    0.000000e+00
1.542154e-09    1.381693e-08    0.000000e+00
1.954689e-09    1.392924e-08    0.000000e+00
5.600424e-10    1.357748e-08    0.000000e+00
4.732609e-10    1.358852e-08    0.000000e+00
6.517955e-10    1.370305e-08    0.000000e+00
4.833551e-10    1.347230e-08    0.000000e+00
6.640907e-10    1.354698e-08    0.000000e+00
2.970846e-10    1.340195e-08    0.000000e+00
3.447509e-10    1.348267e-08    0.000000e+00
3.502179e-10    1.340252e-08    0.000000e+00
4.056473e-10    1.348667e-08    0.000000e+00
1.029995e-09    1.378252e-08    0.000000e+00
8.866445e-10    1.382737e-08    0.000000e+00
1.183243e-09    1.396214e-08    0.000000e+00
8.979791e-10    1.362804e-08    0.000000e+00
1.189742e-09    1.371731e-08    0.000000e+00
7.662722e-10    1.367567e-08    0.000000e+00
1.355462e-09    1.389926e-08    0.000000e+00
3.767285e-09    1.464304e-08    0.000000e+00
3.533727e-09    1.474788e-08    0.000000e+00
4.064442e-09    1.489544e-08    0.000000e+00
3.462587e-09    1.436607e-08    0.000000e+00
3.982815e-09    1.455119e-08    0.000000e+00
2.693767e-09    1.431585e-08    0.000000e+00
2.455808e-09    1.442326e-08    0.000000e+00
2.984853e-09    1.458738e-08    0.000000e+00
2.421908e-09    1.405669e-08    0.000000e+00
2.931606e-09    1.420161e-08    0.000000e+00
2.193330e-09    1.416578e-08    0.000000e+00
3.227881e-09    1.447584e-08    0.000000e+00
4.678431e-09    1.498213e-08    0.000000e+00
4.524165e-09    1.501914e-08    0.000000e+00
4.823934e-09    1.509594e-08    0.000000e+00
4.444587e-09    1.475825e-08    0.000000e+00
4.801460e-09    1.498200e-08    0.000000e+00
4.269416e-09    1.481357e-08    0.000000e+00
4.908189e-09    1.510981e-08    0.000000e+00
3.377992e-09    1.234248e-08    0.000000e+00
3.176531e-09    1.253993e-08    0.000000e+00
3.452459e-09    1.227083e-08    0.000000e+00
3.407918e-09    1.225530e-08    0.000000e+00
3.255717e-09    1.236762e-08    0.000000e+00
3.496996e-09    1.222313e-08    0.000000e+00
3.403269e-09    1.217185e-08    0.000000e+00
3.292280e-09    1.223533e-08    0.000000e+00
3.485726e-09    1.219805e-08    0.000000e+00
3.303251e-09    1.209462e-08    0.000000e+00
3.445078e-09    1.215913e-08    0.000000e+00
3.014064e-09    1.206611e-08    0.000000e+00
3.159827e-09    1.216484e-08    0.000000e+00
2.629057e-09    1.209064e-08    0.000000e+00
2.795192e-09    1.219440e-08    0.000000e+00
2.211153e-09    1.215661e-08    0.000000e+00
2.375296e-09    1.225413e-08    0.000000e+00
1.803987e-09    1.224918e-08    0.000000e+00
1.953971e-09    1.233292e-08    0.000000e+00
1.433229e-09    1.235747e-08    0.000000e+00
1.562909e-09    1.242379e-08    0.000000e+00
1.112006e-09    1.247372e-08    0.000000e+00
1.218939e-09    1.252160e-08    0.000000e+00
8.449405e-10    1.259268e-08    0.000000e+00
9.292033e-10    1.262270e-08    0.000000e+00
6.312892e-10    1.271127e-08    0.000000e+00
6.943809e-10    1.272476e-08    0.000000e+00
4.674533e-10    1.282815e-08    0.000000e+00
5.114474e-10    1.282658e-08    0.000000e+00
3.489111e-10    1.294342e-08    0.000000e+00
3.758305e-10    1.292794e-08    0.000000e+00
2.716531e-10    1.305829e-08    0.000000e+00
2.830279e-10    1.302942e-08    0.000000e+00
2.331748e-10    1.317484e-08    0.000000e+00
2.297608e-10    1.313227e-08    0.000000e+00
2.147296e-10    1.323824e-08    0.000000e+00
1.732793e-10    1.320222e-08    0.000000e+00
1.842002e-10    1.322943e-08    0.000000e+00
1.845392e-10    1.316301e-08    0.000000e+00
1.804713e-10    1.317619e-08    0.000000e+00
2.353435e-10    1.312671e-08    0.000000e+00
2.160111e-10    1.312551e-08    0.000000e+00
3.268421e-10    1.309472e-08    0.000000e+00
2.910930e-10    1.307813e-08    0.000000e+00
4.622314e-10    1.306794e-08    0.000000e+00
4.082495e-10    1.303461e-08    0.000000e+00
6.460133e-10    1.304631e-08    0.000000e+00
5.716816e-10    1.299506e-08    0.000000e+00
8.828437e-10    1.302825e-08    0.000000e+00
7.862811e-10    1.295871e-08    0.000000e+00
1.175907e-09    1.300993e-08    0.000000e+00
1.056211e-09    1.292340e-08    0.000000e+00
1.524733e-09    1.298463e-08    0.000000e+00
1.382961e-09    1.288513e-08    0.000000e+00
1.922450e-09    1.294185e-08    0.000000e+00
1.762839e-09    1.283742e-08    0.000000e+00
2.352232e-09    1.286689e-08    0.000000e+00
2.183788e-09    1.277085e-08    0.000000e+00
2.785058e-09    1.273960e-08    0.000000e+00
2.622034e-09    1.267262e-08    0.000000e+00
3.040031e-09    1.252938e-08    0.000000e+00
8.523861e-10    1.279509e-08    0.000000e+00
1.024985e-09    1.266749e-08    0.000000e+00
7.678789e-10    1.275269e-08    0.000000e+00
9.484185e-10    1.285195e-08    0.000000e+00
7.014400e-10    1.290425e-08    0.000000e+00
2.281463e-09    1.251023e-08    0.000000e+00
2.545851e-09    1.234651e-08    0.000000e+00
2.114199e-09    1.242143e-08    0.000000e+00
2.452346e-09    1.259540e-08    0.000000e+00
2.017395e-09    1.267685e-08    0.000000e+00
3.114176e-09    1.234065e-08    0.000000e+00
2.958797e-09    1.228215e-08    0.000000e+00
2.883231e-09    1.249241e-08    0.000000e+00
2.716662e-09    1.242686e-08    0.000000e+00
1.468980e-09    1.265745e-08    0.000000e+00
1.704488e-09    1.250097e-08    0.000000e+00
1.338050e-09    1.258334e-08    0.000000e+00
1.611074e-09    1.274249e-08    0.000000e+00
1.252029e-09    1.279914e-08    0.000000e+00
1.856581e-09    1.258623e-08    0.000000e+00
1.132561e-09    1.272650e-08    0.000000e+00
3.287378e-10    1.300708e-08    0.000000e+00
4.109364e-10    1.292491e-08    0.000000e+00
3.019144e-10    1.301220e-08    0.000000e+00
3.639783e-10    1.301445e-08    0.000000e+00
2.639659e-10    1.307375e-08    0.000000e+00
6.277570e-10    1.286430e-08    0.000000e+00
5.646506e-10    1.283851e-08    0.000000e+00
5.081981e-10    1.295808e-08    0.000000e+00
4.548451e-10    1.293483e-08    0.000000e+00
2.005009e-10    1.315828e-08    0.000000e+00
2.336312e-10    1.310102e-08    0.000000e+00
2.039032e-10    1.319238e-08    0.000000e+00
2.044810e-10    1.313601e-08    0.000000e+00
1.837940e-10    1.320114e-08    0.000000e+00
2.449537e-10    1.308144e-08    0.000000e+00
1.945472e-10    1.323819e-08    0.000000e+00
-2.810408e-12    -4.380853e-11    0.000000e+00
-1.529624e-14    -4.741541e-11    0.000000e+00
-7.381032e-14    -3.788624e-11    0.000000e+00
-9.013611e-12    -4.991838e-11    0.000000e+00
-4.646027e-12    -5.081950e-11    0.000000e+00
-6.550607e-12    -4.070962e-11    0.000000e+00
-1.711462e-11    -6.138937e-11    0.000000e+00
-9.809115e-12    -6.044540e-11    0.000000e+00
-1.482237e-11    -4.833725e-11    0.000000e+00
-2.875302e-11    -7.656443e-11    0.000000e+00
-1.615167e-11    -7.536126e-11    0.000000e+00
-2.685283e-11    -5.992166e-11    0.000000e+00
-4.618785e-11    -9.101318e-11    0.000000e+00
-2.460520e-11    -9.276435e-11    0.000000e+00
-4.517694e-11    -7.291001e-11    0.000000e+00
-7.341006e-11    -9.465154e-11    0.000000e+00
-3.699979e-11    -1.060514e-10    0.000000e+00
-7.332489e-11    -8.089153e-11    0.000000e+00
-1.171270e-10    -6.678986e-11    0.000000e+00
-5.735210e-11    -1.008358e-10    0.000000e+00
-1.161551e-10    -7.072224e-11    0.000000e+00
-1.947011e-10    3.080222e-11    0.000000e+00
-9.644109e-11    -5.008726e-11    0.000000e+00
-1.825093e-10    -1.465025e-11    0.000000e+00
-3.212394e-10    2.630765e-10    0.000000e+00
-1.727150e-10    1.009015e-10    0.000000e+00
-2.802412e-10    1.265568e-10    0.000000e+00
-5.809284e-10    7.207377e-10    0.000000e+00
-3.339238e-10    4.442682e-10    0.000000e+00
-4.348910e-10    4.277082e-10    0.000000e+00
-5.776045e-10    1.195470e-09    0.000000e+00
-1.262409e-09    2.270259e-09    0.000000e+00
-5.126151e-10    8.536731e-10    0.000000e+00
6.192302e-11    1.296984e-09    0.000000e+00
-2.292281e-10    7.328695e-10    0.000000e+00
-3.102318e-10    2.074665e-09    0.000000e+00
8.290398e-10    1.374097e-09    0.000000e+00
3.713039e-10    7.856765e-10    0.000000e+00
5.223328e-10    2.051830e-09    0.000000e+00
1.005205e-09    8.986728e-10    0.000000e+00
1.489076e-09    2.089388e-09    0.000000e+00
5.815487e-10    2.841679e-10    0.000000e+00
5.506243e-10    4.646803e-10    0.000000e+00
3.174099e-10    3.196139e-11    0.000000e+00
3.280050e-10    9.131940e-11    0.000000e+00
1.649502e-10    -6.745443e-11    0.000000e+00
1.847588e-10    -5.325203e-11    0.000000e+00
7.711879e-11    -9.899792e-11    0.000000e+00
9.621367e-11    -1.028783e-10    0.000000e+00
2.848256e-11    -9.962176e-11    0.000000e+00
4.369239e-11    -1.095480e-10    0.000000e+00
4.163127e-12    -8.830088e-11    0.000000e+00
1.466370e-11    -9.852870e-11    0.000000e+00
-5.263957e-12    -7.482349e-11    0.000000e+00
7.924089e-13    -8.269876e-11    0.000000e+00
-6.065504e-12    -6.410768e-11    0.000000e+00
-3.749008e-12    -6.865203e-11    0.000000e+00
-2.476545e-12    -5.835213e-11    0.000000e+00
-3.029015e-12    -5.943764e-11    0.000000e+00
1.140678e-13    -5.631055e-11    0.000000e+00
5.763528e-14    -5.331361e-11    0.000000e+00
-1.359124e-12    -5.584153e-11    0.000000e+00
-1.798438e-12    -5.175281e-11    0.000000e+00
9.518809e-12    -1.161787e-10    0.000000e+00
4.492093e-11    -1.166789e-10    0.000000e+00
1.794858e-11    -1.089838e-10    0.000000e+00
-1.478240e-11    -1.154626e-10    0.000000e+00
-1.272086e-11    -1.069450e-10    0.000000e+00
6.040672e-11    6.559919e-11    0.000000e+00
2.456638e-10    2.063092e-10    0.000000e+00
1.559104e-10    -1.669763e-11    0.000000e+00
-1.049930e-10    2.125239e-10    0.000000e+00
-4.357432e-11    -1.039764e-11    0.000000e+00
5.758174e-11    4.121692e-10    0.000000e+00
4.548511e-11    -7.176986e-11    0.000000e+00
8.936997e-11    -9.761486e-11    0.000000e+00
-2.102631e-11    -9.590421e-11    0.000000e+00
2.530200e-11    -1.147168e-10    0.000000e+00
-4.067624e-12    -8.259103e-11    0.000000e+00
3.573680e-12    -9.213894e-11    0.000000e+00
-2.391526e-12    -7.519957e-11    0.000000e+00
-1.088933e-11    -8.916160e-11    0.000000e+00
-8.375364e-12    -7.160462e-11    0.000000e+00
6.017814e-14    -1.011267e-10    0.000000e+00
-4.499560e-12    -6.688448e-11    0.000000e+00
-3.222560e-12    -6.249605e-11    0.000000e+00
-5.257881e-12    -5.857272e-11    0.000000e+00
-2.743155e-12    -5.679000e-11    0.000000e+00
-1.505344e-09    4.419153e-09    0.000000e+00
-9.082097e-10    3.179321e-09    0.000000e+00
-1.144602e-09    6.575224e-09    0.000000e+00
-8.036676e-10    5.333529e-09    0.000000e+00
-3.929592e-10    8.510283e-09    0.000000e+00
-2.639187e-10    7.371829e-09    0.000000e+00
5.620070e-10    1.003787e-08    0.000000e+00
5.301284e-10    9.101730e-09    0.000000e+00
1.533777e-09    1.111566e-08    0.000000e+00
1.411207e-09    1.041628e-08    0.000000e+00
2.380567e-09    1.177736e-08    0.000000e+00
2.232365e-09    1.131374e-08    0.000000e+00
3.004796e-09    1.210245e-08    0.000000e+00
2.886023e-09    1.184705e-08    0.000000e+00
3.360285e-09    1.219431e-08    0.000000e+00
3.306880e-09    1.210240e-08    0.000000e+00
3.474715e-09    1.217952e-08    0.000000e+00
3.590803e-09    1.192070e-08    0.000000e+00
3.556884e-09    1.211665e-08    0.000000e+00
3.599988e-09    1.142537e-08    0.000000e+00
3.585867e-09    1.177766e-08    0.000000e+00
3.480403e-09    1.073198e-08    0.000000e+00
3.454150e-09    1.126724e-08    0.000000e+00
3.249434e-09    9.793372e-09    0.000000e+00
3.172386e-09    1.052251e-08    0.000000e+00
2.940102e-09    8.586074e-09    0.000000e+00
2.772768e-09    9.492183e-09    0.000000e+00
2.593934e-09    7.123656e-09    0.000000e+00
2.309210e-09    8.158400e-09    0.000000e+00
2.244463e-09    5.459450e-09    0.000000e+00
1.844724e-09    6.543904e-09    0.000000e+00
1.893817e-09    3.707776e-09    0.000000e+00
1.434851e-09    4.729516e-09    0.000000e+00
1.104662e-09    2.886095e-09    0.000000e+00
2.116641e-09    9.961443e-09    0.000000e+00
1.405157e-09    9.561926e-09    0.000000e+00
2.160304e-09    1.068856e-08    0.000000e+00
2.185932e-09    9.094172e-09    0.000000e+00
2.731100e-09    1.025709e-08    0.000000e+00
3.299892e-10    5.008098e-09    0.000000e+00
-3.236885e-10    4.107010e-09    0.000000e+00
2.610667e-11    6.172194e-09    0.000000e+00
7.404153e-10    3.878123e-09    0.000000e+00
1.107579e-09    5.815702e-09    0.000000e+00
1.094666e-10    2.994608e-09    0.000000e+00
8.050290e-10    6.950160e-09    0.000000e+00
6.473926e-10    8.040388e-09    0.000000e+00
1.615487e-09    7.597588e-09    0.000000e+00
1.439658e-09    8.632457e-09    0.000000e+00
3.197361e-09    1.156221e-08    0.000000e+00
2.802091e-09    1.144150e-08    0.000000e+00
3.255593e-09    1.188602e-08    0.000000e+00
3.174727e-09    1.109564e-08    0.000000e+00
3.463465e-09    1.165701e-08    0.000000e+00
2.729451e-09    1.092512e-08    0.000000e+00
3.472321e-09    1.194265e-08    0.000000e+00
3.484328e-09    1.210848e-08    0.000000e+00
3.571093e-09    1.200903e-08    0.000000e+00
3.538436e-09    1.214819e-08    0.000000e+00
0.000000e+00    0.000000e+00    0.000000e+00
-2.238361e-14    -3.768097e-12    0.000000e+00
0.000000e+00    0.000000e+00    0.000000e+00
-1.918993e-12    -3.934424e-12    0.000000e+00
0.000000e+00    0.000000e+00    0.000000e+00
-4.567996e-12    -4.231104e-12    0.000000e+00
0.000000e+00    0.000000e+00    0.000000e+00
-8.764114e-12    -4.492879e-12    0.000000e+00
0.000000e+00    0.000000e+00    0.000000e+00
-1.547352e-11    -4.310122e-12    0.000000e+00
0.000000e+00    0.000000e+00    0.000000e+00
-2.574565e-11    -2.901569e-12    0.000000e+00
0.000000e+00    0.000000e+00    0.000000e+00
-4.026704e-11    1.124346e-12    0.000000e+00
0.000000e+00    0.000000e+00    0.000000e+00
-5.818009e-11    9.887849e-12    0.000000e+00
0.000000e+00    0.000000e+00    0.000000e+00
-7.447766e-11    2.597275e-11    0.000000e+00
0.000000e+00    0.000000e+00    0.000000e+00
-7.746252e-11    5.028746e-11    0.000000e+00
-3.511632e-11    8.225820e-11    0.000000e+00
-1.513864e-10    2.684040e-10    0.000000e+00
-1.237409e-10    1.432284e-10    0.000000e+00
-2.754945e-10    4.751010e-10    0.000000e+00
-2.449150e-10    3.134638e-10    0.000000e+00
-4.176119e-10    5.331996e-10    0.000000e+00
-9.340198e-14    -2.607746e-11    0.000000e+00
-3.347413e-12    -3.285937e-11    0.000000e+00
-7.062248e-14    -1.389731e-11    0.000000e+00
-3.019284e-12    -2.029867e-11    0.000000e+00
-1.772772e-12    -8.624439e-12    0.000000e+00
-8.349140e-11    -4.940971e-11    0.000000e+00
-1.031785e-10    -6.282212e-11    0.000000e+00
-6.440984e-11    -6.394662e-11    0.000000e+00
-6.614636e-11    -2.080098e-11    0.000000e+00
-9.797866e-11    -3.088838e-11    0.000000e+00
-6.145650e-11    -3.485369e-11    0.000000e+00
-6.075416e-11    -7.466116e-12    0.000000e+00
-3.792362e-11    -1.135598e-11    0.000000e+00
-2.636432e-10    1.132524e-10    0.000000e+00
-3.306362e-10    2.320811e-10    0.000000e+00
-2.375484e-10    4.948039e-11    0.000000e+00
-1.887429e-10    7.501194e-11    0.000000e+00
-2.514838e-10    1.588962e-10    0.000000e+00
-2.048354e-10    4.772956e-11    0.000000e+00
-1.434675e-10    7.746344e-11    0.000000e+00
-1.238512e-10    3.027075e-11    0.000000e+00
-3.183047e-10    2.985146e-10    0.000000e+00
-2.014719e-10    1.730008e-10    0.000000e+00
-1.469679e-10    -9.405402e-12    0.000000e+00
-1.299648e-10    -3.767253e-11    0.000000e+00
-1.022686e-10    -1.133322e-11    0.000000e+00
-1.923951e-10    7.149879e-12    0.000000e+00
-1.469418e-10    1.586401e-11    0.000000e+00
-1.590708e-10    -3.521726e-11    0.000000e+00
-9.089229e-11    4.212793e-12    0.000000e+00
-2.975022e-11    -3.960952e-11    0.000000e+00
-3.870416e-11    -5.526469e-11    0.000000e+00
-2.198973e-11    -4.513272e-11    0.000000e+00
-2.321948e-11    -1.953133e-11    0.000000e+00
-3.662056e-11    -3.168384e-11    0.000000e+00
-2.048245e-11    -2.679535e-11    0.000000e+00
-2.234682e-11    -1.159674e-11    0.000000e+00
-1.232856e-11    -1.054555e-11    0.000000e+00
-5.109127e-11    -4.676663e-11    0.000000e+00
-4.032247e-11    -2.175726e-11    0.000000e+00
-1.013767e-11    -2.267065e-11    0.000000e+00
-6.907608e-12    -2.794240e-11    0.000000e+00
-5.247246e-12    -1.477914e-11    0.000000e+00
-1.599757e-11    -3.267100e-11    0.000000e+00
-1.231260e-11    -1.679920e-11    0.000000e+00
-1.107399e-11    -3.720428e-11    0.000000e+00
-6.017066e-12    -9.379779e-12    0.000000e+00

CELL_DATA      259
TENSORS Element_Stress2.000000e+00 double
-7.030221e+02 -3.042336e+02        0
-3.042336e+02 -1.384998e+02        0
       0        0 1.269655e+02

-6.864364e+02 -2.552380e+02        0
-2.552380e+02 -1.312982e+02        0
       0        0 -3.193297e+02

-6.400109e+02 -3.027118e+02        0
-3.027118e+02 -1.486961e+02        0
       0        0 2.403282e+02

-5.558171e+02 -2.299286e+02        0
-2.299286e+02 -1.297840e+02        0
       0        0 -1.379790e+02

-7.651537e+02 -2.827085e+02        0
-2.827085e+02 -1.044080e+02        0
       0        0 5.968017e+02

-7.708428e+02 -3.020997e+02        0
-3.020997e+02 -1.185345e+02        0
       0        0 6.452237e+02

-8.131223e+02 -2.754277e+02        0
-2.754277e+02 -1.312102e+02        0
       0        0 -5.040297e+02

-7.649669e+02 -3.059384e+02        0
-3.059384e+02 -1.291127e+02        0
       0        0 1.255107e+01

-7.624358e+02 -2.658393e+02        0
-2.658393e+02 -9.244318e+01        0
       0        0 5.469347e+02

-1.464761e+03 -4.643810e+02        0
-4.643810e+02 -2.051633e+02        0
       0        0 -1.327378e+03

6.349122e+02 -2.139810e+02        0
-2.139810e+02 -3.459284e+01        0
       0        0 8.578215e+02

-1.502761e+03 -4.620144e+02        0
-4.620144e+02 -8.710281e+02        0
       0        0 -1.364803e+03

1.015506e+03 -1.687437e+02        0
-1.687437e+02 -1.377321e+02        0
       0        0 1.058082e+03

-3.432465e+03 -3.537752e+02        0
-3.537752e+02 -4.101390e+02        0
       0        0 -3.493549e+03

-4.323505e+03 -1.013590e+03        0
-1.013590e+03 -2.278936e+03        0
       0        0 -4.099028e+03

2.759462e+02 -1.863677e+02        0
-1.863677e+02 -2.076024e+01        0
       0        0 6.518683e+02

-1.379815e+03 -4.238877e+02        0
-4.238877e+02 -1.035868e+02        0
       0        0 -1.268292e+03

-2.984047e+03 -3.467760e+02        0
-3.467760e+02 -2.136854e+02        0
       0        0 -3.135678e+03

-1.263549e+03 -3.790414e+02        0
-3.790414e+02 -8.768875e+01        0
       0        0 -1.070304e+03

-2.311645e+02 -1.648854e+02        0
-1.648854e+02 -2.828043e+01        0
       0        0 4.010190e+02

-1.317546e+03 -3.982554e+02        0
-3.982554e+02 -8.902047e+01        0
       0        0 -1.179016e+03

-9.021811e+00 -1.683143e+02        0
-1.683143e+02 -2.326018e+01        0
       0        0 5.007224e+02

-2.310818e+03 -3.628640e+02        0
-3.628640e+02 -1.406015e+02        0
       0        0 -2.500582e+03

-2.622126e+03 -3.584776e+02        0
-3.584776e+02 -1.628345e+02        0
       0        0 -2.811822e+03

-4.027160e+02 -1.695442e+02        0
-1.695442e+02 -3.385631e+01        0
       0        0 3.426886e+02

-1.208392e+03 -3.631724e+02        0
-3.631724e+02 -8.983235e+01        0
       0        0 -9.477654e+02

-2.039881e+03 -3.616945e+02        0
-3.616945e+02 -1.309526e+02        0
       0        0 -2.203266e+03

-1.090569e+03 -3.384657e+02        0
-3.384657e+02 -9.773807e+01        0
       0        0 -6.781814e+02

-6.236254e+02 -1.911104e+02        0
-1.911104e+02 -4.667307e+01        0
       0        0 3.198336e+02

-1.150729e+03 -3.497997e+02        0
-3.497997e+02 -9.348852e+01        0
       0        0 -8.159697e+02

-5.312499e+02 -1.789552e+02        0
-1.789552e+02 -4.000527e+01        0
       0        0 3.177931e+02

-1.594300e+03 -3.478904e+02        0
-3.478904e+02 -1.251007e+02        0
       0        0 -1.651099e+03

-1.802899e+03 -3.563289e+02        0
-3.563289e+02 -1.266248e+02        0
       0        0 -1.920086e+03

-6.863301e+02 -2.047240e+02        0
-2.047240e+02 -5.391837e+01        0
       0        0 3.431903e+02

-1.028130e+03 -3.289352e+02        0
-3.289352e+02 -1.023391e+02        0
       0        0 -5.369510e+02

-1.409048e+03 -3.371887e+02        0
-3.371887e+02 -1.249840e+02        0
       0        0 -1.395823e+03

-8.974867e+02 -3.145742e+02        0
-3.145742e+02 -1.129720e+02        0
       0        0 -2.518302e+02

-7.475170e+02 -2.339065e+02        0
-2.339065e+02 -7.067690e+01        0
       0        0 4.343495e+02

-9.636570e+02 -3.210207e+02        0
-3.210207e+02 -1.073488e+02        0
       0        0 -3.942724e+02

-7.256307e+02 -2.190729e+02        0
-2.190729e+02 -6.185364e+01        0
       0        0 3.828749e+02

-1.089248e+03 -3.103712e+02        0
-3.103712e+02 -1.265059e+02        0
       0        0 -9.226660e+02

-1.242284e+03 -3.246658e+02        0
-3.246658e+02 -1.255817e+02        0
       0        0 -1.153395e+03

-7.578262e+02 -2.495452e+02        0
-2.495452e+02 -8.072082e+01        0
       0        0 4.928136e+02

-8.299095e+02 -3.093766e+02        0
-3.093766e+02 -1.199183e+02        0
       0        0 -1.122408e+02

-9.454977e+02 -2.938977e+02        0
-2.938977e+02 -1.273866e+02        0
       0        0 -7.028451e+02

-7.816387e+02 -3.249665e+02        0
-3.249665e+02 -1.354053e+02        0
       0        0 6.887922e+02

-5.762052e+02 -3.010417e+02        0
-3.010417e+02 -1.603596e+02        0
       0        0 3.492416e+02

-4.193628e+02 -1.984490e+02        0
-1.984490e+02 -1.261464e+02        0
       0        0 3.944431e+01

-8.254875e+02 -3.848299e+02        0
-3.848299e+02 -1.801813e+02        0
       0        0 7.521095e+02

-7.992997e+02 -3.522288e+02        0
-3.522288e+02 -1.557101e+02        0
       0        0 7.252086e+02

-1.221906e+02 -1.118254e+02        0
-1.118254e+02 -1.089617e+02        0
       0        0 3.831439e+02

-4.471594e+02 -2.965781e+02        0
-2.965781e+02 -1.884854e+02        0
       0        0 5.484798e+02

-2.752853e+02 -1.595345e+02        0
-1.595345e+02 -1.195042e+02        0
       0        0 2.131913e+02

-5.118530e+02 -2.990508e+02        0
-2.990508e+02 -1.736060e+02        0
       0        0 4.524128e+02

-8.615528e+02 -4.239590e+02        0
-4.239590e+02 -2.096960e+02        0
       0        0 7.670052e+02

-3.825703e+02 -2.934744e+02        0
-2.934744e+02 -2.048528e+02        0
       0        0 6.358002e+02

4.132661e+01 -5.417796e+01        0
-5.417796e+01 -9.297140e+01        0
       0        0 5.490232e+02

-9.673426e+02 -5.253677e+02        0
-5.253677e+02 -2.866369e+02        0
       0        0 7.504086e+02

-9.092673e+02 -4.696385e+02        0
-4.696385e+02 -2.441591e+02        0
       0        0 7.673457e+02

4.054736e+02 9.701545e+01        0
9.701545e+01 -4.087303e+01        0
       0        0 8.646184e+02

-2.607443e+02 -2.859416e+02        0
-2.859416e+02 -2.421471e+02        0
       0        0 7.740894e+02

2.166465e+02 1.462981e+01        0
1.462981e+01 -7.175882e+01        0
       0        0 7.096027e+02

-3.186488e+02 -2.904591e+02        0
-2.904591e+02 -2.224190e+02        0
       0        0 7.124243e+02

-1.043479e+03 -5.785029e+02        0
-5.785029e+02 -3.299467e+02        0
       0        0 7.138705e+02

-2.100415e+02 -2.757758e+02        0
-2.757758e+02 -2.955351e+02        0
       0        0 8.091545e+02

5.629723e+02 2.071749e+02        0
2.071749e+02 -3.984632e+00        0
       0        0 9.965441e+02

-1.135003e+03 -6.273593e+02        0
-6.273593e+02 -1.151011e+03        0
       0        0 4.005229e+02

-1.128254e+03 -6.848881e+02        0
-6.848881e+02 -5.240372e+02        0
       0        0 6.154737e+02

1.293277e+02 3.847341e+02        0
3.847341e+02 3.379908e+02        0
       0        0 1.057672e+03

-3.502666e+02 1.403229e+02        0
1.403229e+02 -2.884047e+02        0
       0        0 8.058003e+02

4.653415e+02 3.557823e+02        0
3.557823e+02 8.491750e+01        0
       0        0 1.046526e+03

-1.922523e+02 -1.023626e+02        0
-1.023626e+02 -3.835154e+02        0
       0        0 8.117558e+02

1.594189e+01 -2.732325e+01        0
-2.732325e+01 -7.856275e+02        0
       0        0 7.167243e+02

1.305568e+01 -1.006175e+02        0
-1.006175e+02 2.398240e+01        0
       0        0 8.394732e+02

1.762082e+01 -1.595401e+02        0
-1.595401e+02 3.011413e+02        0
       0        0 1.009652e+03

1.591622e+01 -5.481587e+01        0
-5.481587e+01 -3.353402e+02        0
       0        0 5.296187e+02

1.120310e+01 -1.710590e+01        0
-1.710590e+01 -2.786145e+02        0
       0        0 5.561827e+02

2.301693e+01 -9.322326e+01        0
-9.322326e+01 -3.395612e+02        0
       0        0 6.410602e+02

1.387382e+01 -2.412925e+01        0
-2.412925e+01 -4.003925e+02        0
       0        0 6.303056e+02

3.356609e+00 -1.635742e+01        0
-1.635742e+01 -3.342813e+02        0
       0        0 5.162484e+02

8.002039e+00 -5.372726e+01        0
-5.372726e+01 -1.850364e+02        0
       0        0 6.718138e+02

5.908999e+00 1.246797e+00        0
1.246797e+00 -3.306497e+02        0
       0        0 3.216724e+02

5.809337e+00 -1.337039e+00        0
-1.337039e+00 -1.460761e+02        0
       0        0 3.895188e+02

1.046112e+01 -2.348977e+01        0
-2.348977e+01 -3.325247e+02        0
       0        0 4.215430e+02

8.349345e+00 -9.059038e+00        0
-9.059038e+00 -1.961713e+02        0
       0        0 4.736911e+02

-2.396315e+00 3.183061e+01        0
3.183061e+01 -4.973364e+02        0
       0        0 2.597718e+02

2.872763e-02 1.156202e+01        0
1.156202e+01 -4.352628e+02        0
       0        0 3.780265e+02

-4.207093e-01 3.315978e+01        0
3.315978e+01 -3.294982e+02        0
       0        0 1.568733e+02

1.631907e+00 1.200020e+01        0
1.200020e+01 -1.145714e+02        0
       0        0 2.340151e+02

2.307292e+00 1.988856e+01        0
1.988856e+01 -3.296741e+02        0
       0        0 2.329758e+02

3.545166e+00 5.788107e+00        0
5.788107e+00 -1.210218e+02        0
       0        0 3.085289e+02

-5.108712e+00 5.403261e+01        0
5.403261e+01 -5.402435e+02        0
       0        0 8.386885e+01

-4.072417e+00 4.557153e+01        0
4.557153e+01 -5.296337e+02        0
       0        0 1.620113e+02

-3.602634e+00 4.672586e+01        0
4.672586e+01 -3.310923e+02        0
       0        0 4.289514e+01

-1.109926e+00 2.111791e+01        0
2.111791e+01 -1.356618e+02        0
       0        0 1.116250e+02

-2.356902e+00 4.184022e+01        0
4.184022e+01 -3.300099e+02        0
       0        0 9.366732e+01

8.085125e-02 1.713749e+01        0
1.713749e+01 -1.210541e+02        0
       0        0 1.680191e+02

-5.785819e+00 5.967462e+01        0
5.967462e+01 -5.234643e+02        0
       0        0 -2.137416e+01

-5.641402e+00 5.837955e+01        0
5.837955e+01 -5.362219e+02        0
       0        0 2.351291e+01

-4.440903e+00 4.810858e+01        0
4.810858e+01 -3.344822e+02        0
       0        0 -2.522852e+01

-2.490398e+00 2.561305e+01        0
2.561305e+01 -1.741794e+02        0
       0        0 2.876663e+01

-4.262678e+00 4.858041e+01        0
4.858041e+01 -3.326307e+02        0
       0        0 3.635481e+00

-1.957641e+00 2.393054e+01        0
2.393054e+01 -1.544305e+02        0
       0        0 6.522619e+01

-5.315786e+00 5.668206e+01        0
5.668206e+01 -4.896844e+02        0
       0        0 -7.447427e+01

-5.645642e+00 5.884603e+01        0
5.884603e+01 -5.067277e+02        0
       0        0 -5.325600e+01

-2.731252e+00 2.620492e+01        0
2.620492e+01 -1.922045e+02        0
       0        0 2.013288e+00

-4.236799e+00 4.590291e+01        0
4.590291e+01 -3.359779e+02        0
       0        0 -4.465834e+01

-4.866667e+00 5.382465e+01        0
5.382465e+01 -4.747738e+02        0
       0        0 -8.697317e+01

3.673717e+01 -1.914892e+02        0
-1.914892e+02 -3.671604e+02        0
       0        0 8.354762e+02

1.793291e+01 -3.125693e+01        0
-3.125693e+01 -5.712284e+02        0
       0        0 6.871115e+02

3.022049e+01 -1.372485e+02        0
-1.372485e+02 -3.452169e+02        0
       0        0 7.479973e+02

-9.988478e+01 1.670777e+02        0
1.670777e+02 5.901766e+02        0
       0        0 1.099463e+03

-6.062330e+01 -1.184533e+02        0
-1.184533e+02 5.622349e+02        0
       0        0 1.111061e+03

-4.844320e+02 -3.277135e+02        0
-3.277135e+02 -1.467691e+03        0
       0        0 4.787297e+02

-4.407698e+02 -5.105934e+01        0
-5.105934e+01 -1.434951e+02        0
       0        0 8.394310e+02

-1.694730e+01 -6.253373e+01        0
-6.253373e+01 -1.114072e+03        0
       0        0 6.812388e+02

-1.023682e+02 -2.245423e+02        0
-2.245423e+02 -3.177991e+02        0
       0        0 8.731366e+02

-4.309019e+01 4.041022e+01        0
4.041022e+01 6.612362e+01        0
       0        0 7.679139e+02

-1.123986e+02 1.928670e+02        0
1.928670e+02 -3.234310e+02        0
       0        0 6.526226e+02

-8.965252e+01 2.367465e+02        0
2.367465e+02 -7.875239e+02        0
       0        0 5.355747e+02

-2.862029e+01 7.554844e+01        0
7.554844e+01 -9.268301e+01        0
       0        0 6.468949e+02

-5.412300e+01 1.708230e+02        0
1.708230e+02 -3.465973e+02        0
       0        0 5.728880e+02

-3.060965e+01 1.417029e+02        0
1.417029e+02 -5.898115e+02        0
       0        0 5.116377e+02

-1.835547e+01 7.977558e+01        0
7.977558e+01 -2.509479e+02        0
       0        0 5.078515e+02

-2.504115e+01 1.339891e+02        0
1.339891e+02 -3.514621e+02        0
       0        0 4.764114e+02

-1.089213e+01 9.336864e+01        0
9.336864e+01 -4.223266e+02        0
       0        0 4.578520e+02

-1.012908e+01 6.519581e+01        0
6.519581e+01 -4.433252e+02        0
       0        0 2.589565e+02

-1.356124e+01 7.284537e+01        0
7.284537e+01 -3.697473e+02        0
       0        0 3.744833e+02

-2.882877e+00 4.307482e+01        0
4.307482e+01 -2.484943e+02        0
       0        0 3.039578e+02

-9.131936e+00 7.180339e+01        0
7.180339e+01 -3.516816e+02        0
       0        0 2.785006e+02

-5.877147e+00 6.369273e+01        0
6.369273e+01 -3.137236e+02        0
       0        0 3.834262e+02

-1.504896e+01 9.884115e+01        0
9.884115e+01 -3.515623e+02        0
       0        0 3.745421e+02

-5.619634e+00 5.264280e+01        0
5.264280e+01 -4.977989e+02        0
       0        0 8.710553e+01

-7.524172e+00 5.833337e+01        0
5.833337e+01 -4.825682e+02        0
       0        0 1.633694e+02

-3.172207e-01 2.182086e+01        0
2.182086e+01 -2.024160e+02        0
       0        0 1.582920e+02

-2.467301e+00 3.950121e+01        0
3.950121e+01 -3.513388e+02        0
       0        0 1.216024e+02

-1.152828e+00 2.962854e+01        0
2.962854e+01 -2.147326e+02        0
       0        0 2.273419e+02

-5.035769e+00 5.239799e+01        0
5.239799e+01 -3.517179e+02        0
       0        0 1.934821e+02

-4.337768e+00 4.835150e+01        0
4.835150e+01 -4.976359e+02        0
       0        0 2.821730e+01

-1.097135e+00 3.193725e+01        0
3.193725e+01 -3.505173e+02        0
       0        0 6.319170e+01

-1.366596e-01 1.816604e+01        0
1.816604e+01 -2.031264e+02        0
       0        0 9.937015e+01

-3.238667e+00 4.420873e+01        0
4.420873e+01 -4.774650e+02        0
       0        0 -4.779486e+01

-3.577094e+00 4.554504e+01        0
4.554504e+01 -4.890505e+02        0
       0        0 -1.586327e+01

-8.728510e-01 1.841088e+01        0
1.841088e+01 -2.184786e+02        0
       0        0 1.554131e+01

-7.872045e-01 2.837935e+01        0
2.837935e+01 -3.475738e+02        0
       0        0 -1.646489e+01

-3.825716e-01 1.738578e+01        0
1.738578e+01 -2.101819e+02        0
       0        0 5.169790e+01

-6.260325e-01 2.857392e+01        0
2.857392e+01 -3.492521e+02        0
       0        0 1.755700e+01

-3.465712e+00 4.550509e+01        0
4.550509e+01 -4.601657e+02        0
       0        0 -8.415952e+01

-3.229730e+00 4.424849e+01        0
4.424849e+01 -4.669057e+02        0
       0        0 -6.994956e+01

-2.026977e+00 2.260610e+01        0
2.260610e+01 -2.252715e+02        0
       0        0 -2.283326e+01

-2.141073e+00 3.394252e+01        0
3.394252e+01 -3.431828e+02        0
       0        0 -5.431096e+01

-1.460491e+00 2.037848e+01        0
2.037848e+01 -2.243251e+02        0
       0        0 -9.234018e+00

-1.355570e+00 3.043834e+01        0
3.043834e+01 -3.455300e+02        0
       0        0 -4.009297e+01

-4.363696e+00 5.069116e+01        0
5.069116e+01 -4.639499e+02        0
       0        0 -9.249601e+01

-3.869844e+00 4.775268e+01        0
4.775268e+01 -4.589456e+02        0
       0        0 -9.155879e+01

-2.726361e+00 2.583720e+01        0
2.583720e+01 -2.081321e+02        0
       0        0 -1.650584e+01

-3.726119e+00 4.240776e+01        0
4.240776e+01 -3.379041e+02        0
       0        0 -5.623861e+01

-2.478827e+00 2.456192e+01        0
2.456192e+01 -2.199781e+02        0
       0        0 -2.532060e+01

-2.980586e+00 3.816138e+01        0
3.816138e+01 -3.406093e+02        0
       0        0 -5.968006e+01

1.088373e+03 -2.076117e+02        0
-2.076117e+02 8.163119e+00        0
       0        0 5.390852e+02

1.385437e+03 -6.739296e+01        0
-6.739296e+01 -6.242792e+01        0
       0        0 7.006489e+02

-7.655759e+02 3.836357e+01        0
3.836357e+01 -2.673561e+01        0
       0        0 -3.537428e+02

-1.601803e-01 -2.856495e+02        0
-2.856495e+02 3.613601e+01        0
       0        0 4.238108e+01

-1.622488e+03 3.453790e+02        0
3.453790e+02 -8.769699e+02        0
       0        0 -9.417375e+02

-1.839546e+02 -2.027527e+01        0
-2.027527e+01 -4.002780e+02        0
       0        0 -1.475707e+02

7.055842e+02 -1.529250e+02        0
-1.529250e+02 2.207611e+01        0
       0        0 3.559769e+02

1.107176e+02 -2.540572e+02        0
-2.540572e+02 9.568833e+01        0
       0        0 9.240709e+01

-3.392371e+02 -1.116820e+02        0
-1.116820e+02 1.137561e+02        0
       0        0 -1.385328e+02

2.590093e+02 -6.487284e+01        0
-6.487284e+01 9.972967e+00        0
       0        0 1.304777e+02

4.365281e+02 -9.885323e+01        0
-9.885323e+01 1.487376e+01        0
       0        0 2.216221e+02

-6.868262e+01 -1.268015e+02        0
-1.268015e+02 9.781791e+01        0
       0        0 -2.601481e+01

9.502141e+01 -1.369846e+02        0
-1.369846e+02 5.298517e+01        0
       0        0 5.676093e+01

-1.514579e+02 -1.420918e+02        0
-1.420918e+02 1.154496e+02        0
       0        0 -5.789119e+01

1.254520e+02 -1.909121e+02        0
-1.909121e+02 7.273293e+01        0
       0        0 8.187608e+01

6.677371e+01 -2.728013e+01        0
-2.728013e+01 5.186800e+00        0
       0        0 2.838784e+01

1.423627e+02 -4.254709e+01        0
-4.254709e+01 6.969916e+00        0
       0        0 6.906405e+01

-2.080629e+01 -6.830345e+01        0
-6.830345e+01 6.513095e+01        0
       0        0 -1.072946e+01

2.934771e+01 -6.303938e+01        0
-6.303938e+01 3.056436e+01        0
       0        0 1.453873e+01

-3.497300e+01 -9.778203e+01        0
-9.778203e+01 8.055543e+01        0
       0        0 -1.436007e+01

5.906283e+01 -9.515206e+01        0
-9.515206e+01 3.970459e+01        0
       0        0 3.303680e+01

1.997022e+01 -1.646504e+01        0
-1.646504e+01 3.947846e+00        0
       0        0 2.578577e+00

8.552748e+00 -3.893136e+01        0
-3.893136e+01 2.385260e+01        0
       0        0 1.568075e+00

-1.485788e+01 -4.341309e+01        0
-4.341309e+01 5.232087e+01        0
       0        0 -1.027141e+01

-1.881888e+01 -2.653491e+00        0
-2.653491e+00 2.766949e+00        0
       0        0 -1.908639e+01

-6.583018e+00 -8.692388e+00        0
-8.692388e+00 3.147717e+00        0
       0        0 -1.241241e+01

-1.133961e+01 -7.455924e+00        0
-7.455924e+00 3.873586e+01        0
       0        0 -1.117738e+01

-1.010209e+01 -6.555260e+00        0
-6.555260e+00 1.717427e+01        0
       0        0 -1.016395e+01

-1.234158e+01 -2.360487e+01        0
-2.360487e+01 4.323230e+01        0
       0        0 -1.074164e+01

-4.075993e+00 -2.085700e+01        0
-2.085700e+01 1.935824e+01        0
       0        0 -6.457527e+00

-1.182212e+03 5.370912e+02        0
5.370912e+02 -1.314553e+02        0
       0        0 -7.144562e+02

-2.318945e+03 8.617620e+02        0
8.617620e+02 -5.353684e+02        0
       0        0 -1.161823e+03

1.343925e+02 3.834712e+02        0
3.834712e+02 -1.307457e+02        0
       0        0 4.775722e+02

-4.626373e+02 7.229967e+02        0
7.229967e+02 -1.980022e+02        0
       0        0 -1.207072e+02

1.003402e+03 2.436308e+02        0
2.436308e+02 -8.553582e+01        0
       0        0 6.701437e+02

-4.588292e+02 7.157699e+02        0
7.157699e+02 -4.401340e+02        0
       0        0 -2.306852e+02

-4.385072e+02 3.564698e+02        0
3.564698e+02 -1.829486e+02        0
       0        0 -3.687881e+02

-3.638439e+02 5.780877e+02        0
5.780877e+02 -3.296187e+02        0
       0        0 -1.731234e+01

-5.567493e+02 4.739000e+02        0
4.739000e+02 -2.699494e+02        0
       0        0 3.195139e+02

1.684671e+02 -4.779368e+01        0
-4.779368e+01 -4.717197e+01        0
       0        0 3.182874e+02

-1.621221e+01 1.428153e+02        0
1.428153e+02 -1.445562e+02        0
       0        0 -8.224015e+00

-1.006231e+03 7.371874e+02        0
7.371874e+02 -6.207708e+02        0
       0        0 2.838523e+02

-3.104280e+02 3.282050e+02        0
3.282050e+02 -4.026302e+02        0
       0        0 3.138612e+02

-9.122613e+02 6.154114e+02        0
6.154114e+02 -4.364336e+02        0
       0        0 2.657244e+02

-3.194305e+02 4.351357e+02        0
4.351357e+02 -3.975281e+02        0
       0        0 1.389415e+02

1.420061e+02 -2.029050e+02        0
-2.029050e+02 1.866010e+02        0
       0        0 7.666663e+02

1.961799e+02 -1.651888e+02        0
-1.651888e+02 7.754488e+01        0
       0        0 5.818769e+02

-7.435596e+02 7.656429e+02        0
7.656429e+02 -9.335965e+02        0
       0        0 4.107786e+02

-2.972905e+02 2.245934e+02        0
2.245934e+02 -3.450276e+02        0
       0        0 6.025095e+02

-9.225715e+02 7.913831e+02        0
7.913831e+02 -7.959263e+02        0
       0        0 3.415722e+02

-3.080893e+02 2.602670e+02        0
2.602670e+02 -3.772385e+02        0
       0        0 4.756426e+02

6.358188e+01 -1.745568e+02        0
-1.745568e+02 2.497075e+02        0
       0        0 8.695077e+02

-2.712081e+02 2.099416e+02        0
2.099416e+02 -3.205831e+02        0
       0        0 6.831984e+02

-5.363397e+02 6.713023e+02        0
6.713023e+02 -1.010542e+03        0
       0        0 4.719588e+02

-3.839805e+01 -2.621463e+01        0
-2.621463e+01 1.890523e+02        0
       0        0 8.571953e+02

-2.582033e+00 -1.060762e+02        0
-1.060762e+02 2.509351e+02        0
       0        0 8.959369e+02

-1.994529e+02 3.789845e+02        0
3.789845e+02 -9.417334e+02        0
       0        0 5.334673e+02

-1.758510e+02 1.985888e+02        0
1.985888e+02 -3.051955e+02        0
       0        0 7.036995e+02

-3.464217e+02 5.333241e+02        0
5.333241e+02 -1.015229e+03        0
       0        0 5.138372e+02

-2.296627e+02 2.046898e+02        0
2.046898e+02 -3.093061e+02        0
       0        0 7.152130e+02

-4.986025e+02 4.545498e+02        0
4.545498e+02 -4.550178e+02        0
       0        0 -4.361546e+02

-8.486268e+02 4.099834e+02        0
4.099834e+02 -2.841141e+02        0
       0        0 -5.124183e+02

-3.842671e+02 6.619019e+02        0
6.619019e+02 -1.195711e+03        0
       0        0 -6.199578e+02

-1.204206e+03 1.069047e+03        0
1.069047e+03 -1.409257e+03        0
       0        0 -1.001350e+03

-2.678356e+02 3.508606e+02        0
3.508606e+02 -5.740252e+02        0
       0        0 -2.933723e+02

-3.368680e+02 4.003302e+02        0
4.003302e+02 -5.610444e+02        0
       0        0 -3.734168e+02

-2.274924e+02 3.364944e+02        0
3.364944e+02 -9.337079e+02        0
       0        0 -3.773451e+02

-2.204696e+02 4.578706e+02        0
4.578706e+02 -1.014673e+03        0
       0        0 -4.561625e+02

-2.061090e+02 1.797157e+01        0
1.797157e+01 9.751497e+01        0
       0        0 -1.147372e+02

-1.766591e+02 -6.190244e+01        0
-6.190244e+01 1.132438e+02        0
       0        0 -8.978535e+01

-3.126961e+02 8.044099e+01        0
8.044099e+01 3.845656e+01        0
       0        0 -1.878692e+02

-2.989184e+02 -2.361717e+01        0
-2.361717e+01 9.553500e+01        0
       0        0 -1.552134e+02

-4.391230e+02 2.221121e+02        0
2.221121e+02 -1.194842e+02        0
       0        0 -2.984492e+02

-5.002651e+02 1.018192e+02        0
1.018192e+02 1.465151e+01        0
       0        0 -2.726788e+02

-7.526319e+01 1.373987e+02        0
1.373987e+02 8.244288e+00        0
       0        0 -4.663004e+01

-1.698206e+02 8.826799e+01        0
8.826799e+01 6.049854e+01        0
       0        0 -9.936405e+01

-1.348514e+02 2.087910e+02        0
2.087910e+02 -8.855694e+01        0
       0        0 -1.006970e+02

-2.535183e+02 1.546506e+02        0
1.546506e+02 -2.635729e+01        0
       0        0 -1.680298e+02

-2.071551e+02 2.910070e+02        0
2.910070e+02 -2.731158e+02        0
       0        0 -1.838443e+02

-3.311249e+02 2.613910e+02        0
2.613910e+02 -2.207150e+02        0
       0        0 -2.651477e+02

-7.340594e+01 -1.089497e+01        0
-1.089497e+01 1.015321e+02        0
       0        0 -3.999643e+01

-6.045627e+01 -4.683636e+01        0
-4.683636e+01 9.203665e+01        0
       0        0 -3.275001e+01

-1.268316e+02 -5.276665e+00        0
-5.276665e+00 1.097465e+02        0
       0        0 -6.810273e+01

-1.041257e+02 -6.048392e+01        0
-6.048392e+01 1.068595e+02        0
       0        0 -5.323278e+01

-9.820116e+00 4.948556e+01        0
4.948556e+01 6.499353e+01        0
       0        0 1.365763e+00

-5.577257e+01 2.538402e+01        0
2.538402e+01 9.159417e+01        0
       0        0 -2.823015e+01

-3.451814e+01 8.478469e+01        0
8.478469e+01 5.109359e+01        0
       0        0 -1.518046e+01

-1.022830e+02 4.820959e+01        0
4.820959e+01 8.981776e+01        0
       0        0 -5.481414e+01

-1.216358e+01 -2.014275e+00        0
-2.014275e+00 6.891859e+01        0
       0        0 -1.182663e+01

-1.409692e+01 -5.537302e+00        0
-5.537302e+00 5.806115e+01        0
       0        0 -1.379706e+01

-2.105711e+01 -6.101096e+00        0
-6.101096e+00 7.551847e+01        0
       0        0 -1.542225e+01

-2.063990e+01 -1.744293e+01        0
-1.744293e+01 6.429952e+01        0
       0        0 -1.606149e+01

-4.002181e+01 -9.648037e+00        0
-9.648037e+00 8.761033e+01        0
       0        0 -2.393578e+01

-3.479998e+01 -3.127855e+01        0
-3.127855e+01 7.638824e+01        0
       0        0 -2.168400e+01

1.360637e+01 3.894454e+00        0
3.894454e+00 6.009369e+01        0
       0        0 1.375402e+01

-2.687232e+00 1.621524e+00        0
1.621524e+00 6.915364e+01        0
       0        0 -2.387882e+00

1.070907e+01 1.312889e+01        0
1.312889e+01 6.268414e+01        0
       0        0 1.259281e+01

-1.030192e+01 5.666218e+00        0
5.666218e+00 7.448228e+01        0
       0        0 -5.622644e+00

3.865917e+00 2.706647e+01        0
2.706647e+01 6.588017e+01        0
       0        0 9.264394e+00

-2.666330e+01 1.262839e+01        0
1.262839e+01 8.344700e+01        0
       0        0 -1.331967e+01

POINT_DATA     938
VECTORS DISPLACEMENT_2.200000e+00 double
2.907951e-09    2.433924e-08    0.000000e+00
3.161446e-09    2.295069e-08    0.000000e+00
2.661030e-09    2.576039e-08    0.000000e+00
-9.752971e-10    2.460823e-08    0.000000e+00
-5.836202e-10    2.294271e-08    0.000000e+00
-1.541435e-10    2.133603e-08    0.000000e+00
3.086175e-10    1.980372e-08    0.000000e+00
7.991206e-10    1.836348e-08    0.000000e+00
1.310168e-09    1.703594e-08    0.000000e+00
1.832750e-09    1.584537e-08    0.000000e+00
2.355048e-09    1.481962e-08    0.000000e+00
2.862757e-09    1.399462e-08    0.000000e+00
3.323031e-09    1.342615e-08    0.000000e+00
3.644922e-09    1.312672e-08    0.000000e+00
3.930097e-09    1.301106e-08    0.000000e+00
-1.465600e-11    4.466793e-08    0.000000e+00
-2.924423e-10    4.457320e-08    0.000000e+00
-5.514897e-11    4.387459e-08    0.000000e+00
-6.045313e-10    4.373995e-08    0.000000e+00
-1.017426e-10    4.138220e-08    0.000000e+00
-1.019394e-09    4.120795e-08    0.000000e+00
-8.313529e-11    3.982414e-08    0.000000e+00
-1.122362e-09    3.963009e-08    0.000000e+00
-8.943043e-11    4.275277e-08    0.000000e+00
-8.464366e-10    4.259736e-08    0.000000e+00
6.776496e-11    3.634065e-08    0.000000e+00
-1.122651e-09    3.610957e-08    0.000000e+00
2.054444e-10    3.448908e-08    0.000000e+00
-1.025469e-09    3.424158e-08    0.000000e+00
6.067810e-10    3.070271e-08    0.000000e+00
-6.548655e-10    3.042708e-08    0.000000e+00
8.673723e-10    2.880744e-08    0.000000e+00
-3.898331e-10    2.852070e-08    0.000000e+00
3.854187e-10    3.260242e-08    0.000000e+00
-8.682085e-10    3.234006e-08    0.000000e+00
-2.785462e-11    3.813011e-08    0.000000e+00
-1.156019e-09    3.791695e-08    0.000000e+00
2.145817e-09    2.906566e-08    0.000000e+00
1.892570e-09    3.094165e-08    0.000000e+00
1.666678e-09    3.282023e-08    0.000000e+00
1.467878e-09    3.468342e-08    0.000000e+00
1.294042e-09    3.650811e-08    0.000000e+00
1.140780e-09    3.826666e-08    0.000000e+00
1.001154e-09    3.992605e-08    0.000000e+00
8.652668e-10    4.144583e-08    0.000000e+00
7.193923e-10    4.277703e-08    0.000000e+00
5.433893e-10    4.385970e-08    0.000000e+00
3.057852e-10    4.460887e-08    0.000000e+00
3.763961e-12    4.488531e-08    0.000000e+00
-6.577258e-12    4.501834e-08    0.000000e+00
1.042721e-11    4.510186e-08    0.000000e+00
-2.428628e-10    4.570009e-08    0.000000e+00
-6.669171e-10    4.440193e-08    0.000000e+00
-1.211420e-09    4.350397e-08    0.000000e+00
-1.642384e-09    4.234138e-08    0.000000e+00
-1.966620e-09    4.094150e-08    0.000000e+00
-2.183396e-09    3.935643e-08    0.000000e+00
-2.300436e-09    3.763589e-08    0.000000e+00
-2.325216e-09    3.582108e-08    0.000000e+00
-2.265636e-09    3.394576e-08    0.000000e+00
-2.129226e-09    3.203728e-08    0.000000e+00
-1.922955e-09    3.011789e-08    0.000000e+00
-1.653104e-09    2.820602e-08    0.000000e+00
-1.325146e-09    2.631788e-08    0.000000e+00
-8.223624e-11    2.663440e-08    0.000000e+00
1.159340e-09    2.693088e-08    0.000000e+00
2.424950e-09    2.720742e-08    0.000000e+00
3.416300e-09    2.160225e-08    0.000000e+00
3.666063e-09    2.030230e-08    0.000000e+00
3.902914e-09    1.906031e-08    0.000000e+00
4.117460e-09    1.788707e-08    0.000000e+00
4.298587e-09    1.679485e-08    0.000000e+00
4.433966e-09    1.579786e-08    0.000000e+00
4.507276e-09    1.490996e-08    0.000000e+00
4.535639e-09    1.413217e-08    0.000000e+00
4.375119e-09    1.341155e-08    0.000000e+00
4.261181e-09    1.325048e-08    0.000000e+00
4.087166e-09    1.313354e-08    0.000000e+00
2.989451e-09    1.833608e-08    0.000000e+00
2.138907e-09    1.766428e-08    0.000000e+00
2.024858e-09    2.240443e-08    0.000000e+00
9.301656e-10    2.186761e-08    0.000000e+00
1.421873e-09    2.538589e-08    0.000000e+00
2.192139e-10    2.500295e-08    0.000000e+00
1.715205e-09    2.387533e-08    0.000000e+00
5.612364e-10    2.341071e-08    0.000000e+00
2.344995e-09    2.098339e-08    0.000000e+00
1.320464e-09    2.038576e-08    0.000000e+00
2.669178e-09    1.962311e-08    0.000000e+00
1.725954e-09    1.897924e-08    0.000000e+00
3.820061e-09    1.507427e-08    0.000000e+00
3.311184e-09    1.447594e-08    0.000000e+00
3.296255e-09    1.713680e-08    0.000000e+00
2.549695e-09    1.645971e-08    0.000000e+00
3.577278e-09    1.604126e-08    0.000000e+00
2.946051e-09    1.538669e-08    0.000000e+00
4.005080e-09    1.424468e-08    0.000000e+00
3.633543e-09    1.375867e-08    0.000000e+00
4.165673e-09    1.361459e-08    0.000000e+00
3.897753e-09    1.331425e-08    0.000000e+00
3.241309e-09    1.257422e-08    0.000000e+00
3.309127e-09    1.289403e-08    0.000000e+00
1.181450e-09    1.197339e-08    0.000000e+00
1.179319e-09    1.220627e-08    0.000000e+00
6.732793e-10    1.181761e-08    0.000000e+00
6.626202e-10    1.197183e-08    0.000000e+00
9.014518e-10    1.189148e-08    0.000000e+00
8.932415e-10    1.208447e-08    0.000000e+00
3.576490e-10    1.168738e-08    0.000000e+00
3.506625e-10    1.177236e-08    0.000000e+00
2.607086e-10    1.162842e-08    0.000000e+00
2.586025e-10    1.168364e-08    0.000000e+00
4.935395e-10    1.175006e-08    0.000000e+00
4.835002e-10    1.186806e-08    0.000000e+00
1.514412e-09    1.206530e-08    0.000000e+00
1.522281e-09    1.233679e-08    0.000000e+00
2.731226e-10    1.156682e-08    0.000000e+00
3.756468e-10    1.159715e-08    0.000000e+00
5.152142e-10    1.162808e-08    0.000000e+00
6.960672e-10    1.166076e-08    0.000000e+00
9.220209e-10    1.169708e-08    0.000000e+00
1.195742e-09    1.173979e-08    0.000000e+00
1.517860e-09    1.179256e-08    0.000000e+00
1.885898e-09    1.186008e-08    0.000000e+00
2.293036e-09    1.194802e-08    0.000000e+00
2.726707e-09    1.206299e-08    0.000000e+00
3.166930e-09    1.221268e-08    0.000000e+00
3.585336e-09    1.240406e-08    0.000000e+00
3.940841e-09    1.264891e-08    0.000000e+00
4.214098e-09    1.292964e-08    0.000000e+00
4.125740e-09    1.308117e-08    0.000000e+00
4.078180e-09    1.320527e-08    0.000000e+00
3.783234e-09    1.325621e-08    0.000000e+00
3.358769e-09    1.320849e-08    0.000000e+00
2.882723e-09    1.310066e-08    0.000000e+00
2.401743e-09    1.295440e-08    0.000000e+00
1.947519e-09    1.278754e-08    0.000000e+00
1.539609e-09    1.261309e-08    0.000000e+00
1.188200e-09    1.244021e-08    0.000000e+00
8.966091e-10    1.227487e-08    0.000000e+00
6.634481e-10    1.212046e-08    0.000000e+00
4.844582e-10    1.197831e-08    0.000000e+00
3.539891e-10    1.184831e-08    0.000000e+00
2.661565e-10    1.172928e-08    0.000000e+00
2.156988e-10    1.161939e-08    0.000000e+00
2.022660e-10    1.160059e-08    0.000000e+00
1.980331e-10    1.157210e-08    0.000000e+00
2.035403e-10    1.153656e-08    0.000000e+00
2.362411e-09    1.261675e-08    0.000000e+00
2.324555e-09    1.228757e-08    0.000000e+00
1.919486e-09    1.247456e-08    0.000000e+00
1.897934e-09    1.216931e-08    0.000000e+00
2.834500e-09    1.275873e-08    0.000000e+00
2.780022e-09    1.242185e-08    0.000000e+00
4.091210e-09    1.310440e-08    0.000000e+00
4.034537e-09    1.293718e-08    0.000000e+00
3.745977e-09    1.301310e-08    0.000000e+00
3.674672e-09    1.274340e-08    0.000000e+00
4.236904e-09    1.313590e-08    0.000000e+00
4.271499e-09    1.312000e-08    0.000000e+00
2.905717e-09    1.078929e-08    0.000000e+00
2.956096e-09    1.069523e-08    0.000000e+00
2.964676e-09    1.062507e-08    0.000000e+00
2.952112e-09    1.054291e-08    0.000000e+00
2.761394e-09    1.049831e-08    0.000000e+00
2.460381e-09    1.049976e-08    0.000000e+00
2.105775e-09    1.054148e-08    0.000000e+00
1.743305e-09    1.061185e-08    0.000000e+00
1.402980e-09    1.070019e-08    0.000000e+00
1.101144e-09    1.079854e-08    0.000000e+00
8.451444e-10    1.090128e-08    0.000000e+00
6.363627e-10    1.100483e-08    0.000000e+00
4.726698e-10    1.110729e-08    0.000000e+00
3.503517e-10    1.120817e-08    0.000000e+00
2.655687e-10    1.130807e-08    0.000000e+00
2.154009e-10    1.140846e-08    0.000000e+00
1.985450e-10    1.151140e-08    0.000000e+00
1.589791e-10    1.150089e-08    0.000000e+00
1.512962e-10    1.146598e-08    0.000000e+00
1.782901e-10    1.143298e-08    0.000000e+00
2.399297e-10    1.140314e-08    0.000000e+00
3.381648e-10    1.137752e-08    0.000000e+00
4.764458e-10    1.135654e-08    0.000000e+00
6.589041e-10    1.133955e-08    0.000000e+00
8.891554e-10    1.132427e-08    0.000000e+00
1.168649e-09    1.130621e-08    0.000000e+00
1.494527e-09    1.127797e-08    0.000000e+00
1.856882e-09    1.122853e-08    0.000000e+00
2.236048e-09    1.114326e-08    0.000000e+00
2.601224e-09    1.099923e-08    0.000000e+00
7.736749e-10    1.105513e-08    0.000000e+00
7.114659e-10    1.120125e-08    0.000000e+00
2.025844e-09    1.077080e-08    0.000000e+00
1.942235e-09    1.099288e-08    0.000000e+00
2.730920e-09    1.065922e-08    0.000000e+00
2.680008e-09    1.081290e-08    0.000000e+00
2.399352e-09    1.070843e-08    0.000000e+00
2.323215e-09    1.091245e-08    0.000000e+00
1.317759e-09    1.090889e-08    0.000000e+00
1.239404e-09    1.110866e-08    0.000000e+00
1.656880e-09    1.083836e-08    0.000000e+00
1.573627e-09    1.105614e-08    0.000000e+00
1.021613e-09    1.098142e-08    0.000000e+00
9.507719e-10    1.115582e-08    0.000000e+00
3.054033e-10    1.127991e-08    0.000000e+00
2.685206e-10    1.134541e-08    0.000000e+00
5.738698e-10    1.112954e-08    0.000000e+00
5.204692e-10    1.124726e-08    0.000000e+00
4.191674e-10    1.120443e-08    0.000000e+00
3.742549e-10    1.129512e-08    0.000000e+00
1.861365e-10    1.143464e-08    0.000000e+00
1.646584e-10    1.145370e-08    0.000000e+00
2.286417e-10    1.135641e-08    0.000000e+00
1.994621e-10    1.139829e-08    0.000000e+00
1.769497e-10    1.151562e-08    0.000000e+00
1.636191e-10    1.151160e-08    0.000000e+00
-4.487253e-14    -3.735885e-11    0.000000e+00
-5.023413e-12    -4.015715e-11    0.000000e+00
-1.109360e-11    -4.788813e-11    0.000000e+00
-1.948509e-11    -5.975432e-11    0.000000e+00
-3.185237e-11    -7.331751e-11    0.000000e+00
-5.072483e-11    -8.267557e-11    0.000000e+00
-8.077641e-11    -7.492870e-11    0.000000e+00
-1.305630e-10    -2.556431e-11    0.000000e+00
-2.210864e-10    1.127662e-10    0.000000e+00
-3.606414e-10    4.070344e-10    0.000000e+00
-6.965593e-10    1.012018e-09    0.000000e+00
-2.443798e-10    1.097550e-09    0.000000e+00
3.785921e-10    1.156844e-09    0.000000e+00
1.088313e-09    1.255933e-09    0.000000e+00
6.699597e-10    4.576711e-10    0.000000e+00
3.753816e-10    1.131978e-10    0.000000e+00
2.007923e-10    -2.623100e-11    0.000000e+00
1.000981e-10    -7.732187e-11    0.000000e+00
4.269397e-11    -8.847465e-11    0.000000e+00
1.220391e-11    -8.237207e-11    0.000000e+00
-1.664157e-12    -7.083810e-11    0.000000e+00
-5.569327e-12    -5.996588e-11    0.000000e+00
-3.981888e-12    -5.266148e-11    0.000000e+00
1.505713e-13    -5.020987e-11    0.000000e+00
7.856997e-14    -4.784906e-11    0.000000e+00
2.073214e-14    -4.425055e-11    0.000000e+00
2.575232e-11    -9.986340e-11    0.000000e+00
-1.186183e-11    -9.854575e-11    0.000000e+00
1.721054e-10    6.068901e-11    0.000000e+00
-6.061922e-11    6.616987e-11    0.000000e+00
2.619241e-10    3.715908e-10    0.000000e+00
-1.397762e-10    3.643258e-10    0.000000e+00
1.041638e-10    -5.903030e-11    0.000000e+00
-2.540418e-11    -5.685532e-11    0.000000e+00
5.620942e-11    -9.747021e-11    0.000000e+00
-1.495688e-11    -9.653495e-11    0.000000e+00
-1.799619e-13    -7.249710e-11    0.000000e+00
-8.461171e-12    -6.960347e-11    0.000000e+00
8.254393e-12    -8.786131e-11    0.000000e+00
-1.035615e-11    -8.564960e-11    0.000000e+00
-2.834620e-12    -5.930583e-11    0.000000e+00
-5.980966e-12    -5.601423e-11    0.000000e+00
-2.156583e-12    -5.077352e-11    0.000000e+00
-3.088238e-12    -4.728537e-11    0.000000e+00
-1.332676e-09    2.870002e-09    0.000000e+00
-1.230507e-09    4.795079e-09    0.000000e+00
-7.313642e-10    6.610045e-09    0.000000e+00
4.074075e-11    8.127840e-09    0.000000e+00
9.010968e-10    9.259470e-09    0.000000e+00
1.710264e-09    1.000709e-08    0.000000e+00
2.362940e-09    1.042338e-08    0.000000e+00
2.794404e-09    1.058943e-08    0.000000e+00
2.986327e-09    1.059977e-08    0.000000e+00
3.077933e-09    1.053445e-08    0.000000e+00
3.141543e-09    1.017582e-08    0.000000e+00
3.089756e-09    9.667725e-09    0.000000e+00
2.930642e-09    8.965582e-09    0.000000e+00
2.685974e-09    8.033384e-09    0.000000e+00
2.391425e-09    6.869304e-09    0.000000e+00
2.081704e-09    5.500367e-09    0.000000e+00
1.776598e-09    3.996402e-09    0.000000e+00
1.458542e-09    2.494450e-09    0.000000e+00
1.542782e-09    8.860110e-09    0.000000e+00
2.132344e-09    8.462534e-09    0.000000e+00
-1.862247e-10    4.491149e-09    0.000000e+00
7.645638e-10    4.226285e-09    0.000000e+00
-3.407622e-10    2.696170e-09    0.000000e+00
5.233216e-10    2.540387e-09    0.000000e+00
2.474538e-10    6.223747e-09    0.000000e+00
1.151786e-09    5.867748e-09    0.000000e+00
8.671689e-10    7.708071e-09    0.000000e+00
1.633812e-09    7.304112e-09    0.000000e+00
2.651116e-09    1.018064e-08    0.000000e+00
2.900349e-09    9.928416e-09    0.000000e+00
2.164979e-09    9.670879e-09    0.000000e+00
2.573829e-09    9.328312e-09    0.000000e+00
2.952797e-09    1.045806e-08    0.000000e+00
3.076903e-09    1.031491e-08    0.000000e+00
3.053683e-09    1.058166e-08    0.000000e+00
3.092133e-09    1.055085e-08    0.000000e+00
0.000000e+00    0.000000e+00    0.000000e+00
0.000000e+00    0.000000e+00    0.000000e+00
0.000000e+00    0.000000e+00    0.000000e+00
0.000000e+00    0.000000e+00    0.000000e+00
0.000000e+00    0.000000e+00    0.000000e+00
0.000000e+00    0.000000e+00    0.000000e+00
0.000000e+00    0.000000e+00    0.000000e+00
0.000000e+00    0.000000e+00    0.000000e+00
0.000000e+00    0.000000e+00    0.000000e+00
0.000000e+00    0.000000e+00    0.000000e+00
0.000000e+00    0.000000e+00    0.000000e+00
-7.924956e-11    1.501663e-10    0.000000e+00
-1.906625e-10    3.240314e-10    0.000000e+00
-3.222488e-10    5.239426e-10    0.000000e+00
-8.174222e-14    -2.799165e-11    0.000000e+00
-8.096482e-14    -1.728594e-11    0.000000e+00
-4.247727e-14    -7.325544e-12    0.000000e+00
-7.120227e-11    -5.686247e-11    0.000000e+00
-6.791150e-11    -2.977209e-11    0.000000e+00
-4.208979e-11    -8.782246e-12    0.000000e+00
-2.486651e-10    1.082857e-10    0.000000e+00
-2.018716e-10    8.434962e-11    0.000000e+00
-1.187799e-10    4.335235e-11    0.000000e+00
-2.289634e-10    2.092891e-10    0.000000e+00
-3.146104e-10    3.042619e-10    0.000000e+00
-1.194801e-10    9.506999e-11    0.000000e+00
-1.053470e-10    -2.007719e-11    0.000000e+00
-1.521401e-10    1.167534e-11    0.000000e+00
-1.122423e-10    -4.672125e-11    0.000000e+00
-1.688234e-10    -2.689987e-12    0.000000e+00
-6.527128e-11    -2.667784e-12    0.000000e+00
-9.348768e-11    1.276420e-11    0.000000e+00
-2.563521e-11    -4.354488e-11    0.000000e+00
-2.407515e-11    -2.542287e-11    0.000000e+00
-1.460376e-11    -9.659856e-12    0.000000e+00
-4.158885e-11    -2.929765e-11    0.000000e+00
-4.373701e-11    -5.229017e-11    0.000000e+00
-2.554290e-11    -1.019806e-11    0.000000e+00
-5.515353e-12    -1.846990e-11    0.000000e+00
-1.286194e-11    -2.133760e-11    0.000000e+00
-6.070015e-12    -3.005609e-11    0.000000e+00
-1.393094e-11    -3.545544e-11    0.000000e+00
-3.255941e-12    -7.744948e-12    0.000000e+00
-7.690098e-12    -8.605645e-12    0.000000e+00
1.787525e-09    2.707118e-08    0.000000e+00
2.287367e-09    2.813502e-08    0.000000e+00
2.544528e-09    2.648211e-08    0.000000e+00
5.371745e-10    2.678532e-08    0.000000e+00
1.013938e-09    2.786687e-08    0.000000e+00
1.291316e-09    2.615569e-08    0.000000e+00
-7.022117e-10    2.647944e-08    0.000000e+00
-2.369944e-10    2.757635e-08    0.000000e+00
6.802379e-11    2.581661e-08    0.000000e+00
-1.490426e-09    2.725541e-08    0.000000e+00
-1.150830e-09    2.545631e-08    0.000000e+00
-1.789950e-09    2.915696e-08    0.000000e+00
-1.019905e-09    2.836738e-08    0.000000e+00
-2.028729e-09    3.107420e-08    0.000000e+00
-1.287173e-09    3.027727e-08    0.000000e+00
-2.200922e-09    3.299003e-08    0.000000e+00
-1.496586e-09    3.219435e-08    0.000000e+00
-2.299901e-09    3.488420e-08    0.000000e+00
-1.642832e-09    3.410040e-08    0.000000e+00
-2.318401e-09    3.673202e-08    0.000000e+00
-1.720407e-09    3.597329e-08    0.000000e+00
-2.248681e-09    3.850297e-08    0.000000e+00
-1.723635e-09    3.778582e-08    0.000000e+00
-2.082941e-09    4.015932e-08    0.000000e+00
-1.646978e-09    3.950434e-08    0.000000e+00
-1.813593e-09    4.165534e-08    0.000000e+00
-1.485250e-09    4.108770e-08    0.000000e+00
-1.435619e-09    4.293561e-08    0.000000e+00
-1.235106e-09    4.248468e-08    0.000000e+00
-9.477426e-10    4.394719e-08    0.000000e+00
-8.934872e-10    4.363857e-08    0.000000e+00
-3.926685e-10    4.474189e-08    0.000000e+00
-4.670979e-10    4.451227e-08    0.000000e+00
5.275084e-11    4.540913e-08    0.000000e+00
8.853080e-12    4.505691e-08    0.000000e+00
-1.398185e-10    4.490081e-08    0.000000e+00
-4.449508e-12    4.496966e-08    0.000000e+00
9.059129e-13    4.490233e-08    0.000000e+00
1.612446e-10    4.480696e-08    0.000000e+00
4.361327e-10    4.428375e-08    0.000000e+00
1.327269e-10    4.466180e-08    0.000000e+00
6.400115e-10    4.335464e-08    0.000000e+00
2.294745e-10    4.388699e-08    0.000000e+00
7.984671e-10    4.213915e-08    0.000000e+00
3.017254e-10    4.278122e-08    0.000000e+00
9.377863e-10    4.070694e-08    0.000000e+00
3.698621e-10    4.142739e-08    0.000000e+00
1.074456e-09    3.911186e-08    0.000000e+00
4.484051e-10    3.988605e-08    0.000000e+00
1.220113e-09    3.739843e-08    0.000000e+00
5.470770e-10    3.820732e-08    0.000000e+00
1.383121e-09    3.560320e-08    0.000000e+00
6.726393e-10    3.643163e-08    0.000000e+00
1.569106e-09    3.375634e-08    0.000000e+00
8.294042e-10    3.459211e-08    0.000000e+00
1.781316e-09    3.188308e-08    0.000000e+00
1.019672e-09    3.271603e-08    0.000000e+00
2.020938e-09    3.000381e-08    0.000000e+00
1.244044e-09    3.082589e-08    0.000000e+00
1.501587e-09    2.893940e-08    0.000000e+00
-5.941262e-10    3.803272e-08    0.000000e+00
-1.143113e-09    3.702596e-08    0.000000e+00
-1.143606e-09    3.879118e-08    0.000000e+00
1.939911e-11    3.724533e-08    0.000000e+00
-5.603360e-11    3.899141e-08    0.000000e+00
-2.434131e-10    3.247650e-08    0.000000e+00
-7.635067e-10    3.138652e-08    0.000000e+00
-9.493737e-10    3.329635e-08    0.000000e+00
4.960293e-10    3.165385e-08    0.000000e+00
2.951268e-10    3.354934e-08    0.000000e+00
2.371125e-10    2.866752e-08    0.000000e+00
-5.237896e-10    2.947466e-08    0.000000e+00
7.373090e-10    2.975443e-08    0.000000e+00
-2.589445e-11    3.056919e-08    0.000000e+00
-4.121534e-10    3.437169e-08    0.000000e+00
-1.077201e-09    3.518430e-08    0.000000e+00
1.361335e-10    3.542129e-08    0.000000e+00
-5.296486e-10    3.623277e-08    0.000000e+00
-4.691428e-10    4.269027e-08    0.000000e+00
-9.384837e-10    4.193427e-08    0.000000e+00
-7.319455e-10    4.320979e-08    0.000000e+00
-9.570627e-11    4.209322e-08    0.000000e+00
-7.199116e-11    4.334666e-08    0.000000e+00
-6.048148e-10    3.973806e-08    0.000000e+00
-1.075924e-09    4.044290e-08    0.000000e+00
-9.281308e-11    4.062273e-08    0.000000e+00
-5.623294e-10    4.130807e-08    0.000000e+00
-3.291194e-10    4.382506e-08    0.000000e+00
-4.536506e-10    4.420992e-08    0.000000e+00
-3.345916e-11    4.431477e-08    0.000000e+00
-1.525647e-10    4.463982e-08    0.000000e+00
3.807652e-09    1.305608e-08    0.000000e+00
4.006758e-09    1.307441e-08    0.000000e+00
4.057665e-09    1.303633e-08    0.000000e+00
3.506671e-09    1.325264e-08    0.000000e+00
3.763011e-09    1.321293e-08    0.000000e+00
3.107347e-09    1.367342e-08    0.000000e+00
3.468674e-09    1.357301e-08    0.000000e+00
2.615082e-09    1.437897e-08    0.000000e+00
3.083413e-09    1.422203e-08    0.000000e+00
2.098299e-09    1.530960e-08    0.000000e+00
2.648966e-09    1.509496e-08    0.000000e+00
1.574614e-09    1.642145e-08    0.000000e+00
2.190533e-09    1.614699e-08    0.000000e+00
1.056827e-09    1.768367e-08    0.000000e+00
1.724697e-09    1.734693e-08    0.000000e+00
5.552770e-10    1.907013e-08    0.000000e+00
1.263208e-09    1.866985e-08    0.000000e+00
7.803351e-11    2.055857e-08    0.000000e+00
8.155783e-10    2.009457e-08    0.000000e+00
-3.685941e-10    2.212984e-08    0.000000e+00
3.892667e-10    2.160271e-08    0.000000e+00
-7.796271e-10    2.376741e-08    0.000000e+00
-9.805706e-12    2.317849e-08    0.000000e+00
-3.765625e-10    2.480814e-08    0.000000e+00
2.786400e-09    2.504724e-08    0.000000e+00
2.036780e-09    2.557441e-08    0.000000e+00
3.037113e-09    2.364149e-08    0.000000e+00
2.306553e-09    2.410762e-08    0.000000e+00
3.291912e-09    2.227202e-08    0.000000e+00
2.587553e-09    2.267681e-08    0.000000e+00
3.544991e-09    2.094672e-08    0.000000e+00
2.874196e-09    2.129074e-08    0.000000e+00
3.789220e-09    1.967448e-08    0.000000e+00
3.160016e-09    1.995898e-08    0.000000e+00
4.016038e-09    1.846544e-08    0.000000e+00
3.437105e-09    1.869246e-08    0.000000e+00
4.215112e-09    1.733087e-08    0.000000e+00
3.695903e-09    1.750354e-08    0.000000e+00
4.374903e-09    1.628504e-08    0.000000e+00
3.924970e-09    1.640703e-08    0.000000e+00
4.480897e-09    1.533774e-08    0.000000e+00
4.110884e-09    1.541932e-08    0.000000e+00
4.530292e-09    1.452214e-08    0.000000e+00
4.241764e-09    1.456470e-08    0.000000e+00
4.470521e-09    1.375474e-08    0.000000e+00
4.308214e-09    1.381569e-08    0.000000e+00
4.352698e-09    1.331800e-08    0.000000e+00
4.304420e-09    1.315355e-08    0.000000e+00
4.173226e-09    1.319096e-08    0.000000e+00
4.226901e-09    1.338663e-08    0.000000e+00
4.324534e-09    1.320808e-08    0.000000e+00
4.015507e-09    1.320414e-08    0.000000e+00
4.202019e-09    1.313071e-08    0.000000e+00
2.559896e-09    1.799542e-08    0.000000e+00
2.833190e-09    1.897053e-08    0.000000e+00
3.147828e-09    1.772540e-08    0.000000e+00
1.934861e-09    1.831085e-08    0.000000e+00
2.347851e-09    1.704844e-08    0.000000e+00
1.475584e-09    2.213597e-08    0.000000e+00
1.871647e-09    2.313518e-08    0.000000e+00
2.187143e-09    2.168796e-08    0.000000e+00
7.460627e-10    2.263424e-08    0.000000e+00
1.126207e-09    2.112005e-08    0.000000e+00
8.191692e-10    2.519629e-08    0.000000e+00
1.569671e-09    2.462700e-08    0.000000e+00
3.901641e-10    2.420342e-08    0.000000e+00
1.136650e-09    2.364401e-08    0.000000e+00
1.830251e-09    2.068328e-08    0.000000e+00
2.510044e-09    2.029585e-08    0.000000e+00
1.524782e-09    1.967388e-08    0.000000e+00
2.194303e-09    1.929834e-08    0.000000e+00
3.554588e-09    1.476006e-08    0.000000e+00
3.706394e-09    1.554188e-08    0.000000e+00
3.921674e-09    1.464435e-08    0.000000e+00
3.135469e-09    1.491132e-08    0.000000e+00
3.480636e-09    1.408999e-08    0.000000e+00
2.917227e-09    1.679099e-08    0.000000e+00
3.443164e-09    1.657585e-08    0.000000e+00
2.752770e-09    1.590658e-08    0.000000e+00
3.254518e-09    1.570376e-08    0.000000e+00
3.810254e-09    1.398061e-08    0.000000e+00
4.093502e-09    1.390065e-08    0.000000e+00
3.778498e-09    1.350502e-08    0.000000e+00
4.026036e-09    1.344215e-08    0.000000e+00
1.995596e-10    1.155501e-08    0.000000e+00
2.344527e-10    1.155169e-08    0.000000e+00
1.764289e-10    1.151867e-08    0.000000e+00
1.989587e-10    1.158740e-08    0.000000e+00
2.253627e-10    1.159988e-08    0.000000e+00
1.762021e-10    1.154150e-08    0.000000e+00
2.078916e-10    1.161133e-08    0.000000e+00
2.262602e-10    1.164142e-08    0.000000e+00
1.851342e-10    1.155751e-08    0.000000e+00
2.365435e-10    1.167333e-08    0.000000e+00
2.027452e-10    1.156460e-08    0.000000e+00
3.050960e-10    1.178753e-08    0.000000e+00
2.612317e-10    1.170781e-08    0.000000e+00
4.135341e-10    1.191186e-08    0.000000e+00
3.510786e-10    1.181162e-08    0.000000e+00
5.675194e-10    1.204785e-08    0.000000e+00
4.826280e-10    1.192428e-08    0.000000e+00
7.729450e-10    1.219620e-08    0.000000e+00
6.615997e-10    1.204689e-08    0.000000e+00
1.034930e-09    1.235635e-08    0.000000e+00
8.934581e-10    1.217988e-08    0.000000e+00
1.356504e-09    1.252602e-08    0.000000e+00
1.182348e-09    1.232274e-08    0.000000e+00
1.736953e-09    1.270062e-08    0.000000e+00
1.529725e-09    1.247361e-08    0.000000e+00
2.169820e-09    1.287263e-08    0.000000e+00
1.932682e-09    1.262890e-08    0.000000e+00
2.640540e-09    1.303105e-08    0.000000e+00
2.381928e-09    1.278276e-08    0.000000e+00
3.123996e-09    1.316062e-08    0.000000e+00
2.859572e-09    1.292665e-08    0.000000e+00
3.580867e-09    1.324150e-08    0.000000e+00
3.336502e-09    1.304890e-08    0.000000e+00
3.956104e-09    1.324432e-08    0.000000e+00
3.769636e-09    1.313344e-08    0.000000e+00
4.140477e-09    1.314559e-08    0.000000e+00
4.094069e-09    1.316174e-08    0.000000e+00
4.185001e-09    1.311612e-08    0.000000e+00
4.080228e-09    1.277766e-08    0.000000e+00
4.255663e-09    1.307662e-08    0.000000e+00
3.775307e-09    1.252093e-08    0.000000e+00
3.987925e-09    1.280254e-08    0.000000e+00
3.380627e-09    1.230215e-08    0.000000e+00
3.631617e-09    1.258578e-08    0.000000e+00
2.947671e-09    1.213304e-08    0.000000e+00
3.203725e-09    1.239954e-08    0.000000e+00
2.507591e-09    1.200158e-08    0.000000e+00
2.752522e-09    1.224615e-08    0.000000e+00
2.085224e-09    1.190106e-08    0.000000e+00
2.307459e-09    1.211956e-08    0.000000e+00
1.696452e-09    1.182411e-08    0.000000e+00
1.890372e-09    1.201538e-08    0.000000e+00
1.350824e-09    1.176462e-08    0.000000e+00
1.514489e-09    1.192902e-08    0.000000e+00
1.052815e-09    1.171741e-08    0.000000e+00
1.186933e-09    1.185644e-08    0.000000e+00
8.032056e-10    1.167830e-08    0.000000e+00
9.101077e-10    1.179411e-08    0.000000e+00
6.002257e-10    1.164409e-08    0.000000e+00
6.831087e-10    1.173911e-08    0.000000e+00
4.405336e-10    1.161248e-08    0.000000e+00
5.028929e-10    1.168916e-08    0.000000e+00
3.200213e-10    1.158195e-08    0.000000e+00
3.652497e-10    1.164255e-08    0.000000e+00
2.656001e-10    1.159810e-08    0.000000e+00
1.517094e-09    1.220052e-08    0.000000e+00
1.343739e-09    1.227051e-08    0.000000e+00
1.714478e-09    1.240490e-08    0.000000e+00
1.341363e-09    1.201794e-08    0.000000e+00
1.700185e-09    1.211563e-08    0.000000e+00
4.871240e-10    1.180967e-08    0.000000e+00
4.116415e-10    1.181927e-08    0.000000e+00
5.669307e-10    1.191889e-08    0.000000e+00
4.204215e-10    1.171818e-08    0.000000e+00
5.776250e-10    1.178314e-08    0.000000e+00
2.584037e-10    1.165699e-08    0.000000e+00
2.998637e-10    1.172720e-08    0.000000e+00
3.046190e-10    1.165749e-08    0.000000e+00
3.528313e-10    1.173068e-08    0.000000e+00
8.958879e-10    1.198801e-08    0.000000e+00
7.712019e-10    1.202702e-08    0.000000e+00
1.029183e-09    1.214424e-08    0.000000e+00
7.810607e-10    1.185365e-08    0.000000e+00
1.034836e-09    1.193130e-08    0.000000e+00
6.665023e-10    1.189507e-08    0.000000e+00
1.178979e-09    1.208955e-08    0.000000e+00
3.276778e-09    1.273649e-08    0.000000e+00
3.073630e-09    1.282768e-08    0.000000e+00
3.535245e-09    1.295603e-08    0.000000e+00
3.011752e-09    1.249559e-08    0.000000e+00
3.464245e-09    1.265660e-08    0.000000e+00
2.343034e-09    1.245190e-08    0.000000e+00
2.136057e-09    1.254532e-08    0.000000e+00
2.596220e-09    1.268808e-08    0.000000e+00
2.106572e-09    1.222649e-08    0.000000e+00
2.549906e-09    1.235254e-08    0.000000e+00
1.907755e-09    1.232137e-08    0.000000e+00
2.807606e-09    1.259106e-08    0.000000e+00
4.069291e-09    1.303143e-08    0.000000e+00
3.935111e-09    1.306362e-08    0.000000e+00
4.195849e-09    1.313042e-08    0.000000e+00
3.865894e-09    1.283670e-08    0.000000e+00
4.176302e-09    1.303131e-08    0.000000e+00
3.713531e-09    1.288482e-08    0.000000e+00
4.269135e-09    1.314249e-08    0.000000e+00
2.938172e-09    1.073547e-08    0.000000e+00
2.762941e-09    1.090721e-08    0.000000e+00
3.002943e-09    1.067314e-08    0.000000e+00
2.964202e-09    1.065964e-08    0.000000e+00
2.831817e-09    1.075734e-08    0.000000e+00
3.041681e-09    1.063166e-08    0.000000e+00
2.960158e-09    1.058705e-08    0.000000e+00
2.863620e-09    1.064227e-08    0.000000e+00
3.031879e-09    1.060985e-08    0.000000e+00
2.873162e-09    1.051988e-08    0.000000e+00
2.996523e-09    1.057599e-08    0.000000e+00
2.621628e-09    1.049508e-08    0.000000e+00
2.748412e-09    1.058096e-08    0.000000e+00
2.286749e-09    1.051642e-08    0.000000e+00
2.431253e-09    1.060666e-08    0.000000e+00
1.923257e-09    1.057380e-08    0.000000e+00
2.066029e-09    1.065862e-08    0.000000e+00
1.569105e-09    1.065432e-08    0.000000e+00
1.699561e-09    1.072715e-08    0.000000e+00
1.246620e-09    1.074850e-08    0.000000e+00
1.359416e-09    1.080619e-08    0.000000e+00
9.672211e-10    1.084962e-08    0.000000e+00
1.060231e-09    1.089127e-08    0.000000e+00
7.349279e-10    1.095310e-08    0.000000e+00
8.082194e-10    1.097921e-08    0.000000e+00
5.490943e-10    1.105624e-08    0.000000e+00
6.039714e-10    1.106797e-08    0.000000e+00
4.065901e-10    1.115790e-08    0.000000e+00
4.448561e-10    1.115654e-08    0.000000e+00
3.034823e-10    1.125816e-08    0.000000e+00
3.268967e-10    1.124470e-08    0.000000e+00
2.362834e-10    1.135808e-08    0.000000e+00
2.461772e-10    1.133297e-08    0.000000e+00
2.028151e-10    1.145946e-08    0.000000e+00
1.998456e-10    1.142243e-08    0.000000e+00
1.867714e-10    1.151460e-08    0.000000e+00
1.507180e-10    1.148327e-08    0.000000e+00
1.602171e-10    1.150694e-08    0.000000e+00
1.605118e-10    1.144916e-08    0.000000e+00
1.569737e-10    1.146063e-08    0.000000e+00
2.047014e-10    1.141759e-08    0.000000e+00
1.878861e-10    1.141655e-08    0.000000e+00
2.842867e-10    1.138976e-08    0.000000e+00
2.531922e-10    1.137533e-08    0.000000e+00
4.020481e-10    1.136647e-08    0.000000e+00
3.550948e-10    1.133748e-08    0.000000e+00
5.619012e-10    1.134766e-08    0.000000e+00
4.972477e-10    1.130309e-08    0.000000e+00
7.678960e-10    1.133195e-08    0.000000e+00
6.839060e-10    1.127146e-08    0.000000e+00
1.022802e-09    1.131602e-08    0.000000e+00
9.186909e-10    1.124075e-08    0.000000e+00
1.326210e-09    1.129401e-08    0.000000e+00
1.202898e-09    1.120747e-08    0.000000e+00
1.672144e-09    1.125680e-08    0.000000e+00
1.533315e-09    1.116597e-08    0.000000e+00
2.045968e-09    1.119160e-08    0.000000e+00
1.899455e-09    1.110806e-08    0.000000e+00
2.422439e-09    1.108089e-08    0.000000e+00
2.280641e-09    1.102262e-08    0.000000e+00
2.644214e-09    1.089803e-08    0.000000e+00
7.414040e-10    1.112915e-08    0.000000e+00
8.915298e-10    1.101816e-08    0.000000e+00
6.678998e-10    1.109226e-08    0.000000e+00
8.249328e-10    1.117860e-08    0.000000e+00
6.101113e-10    1.122410e-08    0.000000e+00
1.984413e-09    1.088138e-08    0.000000e+00
2.214377e-09    1.073897e-08    0.000000e+00
1.838927e-09    1.080414e-08    0.000000e+00
2.133046e-09    1.095546e-08    0.000000e+00
1.754727e-09    1.102631e-08    0.000000e+00
2.708705e-09    1.073388e-08    0.000000e+00
2.573557e-09    1.068300e-08    0.000000e+00
2.507829e-09    1.086588e-08    0.000000e+00
2.362948e-09    1.080886e-08    0.000000e+00
1.277716e-09    1.100943e-08    0.000000e+00
1.482561e-09    1.087332e-08    0.000000e+00
1.163833e-09    1.094496e-08    0.000000e+00
1.401310e-09    1.108339e-08    0.000000e+00
1.089012e-09    1.113267e-08    0.000000e+00
1.614851e-09    1.094748e-08    0.000000e+00
9.850994e-10    1.106949e-08    0.000000e+00
2.859356e-10    1.131354e-08    0.000000e+00
3.574318e-10    1.124207e-08    0.000000e+00
2.626046e-10    1.131799e-08    0.000000e+00
3.165877e-10    1.131994e-08    0.000000e+00
2.295971e-10    1.137153e-08    0.000000e+00
5.460220e-10    1.118935e-08    0.000000e+00
4.911321e-10    1.116692e-08    0.000000e+00
4.420299e-10    1.127091e-08    0.000000e+00
3.956235e-10    1.125069e-08    0.000000e+00
1.743954e-10    1.144505e-08    0.000000e+00
2.032121e-10    1.139525e-08    0.000000e+00
1.773547e-10    1.147471e-08    0.000000e+00
1.778573e-10    1.142568e-08    0.000000e+00
1.598637e-10    1.148233e-08    0.000000e+00
2.130603e-10    1.137821e-08    0.000000e+00
1.692168e-10    1.151455e-08    0.000000e+00
-2.444488e-12    -3.810458e-11    0.000000e+00
-1.330464e-14    -4.124184e-11    0.000000e+00
-6.420009e-14    -3.295339e-11    0.000000e+00
-7.840024e-12    -4.341892e-11    0.000000e+00
-4.041107e-12    -4.420272e-11    0.000000e+00
-5.697707e-12    -3.540916e-11    0.000000e+00
-1.488626e-11    -5.339637e-11    0.000000e+00
-8.531952e-12    -5.257531e-11    0.000000e+00
-1.289247e-11    -4.204366e-11    0.000000e+00
-2.500933e-11    -6.659561e-11    0.000000e+00
-1.404870e-11    -6.554910e-11    0.000000e+00
-2.335654e-11    -5.211976e-11    0.000000e+00
-4.017412e-11    -7.916311e-11    0.000000e+00
-2.140156e-11    -8.068627e-11    0.000000e+00
-3.929482e-11    -6.341700e-11    0.000000e+00
-6.385195e-11    -8.232775e-11    0.000000e+00
-3.218235e-11    -9.224334e-11    0.000000e+00
-6.377786e-11    -7.035932e-11    0.000000e+00
-1.018768e-10    -5.809371e-11    0.000000e+00
-4.988476e-11    -8.770678e-11    0.000000e+00
-1.010315e-10    -6.151409e-11    0.000000e+00
-1.693507e-10    2.679172e-11    0.000000e+00
-8.388430e-11    -4.356582e-11    0.000000e+00
-1.587463e-10    -1.274277e-11    0.000000e+00
-2.794135e-10    2.288235e-10    0.000000e+00
-1.502272e-10    8.776393e-11    0.000000e+00
-2.437534e-10    1.100789e-10    0.000000e+00
-5.052905e-10    6.268964e-10    0.000000e+00
-2.904464e-10    3.864238e-10    0.000000e+00
-3.782675e-10    3.720199e-10    0.000000e+00
-5.023994e-10    1.039818e-09    0.000000e+00
-1.098041e-09    1.974668e-09    0.000000e+00
-4.458717e-10    7.425234e-10    0.000000e+00
5.386054e-11    1.128115e-09    0.000000e+00
-1.993822e-10    6.374487e-10    0.000000e+00
-2.698391e-10    1.804540e-09    0.000000e+00
7.210975e-10    1.195187e-09    0.000000e+00
3.229595e-10    6.833801e-10    0.000000e+00
4.543242e-10    1.784678e-09    0.000000e+00
8.743255e-10    7.816641e-10    0.000000e+00
1.295196e-09    1.817346e-09    0.000000e+00
5.058301e-10    2.471688e-10    0.000000e+00
4.789321e-10    4.041781e-10    0.000000e+00
2.760826e-10    2.779996e-11    0.000000e+00
2.852982e-10    7.942946e-11    0.000000e+00
1.434734e-10    -5.867175e-11    0.000000e+00
1.607029e-10    -4.631853e-11    0.000000e+00
6.707780e-11    -8.610822e-11    0.000000e+00
8.368649e-11    -8.948337e-11    0.000000e+00
2.477409e-11    -8.665084e-11    0.000000e+00
3.800357e-11    -9.528463e-11    0.000000e+00
3.621081e-12    -7.680395e-11    0.000000e+00
1.275446e-11    -8.570010e-11    0.000000e+00
-4.578581e-12    -6.508134e-11    0.000000e+00
6.892359e-13    -7.193125e-11    0.000000e+00
-5.275765e-12    -5.576075e-11    0.000000e+00
-3.260881e-12    -5.971342e-11    0.000000e+00
-2.154095e-12    -5.075458e-11    0.000000e+00
-2.634632e-12    -5.169876e-11    0.000000e+00
9.921596e-14    -4.897882e-11    0.000000e+00
5.013107e-14    -4.637209e-11    0.000000e+00
-1.182164e-12    -4.857087e-11    0.000000e+00
-1.564278e-12    -4.501450e-11    0.000000e+00
8.279444e-12    -1.010520e-10    0.000000e+00
3.907215e-11    -1.014871e-10    0.000000e+00
1.561165e-11    -9.479390e-11    0.000000e+00
-1.285770e-11    -1.004291e-10    0.000000e+00
-1.106458e-11    -9.302061e-11    0.000000e+00
5.254167e-11    5.705807e-11    0.000000e+00
2.136780e-10    1.794474e-10    0.000000e+00
1.356106e-10    -1.452357e-11    0.000000e+00
-9.132277e-11    1.848529e-10    0.000000e+00
-3.790087e-11    -9.043853e-12    0.000000e+00
5.008450e-11    3.585040e-10    0.000000e+00
3.956287e-11    -6.242530e-11    0.000000e+00
7.773385e-11    -8.490524e-11    0.000000e+00
-1.828865e-11    -8.341732e-11    0.000000e+00
2.200764e-11    -9.978051e-11    0.000000e+00
-3.538013e-12    -7.183754e-11    0.000000e+00
3.108381e-12    -8.014229e-11    0.000000e+00
-2.080145e-12    -6.540846e-11    0.000000e+00
-9.471522e-12    -7.755261e-11    0.000000e+00
-7.284877e-12    -6.228158e-11    0.000000e+00
5.234285e-14    -8.795986e-11    0.000000e+00
-3.913710e-12    -5.817601e-11    0.000000e+00
-2.802978e-12    -5.435896e-11    0.000000e+00
-4.573296e-12    -5.094645e-11    0.000000e+00
-2.385992e-12    -4.939585e-11    0.000000e+00
-1.309346e-09    3.843772e-09    0.000000e+00
-7.899592e-10    2.765368e-09    0.000000e+00
-9.955725e-10    5.719118e-09    0.000000e+00
-6.990287e-10    4.639095e-09    0.000000e+00
-3.417952e-10    7.402230e-09    0.000000e+00
-2.295560e-10    6.412005e-09    0.000000e+00
4.888328e-10    8.730918e-09    0.000000e+00
4.611048e-10    7.916669e-09    0.000000e+00
1.334077e-09    9.668384e-09    0.000000e+00
1.227466e-09    9.060063e-09    0.000000e+00
2.070614e-09    1.024393e-08    0.000000e+00
1.941707e-09    9.840672e-09    0.000000e+00
2.613567e-09    1.052669e-08    0.000000e+00
2.510258e-09    1.030454e-08    0.000000e+00
2.922770e-09    1.060659e-08    0.000000e+00
2.876318e-09    1.052665e-08    0.000000e+00
3.022302e-09    1.059372e-08    0.000000e+00
3.123274e-09    1.036861e-08    0.000000e+00
3.093772e-09    1.053904e-08    0.000000e+00
3.131263e-09    9.937771e-09    0.000000e+00
3.118981e-09    1.024419e-08    0.000000e+00
3.027248e-09    9.334661e-09    0.000000e+00
3.004414e-09    9.800227e-09    0.000000e+00
2.826352e-09    8.518258e-09    0.000000e+00
2.759336e-09    9.152462e-09    0.000000e+00
2.557296e-09    7.468153e-09    0.000000e+00
2.411749e-09    8.256284e-09    0.000000e+00
2.256200e-09    6.196144e-09    0.000000e+00
2.008547e-09    7.096163e-09    0.000000e+00
1.952230e-09    4.748620e-09    0.000000e+00
1.604538e-09    5.691876e-09    0.000000e+00
1.647239e-09    3.225018e-09    0.000000e+00
1.248031e-09    4.113725e-09    0.000000e+00
9.608329e-10    2.510320e-09    0.000000e+00
1.841051e-09    8.664446e-09    0.000000e+00
1.222203e-09    8.316947e-09    0.000000e+00
1.879029e-09    9.296892e-09    0.000000e+00
1.901320e-09    7.910095e-09    0.000000e+00
2.375506e-09    8.921600e-09    0.000000e+00
2.870240e-10    4.356035e-09    0.000000e+00
-2.815437e-10    3.572270e-09    0.000000e+00
2.270753e-11    5.368564e-09    0.000000e+00
6.440120e-10    3.373185e-09    0.000000e+00
9.633699e-10    5.058488e-09    0.000000e+00
9.521383e-11    2.604705e-09    0.000000e+00
7.002129e-10    6.045238e-09    0.000000e+00
5.631010e-10    6.993516e-09    0.000000e+00
1.405148e-09    6.608370e-09    0.000000e+00
1.252212e-09    7.508497e-09    0.000000e+00
2.781059e-09    1.005679e-08    0.000000e+00
2.437254e-09    9.951799e-09    0.000000e+00
2.831710e-09    1.033844e-08    0.000000e+00
2.761372e-09    9.650968e-09    0.000000e+00
3.012516e-09    1.013925e-08    0.000000e+00
2.374072e-09    9.502651e-09    0.000000e+00
3.020219e-09    1.038770e-08    0.000000e+00
3.030662e-09    1.053193e-08    0.000000e+00
3.106131e-09    1.044543e-08    0.000000e+00
3.077725e-09    1.056648e-08    0.000000e+00
0.000000e+00    0.000000e+00    0.000000e+00
-1.946922e-14    -3.277484e-12    0.000000e+00
0.000000e+00    0.000000e+00    0.000000e+00
-1.669137e-12    -3.422155e-12    0.000000e+00
0.000000e+00    0.000000e+00    0.000000e+00
-3.973235e-12    -3.680207e-12    0.000000e+00
0.000000e+00    0.000000e+00    0.000000e+00
-7.623011e-12    -3.907898e-12    0.000000e+00
0.000000e+00    0.000000e+00    0.000000e+00
-1.345884e-11    -3.748937e-12    0.000000e+00
0.000000e+00    0.000000e+00    0.000000e+00
-2.239352e-11    -2.523780e-12    0.000000e+00
0.000000e+00    0.000000e+00    0.000000e+00
-3.502420e-11    9.779546e-13    0.000000e+00
0.000000e+00    0.000000e+00    0.000000e+00
-5.060495e-11    8.600435e-12    0.000000e+00
0.000000e+00    0.000000e+00    0.000000e+00
-6.478054e-11    2.259105e-11    0.000000e+00
0.000000e+00    0.000000e+00    0.000000e+00
-6.737677e-11    4.373995e-11    0.000000e+00
-3.054412e-11    7.154805e-11    0.000000e+00
-1.316756e-10    2.334574e-10    0.000000e+00
-1.076296e-10    1.245799e-10    0.000000e+00
-2.396247e-10    4.132420e-10    0.000000e+00
-2.130266e-10    2.726503e-10    0.000000e+00
-3.632381e-10    4.637761e-10    0.000000e+00
-8.124089e-14    -2.268213e-11    0.000000e+00
-2.911574e-12    -2.858103e-11    0.000000e+00
-6.142731e-14    -1.208786e-11    0.000000e+00
-2.626168e-12    -1.765575e-11    0.000000e+00
-1.541954e-12    -7.501523e-12    0.000000e+00
-7.262068e-11    -4.297648e-11    0.000000e+00
-8.974451e-11    -5.464257e-11    0.000000e+00
-5.602357e-11    -5.562066e-11    0.000000e+00
-5.753399e-11    -1.809266e-11    0.000000e+00
-8.522167e-11    -2.686666e-11    0.000000e+00
-5.345476e-11    -3.031568e-11    0.000000e+00
-5.284386e-11    -6.494015e-12    0.000000e+00
-3.298590e-11    -9.877415e-12    0.000000e+00
-2.293164e-10    9.850675e-11    0.000000e+00
-2.875868e-10    2.018637e-10    0.000000e+00
-2.066192e-10    4.303796e-11    0.000000e+00
-1.641682e-10    6.524526e-11    0.000000e+00
-2.187402e-10    1.382076e-10    0.000000e+00
-1.781654e-10    4.151509e-11    0.000000e+00
-1.247878e-10    6.737757e-11    0.000000e+00
-1.077256e-10    2.632945e-11    0.000000e+00
-2.768609e-10    2.596475e-10    0.000000e+00
-1.752399e-10    1.504758e-10    0.000000e+00
-1.278324e-10    -8.180802e-12    0.000000e+00
-1.130432e-10    -3.276750e-11    0.000000e+00
-8.895308e-11    -9.857618e-12    0.000000e+00
-1.673449e-10    6.218953e-12    0.000000e+00
-1.278097e-10    1.379849e-11    0.000000e+00
-1.383595e-10    -3.063191e-11    0.000000e+00
-7.905796e-11    3.664281e-12    0.000000e+00
-2.587669e-11    -3.445229e-11    0.000000e+00
-3.366482e-11    -4.806914e-11    0.000000e+00
-1.912663e-11    -3.925637e-11    0.000000e+00
-2.019626e-11    -1.698832e-11    0.000000e+00
-3.185250e-11    -2.755855e-11    0.000000e+00
-1.781560e-11    -2.330655e-11    0.000000e+00
-1.943722e-11    -1.008682e-11    0.000000e+00
-1.072336e-11    -9.172500e-12    0.000000e+00
-4.443910e-11    -4.067754e-11    0.000000e+00
-3.507241e-11    -1.892443e-11    0.000000e+00
-8.817727e-12    -1.971889e-11    0.000000e+00
-6.008226e-12    -2.430426e-11    0.000000e+00
-4.564045e-12    -1.285487e-11    0.000000e+00
-1.391466e-11    -2.841718e-11    0.000000e+00
-1.070948e-11    -1.461192e-11    0.000000e+00
-9.632139e-12    -3.236022e-11    0.000000e+00
-5.233634e-12    -8.158516e-12    0.000000e+00

CELL_DATA      259
TENSORS Element_Stress2.200000e+00 double
-6.114874e+02 -2.646218e+02        0
-2.646218e+02 -1.204669e+02        0
       0        0 1.104344e+02

-5.970612e+02 -2.220056e+02        0
-2.220056e+02 -1.142030e+02        0
       0        0 -2.777525e+02

-5.566804e+02 -2.632982e+02        0
-2.632982e+02 -1.293356e+02        0
       0        0 2.090370e+02

-4.834488e+02 -1.999916e+02        0
-1.999916e+02 -1.128859e+02        0
       0        0 -1.200139e+02

-6.655294e+02 -2.458994e+02        0
-2.458994e+02 -9.081393e+01        0
       0        0 5.190971e+02

-6.704777e+02 -2.627658e+02        0
-2.627658e+02 -1.031011e+02        0
       0        0 5.612145e+02

-7.072524e+02 -2.395665e+02        0
-2.395665e+02 -1.141264e+02        0
       0        0 -4.384042e+02

-6.653669e+02 -2.661047e+02        0
-2.661047e+02 -1.123020e+02        0
       0        0 1.091690e+01

-6.631654e+02 -2.312266e+02        0
-2.312266e+02 -8.040692e+01        0
       0        0 4.757229e+02

-1.274046e+03 -4.039178e+02        0
-4.039178e+02 -1.784507e+02        0
       0        0 -1.154551e+03

5.522456e+02 -1.861203e+02        0
-1.861203e+02 -3.008879e+01        0
       0        0 7.461317e+02

-1.307099e+03 -4.018594e+02        0
-4.018594e+02 -7.576188e+02        0
       0        0 -1.187104e+03

8.832854e+02 -1.467730e+02        0
-1.467730e+02 -1.197991e+02        0
       0        0 9.203181e+02

-2.985552e+03 -3.077131e+02        0
-3.077131e+02 -3.567383e+02        0
       0        0 -3.038683e+03

-3.760577e+03 -8.816192e+02        0
-8.816192e+02 -1.982215e+03        0
       0        0 -3.565328e+03

2.400175e+02 -1.621023e+02        0
-1.621023e+02 -1.805722e+01        0
       0        0 5.669939e+02

-1.200161e+03 -3.686968e+02        0
-3.686968e+02 -9.009965e+01        0
       0        0 -1.103159e+03

-2.595519e+03 -3.016252e+02        0
-3.016252e+02 -1.858632e+02        0
       0        0 -2.727407e+03

-1.099033e+03 -3.296895e+02        0
-3.296895e+02 -7.627153e+01        0
       0        0 -9.309490e+02

-2.010665e+02 -1.434170e+02        0
-1.434170e+02 -2.459827e+01        0
       0        0 3.488057e+02

-1.145999e+03 -3.464019e+02        0
-3.464019e+02 -7.742986e+01        0
       0        0 -1.025506e+03

-7.847156e+00 -1.463995e+02        0
-1.463995e+02 -2.023167e+01        0
       0        0 4.355275e+02

-2.009946e+03 -3.156185e+02        0
-3.156185e+02 -1.222949e+02        0
       0        0 -2.175002e+03

-2.280721e+03 -3.118033e+02        0
-3.118033e+02 -1.416332e+02        0
       0        0 -2.445718e+03

-3.502817e+02 -1.474693e+02        0
-1.474693e+02 -2.944816e+01        0
       0        0 2.980700e+02

-1.051057e+03 -3.158867e+02        0
-3.158867e+02 -7.813603e+01        0
       0        0 -8.243648e+02

-1.774285e+03 -3.146013e+02        0
-3.146013e+02 -1.139023e+02        0
       0        0 -1.916397e+03

-9.485750e+02 -2.943969e+02        0
-2.943969e+02 -8.501241e+01        0
       0        0 -5.898810e+02

-5.424283e+02 -1.662275e+02        0
-1.662275e+02 -4.059616e+01        0
       0        0 2.781907e+02

-1.000902e+03 -3.042552e+02        0
-3.042552e+02 -8.131616e+01        0
       0        0 -7.097291e+02

-4.620802e+02 -1.556549e+02        0
-1.556549e+02 -3.479652e+01        0
       0        0 2.764159e+02

-1.386719e+03 -3.025945e+02        0
-3.025945e+02 -1.088124e+02        0
       0        0 -1.436123e+03

-1.568158e+03 -3.099343e+02        0
-3.099343e+02 -1.101381e+02        0
       0        0 -1.670087e+03

-5.969688e+02 -1.780686e+02        0
-1.780686e+02 -4.689811e+01        0
       0        0 2.985064e+02

-8.942660e+02 -2.861073e+02        0
-2.861073e+02 -8.901439e+01        0
       0        0 -4.670391e+02

-1.225588e+03 -2.932862e+02        0
-2.932862e+02 -1.087109e+02        0
       0        0 -1.214085e+03

-7.806324e+02 -2.736161e+02        0
-2.736161e+02 -9.826284e+01        0
       0        0 -2.190415e+02

-6.501890e+02 -2.034515e+02        0
-2.034515e+02 -6.147465e+01        0
       0        0 3.777965e+02

-8.381872e+02 -2.792232e+02        0
-2.792232e+02 -9.337181e+01        0
       0        0 -3.429374e+02

-6.311524e+02 -1.905493e+02        0
-1.905493e+02 -5.380020e+01        0
       0        0 3.330240e+02

-9.474260e+02 -2.699604e+02        0
-2.699604e+02 -1.100346e+02        0
       0        0 -8.025333e+02

-1.080536e+03 -2.823937e+02        0
-2.823937e+02 -1.092307e+02        0
       0        0 -1.003221e+03

-6.591559e+02 -2.170540e+02        0
-2.170540e+02 -7.021083e+01        0
       0        0 4.286484e+02

-7.218539e+02 -2.690952e+02        0
-2.690952e+02 -1.043047e+02        0
       0        0 -9.762688e+01

-8.223923e+02 -2.556317e+02        0
-2.556317e+02 -1.108007e+02        0
       0        0 -6.113335e+02

-6.798680e+02 -2.826553e+02        0
-2.826553e+02 -1.177753e+02        0
       0        0 5.991103e+02

-5.011823e+02 -2.618455e+02        0
-2.618455e+02 -1.394805e+02        0
       0        0 3.037698e+02

-3.647610e+02 -1.726106e+02        0
-1.726106e+02 -1.097220e+02        0
       0        0 3.430860e+01

-7.180076e+02 -3.347244e+02        0
-3.347244e+02 -1.567214e+02        0
       0        0 6.541836e+02

-6.952295e+02 -3.063680e+02        0
-3.063680e+02 -1.354364e+02        0
       0        0 6.307852e+02

-1.062811e+02 -9.726555e+01        0
-9.726555e+01 -9.477467e+01        0
       0        0 3.332579e+02

-3.889385e+02 -2.579632e+02        0
-2.579632e+02 -1.639443e+02        0
       0        0 4.770668e+02

-2.394427e+02 -1.387629e+02        0
-1.387629e+02 -1.039445e+02        0
       0        0 1.854334e+02

-4.452089e+02 -2.601139e+02        0
-2.601139e+02 -1.510022e+02        0
       0        0 3.935079e+02

-7.493771e+02 -3.687588e+02        0
-3.687588e+02 -1.823933e+02        0
       0        0 6.671398e+02

-3.327590e+02 -2.552635e+02        0
-2.552635e+02 -1.781806e+02        0
       0        0 5.530179e+02

3.594581e+01 -4.712390e+01        0
-4.712390e+01 -8.086636e+01        0
       0        0 4.775395e+02

-8.413930e+02 -4.569640e+02        0
-4.569640e+02 -2.493163e+02        0
       0        0 6.527041e+02

-7.908792e+02 -4.084908e+02        0
-4.084908e+02 -2.123692e+02        0
       0        0 6.674360e+02

3.526802e+02 8.438388e+01        0
8.438388e+01 -3.555130e+01        0
       0        0 7.520436e+02

-2.267950e+02 -2.487115e+02        0
-2.487115e+02 -2.106192e+02        0
       0        0 6.733017e+02

1.884388e+02 1.272499e+01        0
1.272499e+01 -6.241570e+01        0
       0        0 6.172112e+02

-2.771602e+02 -2.526409e+02        0
-2.526409e+02 -1.934596e+02        0
       0        0 6.196655e+02

-9.076164e+02 -5.031809e+02        0
-5.031809e+02 -2.869871e+02        0
       0        0 6.209233e+02

-1.826938e+02 -2.398693e+02        0
-2.398693e+02 -2.570559e+02        0
       0        0 7.038012e+02

4.896724e+02 1.802004e+02        0
1.802004e+02 -3.465826e+00        0
       0        0 8.667924e+02

-9.872235e+02 -5.456760e+02        0
-5.456760e+02 -1.001148e+03        0
       0        0 3.483741e+02

-9.813535e+02 -5.957145e+02        0
-5.957145e+02 -4.558067e+02        0
       0        0 5.353380e+02

1.124890e+02 3.346411e+02        0
3.346411e+02 2.939838e+02        0
       0        0 9.199615e+02

-3.046613e+02 1.220526e+02        0
1.220526e+02 -2.508539e+02        0
       0        0 7.008837e+02

4.047532e+02 3.094589e+02        0
3.094589e+02 7.386110e+01        0
       0        0 9.102665e+02

-1.672207e+02 -8.903483e+01        0
-8.903483e+01 -3.335811e+02        0
       0        0 7.060639e+02

1.386623e+01 -2.376572e+01        0
-2.376572e+01 -6.833375e+02        0
       0        0 6.234056e+02

1.135581e+01 -8.751693e+01        0
-8.751693e+01 2.085985e+01        0
       0        0 7.301724e+02

1.532656e+01 -1.387677e+02        0
-1.387677e+02 2.619322e+02        0
       0        0 8.781935e+02

1.384390e+01 -4.767875e+01        0
-4.767875e+01 -2.916783e+02        0
       0        0 4.606615e+02

9.744439e+00 -1.487869e+01        0
-1.487869e+01 -2.423384e+02        0
       0        0 4.837668e+02

2.002009e+01 -8.108543e+01        0
-8.108543e+01 -2.953498e+02        0
       0        0 5.575931e+02

1.206743e+01 -2.098758e+01        0
-2.098758e+01 -3.482607e+02        0
       0        0 5.482388e+02

2.919573e+00 -1.422765e+01        0
-1.422765e+01 -2.907573e+02        0
       0        0 4.490320e+02

6.960160e+00 -4.673188e+01        0
-4.673188e+01 -1.609444e+02        0
       0        0 5.843425e+02

5.139638e+00 1.084462e+00        0
1.084462e+00 -2.875985e+02        0
       0        0 2.797901e+02

5.052952e+00 -1.162954e+00        0
-1.162954e+00 -1.270567e+02        0
       0        0 3.388028e+02

9.099066e+00 -2.043136e+01        0
-2.043136e+01 -2.892294e+02        0
       0        0 3.666573e+02

7.262246e+00 -7.879536e+00        0
-7.879536e+00 -1.706294e+02        0
       0        0 4.120158e+02

-2.084310e+00 2.768621e+01        0
2.768621e+01 -4.325824e+02        0
       0        0 2.259491e+02

2.498725e-02 1.005662e+01        0
1.005662e+01 -3.785908e+02        0
       0        0 3.288068e+02

-3.659322e-01 2.884232e+01        0
2.884232e+01 -2.865970e+02        0
       0        0 1.364481e+02

1.419430e+00 1.043775e+01        0
1.043775e+01 -9.965402e+01        0
       0        0 2.035460e+02

2.006879e+00 1.729904e+01        0
1.729904e+01 -2.867500e+02        0
       0        0 2.026420e+02

3.083580e+00 5.034486e+00        0
5.034486e+00 -1.052646e+02        0
       0        0 2.683579e+02

-4.443549e+00 4.699747e+01        0
4.699747e+01 -4.699029e+02        0
       0        0 7.294899e+01

-3.542182e+00 3.963804e+01        0
3.963804e+01 -4.606745e+02        0
       0        0 1.409172e+02

-3.133565e+00 4.064207e+01        0
4.064207e+01 -2.879836e+02        0
       0        0 3.731012e+01

-9.654119e-01 1.836832e+01        0
1.836832e+01 -1.179984e+02        0
       0        0 9.709126e+01

-2.050030e+00 3.639256e+01        0
3.639256e+01 -2.870421e+02        0
       0        0 8.147168e+01

7.032428e-02 1.490616e+01        0
1.490616e+01 -1.052927e+02        0
       0        0 1.461428e+02

-5.032496e+00 5.190488e+01        0
5.190488e+01 -4.553084e+02        0
       0        0 -1.859121e+01

-4.906882e+00 5.077843e+01        0
5.077843e+01 -4.664049e+02        0
       0        0 2.045149e+01

-3.862690e+00 4.184476e+01        0
4.184476e+01 -2.909321e+02        0
       0        0 -2.194373e+01

-2.166144e+00 2.227819e+01        0
2.227819e+01 -1.515009e+02        0
       0        0 2.502117e+01

-3.707670e+00 4.225515e+01        0
4.225515e+01 -2.893216e+02        0
       0        0 3.162135e+00

-1.702753e+00 2.081475e+01        0
2.081475e+01 -1.343233e+02        0
       0        0 5.673363e+01

-4.623662e+00 4.930196e+01        0
4.930196e+01 -4.259267e+02        0
       0        0 -6.477760e+01

-4.910570e+00 5.118418e+01        0
5.118418e+01 -4.407509e+02        0
       0        0 -4.632198e+01

-2.375638e+00 2.279300e+01        0
2.279300e+01 -1.671791e+02        0
       0        0 1.751155e+00

-3.685161e+00 3.992627e+01        0
3.992627e+01 -2.922330e+02        0
       0        0 -3.884375e+01

-4.233019e+00 4.681659e+01        0
4.681659e+01 -4.129574e+02        0
       0        0 -7.564911e+01

3.195393e+01 -1.665570e+02        0
-1.665570e+02 -3.193555e+02        0
       0        0 7.266958e+02

1.559801e+01 -2.718723e+01        0
-2.718723e+01 -4.968535e+02        0
       0        0 5.976484e+02

2.628573e+01 -1.193785e+02        0
-1.193785e+02 -3.002691e+02        0
       0        0 6.506068e+02

-8.687962e+01 1.453239e+02        0
1.453239e+02 5.133346e+02        0
       0        0 9.563111e+02

-5.273005e+01 -1.030304e+02        0
-1.030304e+02 4.890309e+02        0
       0        0 9.663994e+02

-4.213581e+02 -2.850446e+02        0
-2.850446e+02 -1.276595e+03        0
       0        0 4.163983e+02

-3.833808e+02 -4.441133e+01        0
-4.441133e+01 -1.248118e+02        0
       0        0 7.301357e+02

-1.474073e+01 -5.439173e+01        0
-5.439173e+01 -9.690179e+02        0
       0        0 5.925404e+02

-8.903965e+01 -1.953065e+02        0
-1.953065e+02 -2.764212e+02        0
       0        0 7.594527e+02

-3.747978e+01 3.514874e+01        0
3.514874e+01 5.751422e+01        0
       0        0 6.679302e+02

-9.776414e+01 1.677554e+02        0
1.677554e+02 -2.813197e+02        0
       0        0 5.676500e+02

-7.797961e+01 2.059217e+02        0
2.059217e+02 -6.849870e+02        0
       0        0 4.658420e+02

-2.489388e+01 6.571191e+01        0
6.571191e+01 -8.061553e+01        0
       0        0 5.626681e+02

-4.707610e+01 1.485815e+02        0
1.485815e+02 -3.014697e+02        0
       0        0 4.982970e+02

-2.662422e+01 1.232529e+02        0
1.232529e+02 -5.130170e+02        0
       0        0 4.450216e+02

-1.596556e+01 6.938866e+01        0
6.938866e+01 -2.182741e+02        0
       0        0 4.417284e+02

-2.178075e+01 1.165435e+02        0
1.165435e+02 -3.057012e+02        0
       0        0 4.143818e+02

-9.473953e+00 8.121189e+01        0
8.121189e+01 -3.673390e+02        0
       0        0 3.982389e+02

-8.810256e+00 5.670721e+01        0
5.670721e+01 -3.856035e+02        0
       0        0 2.252399e+02

-1.179554e+01 6.336078e+01        0
6.336078e+01 -3.216055e+02        0
       0        0 3.257249e+02

-2.507521e+00 3.746640e+01        0
3.746640e+01 -2.161399e+02        0
       0        0 2.643819e+02

-7.942942e+00 6.245446e+01        0
6.245446e+01 -3.058921e+02        0
       0        0 2.422394e+02

-5.111933e+00 5.539983e+01        0
5.539983e+01 -2.728762e+02        0
       0        0 3.335035e+02

-1.308956e+01 8.597187e+01        0
8.597187e+01 -3.057883e+02        0
       0        0 3.257761e+02

-4.887948e+00 4.578862e+01        0
4.578862e+01 -4.329846e+02        0
       0        0 7.576424e+01

-6.544512e+00 5.073827e+01        0
5.073827e+01 -4.197370e+02        0
       0        0 1.420984e+02

-2.759180e-01 1.897975e+01        0
1.897975e+01 -1.760611e+02        0
       0        0 1.376821e+02

-2.146055e+00 3.435809e+01        0
3.435809e+01 -3.055939e+02        0
       0        0 1.057695e+02

-1.002728e+00 2.577085e+01        0
2.577085e+01 -1.867740e+02        0
       0        0 1.977416e+02

-4.380103e+00 4.557569e+01        0
4.557569e+01 -3.059236e+02        0
       0        0 1.682904e+02

-3.772984e+00 4.205605e+01        0
4.205605e+01 -4.328428e+02        0
       0        0 2.454336e+01

-9.542860e-01 2.777897e+01        0
2.777897e+01 -3.048794e+02        0
       0        0 5.496403e+01

-1.188663e-01 1.580079e+01        0
1.580079e+01 -1.766790e+02        0
       0        0 8.643199e+01

-2.816987e+00 3.845268e+01        0
3.845268e+01 -4.152983e+02        0
       0        0 -4.157188e+01

-3.111351e+00 3.961500e+01        0
3.961500e+01 -4.253753e+02        0
       0        0 -1.379784e+01

-7.592043e-01 1.601375e+01        0
1.601375e+01 -1.900323e+02        0
       0        0 1.351781e+01

-6.847091e-01 2.468431e+01        0
2.468431e+01 -3.023191e+02        0
       0        0 -1.432113e+01

-3.327601e-01 1.512212e+01        0
1.512212e+01 -1.828159e+02        0
       0        0 4.496675e+01

-5.445220e-01 2.485355e+01        0
2.485355e+01 -3.037789e+02        0
       0        0 1.527105e+01

-3.014471e+00 3.958025e+01        0
3.958025e+01 -4.002514e+02        0
       0        0 -7.320181e+01

-2.809214e+00 3.848726e+01        0
3.848726e+01 -4.061138e+02        0
       0        0 -6.084201e+01

-1.763061e+00 1.966275e+01        0
1.966275e+01 -1.959408e+02        0
       0        0 -1.986033e+01

-1.862302e+00 2.952315e+01        0
2.952315e+01 -2.984998e+02        0
       0        0 -4.723958e+01

-1.270333e+00 1.772517e+01        0
1.772517e+01 -1.951176e+02        0
       0        0 -8.031733e+00

-1.179073e+00 2.647521e+01        0
2.647521e+01 -3.005414e+02        0
       0        0 -3.487280e+01

-3.795535e+00 4.409109e+01        0
4.409109e+01 -4.035429e+02        0
       0        0 -8.045287e+01

-3.365984e+00 4.153520e+01        0
4.153520e+01 -3.991901e+02        0
       0        0 -7.963768e+01

-2.371384e+00 2.247315e+01        0
2.247315e+01 -1.810329e+02        0
       0        0 -1.435675e+01

-3.240972e+00 3.688619e+01        0
3.688619e+01 -2.939085e+02        0
       0        0 -4.891625e+01

-2.156079e+00 2.136392e+01        0
2.136392e+01 -1.913366e+02        0
       0        0 -2.202382e+01

-2.592509e+00 3.319271e+01        0
3.319271e+01 -2.962614e+02        0
       0        0 -5.190961e+01

9.466654e+02 -1.805803e+02        0
-1.805803e+02 7.100267e+00        0
       0        0 4.688954e+02

1.205050e+03 -5.861829e+01        0
-5.861829e+01 -5.429970e+01        0
       0        0 6.094232e+02

-6.658966e+02 3.336857e+01        0
3.336857e+01 -2.325458e+01        0
       0        0 -3.076849e+02

-1.393246e-01 -2.484575e+02        0
-2.484575e+02 3.143104e+01        0
       0        0 3.686299e+01

-1.411237e+03 3.004101e+02        0
3.004101e+02 -7.627869e+02        0
       0        0 -8.191217e+02

-1.600034e+02 -1.763540e+01        0
-1.763540e+01 -3.481612e+02        0
       0        0 -1.283568e+02

6.137160e+02 -1.330139e+02        0
-1.330139e+02 1.920176e+01        0
       0        0 3.096281e+02

9.630200e+01 -2.209785e+02        0
-2.209785e+02 8.322955e+01        0
       0        0 8.037553e+01

-2.950678e+02 -9.714078e+01        0
-9.714078e+01 9.894486e+01        0
       0        0 -1.204956e+02

2.252858e+02 -5.642629e+01        0
-5.642629e+01 8.674470e+00        0
       0        0 1.134893e+02

3.796914e+02 -8.598237e+01        0
-8.598237e+01 1.293717e+01        0
       0        0 1.927665e+02

-5.974002e+01 -1.102918e+02        0
-1.102918e+02 8.508185e+01        0
       0        0 -2.262764e+01

8.264946e+01 -1.191490e+02        0
-1.191490e+02 4.608641e+01        0
       0        0 4.937056e+01

-1.317379e+02 -1.235912e+02        0
-1.235912e+02 1.004179e+02        0
       0        0 -5.035366e+01

1.091179e+02 -1.660550e+02        0
-1.660550e+02 6.326298e+01        0
       0        0 7.121568e+01

5.807966e+01 -2.372821e+01        0
-2.372821e+01 4.511470e+00        0
       0        0 2.469170e+01

1.238268e+02 -3.700738e+01        0
-3.700738e+01 6.062421e+00        0
       0        0 6.007180e+01

-1.809727e+01 -5.941023e+01        0
-5.941023e+01 5.665079e+01        0
       0        0 -9.332465e+00

2.552659e+01 -5.483154e+01        0
-5.483154e+01 2.658483e+01        0
       0        0 1.264576e+01

-3.041946e+01 -8.505064e+01        0
-8.505064e+01 7.006698e+01        0
       0        0 -1.249036e+01

5.137275e+01 -8.276310e+01        0
-8.276310e+01 3.453499e+01        0
       0        0 2.873535e+01

1.737007e+01 -1.432126e+01        0
-1.432126e+01 3.433829e+00        0
       0        0 2.242842e+00

7.439166e+00 -3.386243e+01        0
-3.386243e+01 2.074695e+01        0
       0        0 1.363909e+00

-1.292336e+01 -3.776063e+01        0
-3.776063e+01 4.550860e+01        0
       0        0 -8.934054e+00

-1.636863e+01 -2.308002e+00        0
-2.308002e+00 2.406688e+00        0
       0        0 -1.660131e+01

-5.725898e+00 -7.560624e+00        0
-7.560624e+00 2.737879e+00        0
       0        0 -1.079630e+01

-9.863176e+00 -6.485150e+00        0
-6.485150e+00 3.369239e+01        0
       0        0 -9.722064e+00

-8.786782e+00 -5.701754e+00        0
-5.701754e+00 1.493815e+01        0
       0        0 -8.840586e+00

-1.073468e+01 -2.053148e+01        0
-2.053148e+01 3.760338e+01        0
       0        0 -9.343063e+00

-3.545292e+00 -1.814139e+01        0
-1.814139e+01 1.683776e+01        0
       0        0 -5.616746e+00

-1.028286e+03 4.671610e+02        0
4.671610e+02 -1.143396e+02        0
       0        0 -6.214328e+02

-2.017014e+03 7.495591e+02        0
7.495591e+02 -4.656626e+02        0
       0        0 -1.010552e+03

1.168944e+02 3.335426e+02        0
3.335426e+02 -1.137224e+02        0
       0        0 4.153915e+02

-4.024012e+02 6.288613e+02        0
6.288613e+02 -1.722220e+02        0
       0        0 -1.049909e+02

8.727574e+02 2.119097e+02        0
2.119097e+02 -7.439891e+01        0
       0        0 5.828899e+02

-3.990888e+02 6.225754e+02        0
6.225754e+02 -3.828278e+02        0
       0        0 -2.006496e+02

-3.814128e+02 3.100568e+02        0
3.100568e+02 -1.591284e+02        0
       0        0 -3.207713e+02

-3.164708e+02 5.028197e+02        0
5.028197e+02 -2.867018e+02        0
       0        0 -1.505824e+01

-4.842596e+02 4.121974e+02        0
4.121974e+02 -2.348015e+02        0
       0        0 2.779126e+02

1.465324e+02 -4.157086e+01        0
-4.157086e+01 -4.103010e+01        0
       0        0 2.768458e+02

-1.410135e+01 1.242205e+02        0
1.242205e+02 -1.257348e+02        0
       0        0 -7.153234e+00

-8.752183e+02 6.412043e+02        0
6.412043e+02 -5.399454e+02        0
       0        0 2.468943e+02

-2.700098e+02 2.854722e+02        0
2.854722e+02 -3.502070e+02        0
       0        0 2.729959e+02

-7.934833e+02 5.352838e+02        0
5.352838e+02 -3.796092e+02        0
       0        0 2.311267e+02

-2.778401e+02 3.784803e+02        0
3.784803e+02 -3.457693e+02        0
       0        0 1.208510e+02

1.235166e+02 -1.764864e+02        0
-1.764864e+02 1.623053e+02        0
       0        0 6.668451e+02

1.706369e+02 -1.436809e+02        0
-1.436809e+02 6.744841e+01        0
       0        0 5.061156e+02

-6.467469e+02 6.659549e+02        0
6.659549e+02 -8.120406e+02        0
       0        0 3.572945e+02

-2.585828e+02 1.953509e+02        0
1.953509e+02 -3.001044e+02        0
       0        0 5.240617e+02

-8.024511e+02 6.883437e+02        0
6.883437e+02 -6.922954e+02        0
       0        0 2.970990e+02

-2.679756e+02 2.263798e+02        0
2.263798e+02 -3.281214e+02        0
       0        0 4.137131e+02

5.530341e+01 -1.518292e+02        0
-1.518292e+02 2.171952e+02        0
       0        0 7.562963e+02

-2.358963e+02 1.826068e+02        0
1.826068e+02 -2.788427e+02        0
       0        0 5.942448e+02

-4.665074e+02 5.838976e+02        0
5.838976e+02 -8.789680e+02        0
       0        0 4.105090e+02

-3.339856e+01 -2.280144e+01        0
-2.280144e+01 1.644374e+02        0
       0        0 7.455870e+02

-2.245848e+00 -9.226493e+01        0
-9.226493e+01 2.182630e+02        0
       0        0 7.792844e+02

-1.734838e+02 3.296400e+02        0
3.296400e+02 -8.191182e+02        0
       0        0 4.640089e+02

-1.529549e+02 1.727322e+02        0
1.727322e+02 -2.654585e+02        0
       0        0 6.120767e+02

-3.013170e+02 4.638844e+02        0
4.638844e+02 -8.830441e+02        0
       0        0 4.469347e+02

-1.997602e+02 1.780389e+02        0
1.780389e+02 -2.690339e+02        0
       0        0 6.220910e+02

-4.336836e+02 3.953667e+02        0
3.953667e+02 -3.957737e+02        0
       0        0 -3.793665e+02

-7.381341e+02 3.566029e+02        0
3.566029e+02 -2.471220e+02        0
       0        0 -4.457006e+02

-3.342349e+02 5.757211e+02        0
5.757211e+02 -1.040027e+03        0
       0        0 -5.392382e+02

-1.047417e+03 9.298552e+02        0
9.298552e+02 -1.225770e+03        0
       0        0 -8.709727e+02

-2.329630e+02 3.051779e+02        0
3.051779e+02 -4.992861e+02        0
       0        0 -2.551747e+02

-2.930072e+02 3.482065e+02        0
3.482065e+02 -4.879955e+02        0
       0        0 -3.247973e+02

-1.978725e+02 2.926823e+02        0
2.926823e+02 -8.121376e+02        0
       0        0 -3.282141e+02

-1.917641e+02 3.982551e+02        0
3.982551e+02 -8.825611e+02        0
       0        0 -3.967694e+02

-1.792732e+02 1.563164e+01        0
1.563164e+01 8.481836e+01        0
       0        0 -9.979819e+01

-1.536578e+02 -5.384264e+01        0
-5.384264e+01 9.849924e+01        0
       0        0 -7.809515e+01

-2.719825e+02 6.996744e+01        0
6.996744e+01 3.344945e+01        0
       0        0 -1.634083e+02

-2.599987e+02 -2.054218e+01        0
-2.054218e+01 8.309618e+01        0
       0        0 -1.350043e+02

-3.819484e+02 1.931927e+02        0
1.931927e+02 -1.039271e+02        0
       0        0 -2.595906e+02

-4.351298e+02 8.856213e+01        0
8.856213e+01 1.274386e+01        0
       0        0 -2.371755e+02

-6.546379e+01 1.195092e+02        0
1.195092e+02 7.170868e+00        0
       0        0 -4.055873e+01

-1.477096e+02 7.677535e+01        0
7.677535e+01 5.262153e+01        0
       0        0 -8.642668e+01

-1.172935e+02 1.816061e+02        0
1.816061e+02 -7.702668e+01        0
       0        0 -8.758609e+01

-2.205098e+02 1.345148e+02        0
1.345148e+02 -2.292552e+01        0
       0        0 -1.461520e+02

-1.801832e+02 2.531174e+02        0
2.531174e+02 -2.375557e+02        0
       0        0 -1.599074e+02

-2.880119e+02 2.273575e+02        0
2.273575e+02 -1.919776e+02        0
       0        0 -2.306250e+02

-6.384837e+01 -9.476427e+00        0
-9.476427e+00 8.831245e+01        0
       0        0 -3.478883e+01

-5.258476e+01 -4.073818e+01        0
-4.073818e+01 8.005333e+01        0
       0        0 -2.848591e+01

-1.103179e+02 -4.589635e+00        0
-4.589635e+00 9.545728e+01        0
       0        0 -5.923564e+01

-9.056832e+01 -5.260881e+01        0
-5.260881e+01 9.294625e+01        0
       0        0 -4.630179e+01

-8.541520e+00 4.304245e+01        0
4.304245e+01 5.653126e+01        0
       0        0 1.187938e+00

-4.851088e+01 2.207898e+01        0
2.207898e+01 7.966846e+01        0
       0        0 -2.455454e+01

-3.002382e+01 7.374558e+01        0
7.374558e+01 4.444112e+01        0
       0        0 -1.320394e+01

-8.896561e+01 4.193262e+01        0
4.193262e+01 7.812334e+01        0
       0        0 -4.767725e+01

-1.057986e+01 -1.752013e+00        0
-1.752013e+00 5.994527e+01        0
       0        0 -1.028679e+01

-1.226148e+01 -4.816336e+00        0
-4.816336e+00 5.050149e+01        0
       0        0 -1.200066e+01

-1.831544e+01 -5.306723e+00        0
-5.306723e+00 6.568584e+01        0
       0        0 -1.341425e+01

-1.795255e+01 -1.517183e+01        0
-1.517183e+01 5.592761e+01        0
       0        0 -1.397026e+01

-3.481090e+01 -8.391846e+00        0
-8.391846e+00 7.620332e+01        0
       0        0 -2.081930e+01

-3.026897e+01 -2.720603e+01        0
-2.720603e+01 6.644236e+01        0
       0        0 -1.886070e+01

1.183480e+01 3.387390e+00        0
3.387390e+00 5.226939e+01        0
       0        0 1.196323e+01

-2.337350e+00 1.410399e+00        0
1.410399e+00 6.014972e+01        0
       0        0 -2.076976e+00

9.314731e+00 1.141949e+01        0
1.141949e+01 5.452256e+01        0
       0        0 1.095320e+01

-8.960596e+00 4.928467e+00        0
4.928467e+00 6.478456e+01        0
       0        0 -4.890567e+00

3.362568e+00 2.354237e+01        0
2.354237e+01 5.730246e+01        0
       0        0 8.058154e+00

-2.319170e+01 1.098415e+01        0
1.098415e+01 7.258206e+01        0
       0        0 -1.158543e+01

POINT_DATA     938
VECTORS DISPLACEMENT_2.400000e+00 double
2.472655e-09    2.069585e-08    0.000000e+00
2.688203e-09    1.951516e-08    0.000000e+00
2.262696e-09    2.190427e-08    0.000000e+00
-8.293031e-10    2.092458e-08    0.000000e+00
-4.962570e-10    1.950838e-08    0.000000e+00
-1.310695e-10    1.814220e-08    0.000000e+00
2.624200e-10    1.683926e-08    0.000000e+00
6.794988e-10    1.561462e-08    0.000000e+00
1.114047e-09    1.448580e-08    0.000000e+00
1.558403e-09    1.347345e-08    0.000000e+00
2.002517e-09    1.260125e-08    0.000000e+00
2.434225e-09    1.189974e-08    0.000000e+00
2.825600e-09    1.141636e-08    0.000000e+00
3.099307e-09    1.116176e-08    0.000000e+00
3.341793e-09    1.106341e-08    0.000000e+00
-1.246212e-11    3.798151e-08    0.000000e+00
-2.486661e-10    3.790096e-08    0.000000e+00
-4.689362e-11    3.730692e-08    0.000000e+00
-5.140379e-10    3.719244e-08    0.000000e+00
-8.651257e-11    3.518762e-08    0.000000e+00
-8.667993e-10    3.503946e-08    0.000000e+00
-7.069062e-11    3.386279e-08    0.000000e+00
-9.543532e-10    3.369779e-08    0.000000e+00
-7.604343e-11    3.635303e-08    0.000000e+00
-7.197320e-10    3.622088e-08    0.000000e+00
5.762110e-11    3.090075e-08    0.000000e+00
-9.545996e-10    3.070427e-08    0.000000e+00
1.746911e-10    2.932635e-08    0.000000e+00
-8.719646e-10    2.911590e-08    0.000000e+00
5.159509e-10    2.610676e-08    0.000000e+00
-5.568375e-10    2.587240e-08    0.000000e+00
7.375338e-10    2.449520e-08    0.000000e+00
-3.314783e-10    2.425138e-08    0.000000e+00
3.277247e-10    2.772211e-08    0.000000e+00
-7.382448e-10    2.749902e-08    0.000000e+00
-2.368501e-11    3.242235e-08    0.000000e+00
-9.829726e-10    3.224109e-08    0.000000e+00
1.824605e-09    2.471477e-08    0.000000e+00
1.609268e-09    2.630994e-08    0.000000e+00
1.417190e-09    2.790731e-08    0.000000e+00
1.248149e-09    2.949160e-08    0.000000e+00
1.100335e-09    3.104314e-08    0.000000e+00
9.700148e-10    3.253846e-08    0.000000e+00
8.512892e-10    3.394945e-08    0.000000e+00
7.357434e-10    3.524173e-08    0.000000e+00
6.117052e-10    3.637366e-08    0.000000e+00
4.620484e-10    3.729426e-08    0.000000e+00
2.600117e-10    3.793129e-08    0.000000e+00
3.200526e-12    3.816635e-08    0.000000e+00
-5.592696e-12    3.827946e-08    0.000000e+00
8.866338e-12    3.835048e-08    0.000000e+00
-2.065083e-10    3.885916e-08    0.000000e+00
-5.670851e-10    3.775532e-08    0.000000e+00
-1.030080e-09    3.699178e-08    0.000000e+00
-1.396533e-09    3.600322e-08    0.000000e+00
-1.672233e-09    3.481289e-08    0.000000e+00
-1.856560e-09    3.346510e-08    0.000000e+00
-1.956080e-09    3.200211e-08    0.000000e+00
-1.977150e-09    3.045896e-08    0.000000e+00
-1.926489e-09    2.886436e-08    0.000000e+00
-1.810499e-09    2.724157e-08    0.000000e+00
-1.635104e-09    2.560949e-08    0.000000e+00
-1.405648e-09    2.398381e-08    0.000000e+00
-1.126782e-09    2.237831e-08    0.000000e+00
-6.992615e-11    2.264745e-08    0.000000e+00
9.857966e-10    2.289955e-08    0.000000e+00
2.061955e-09    2.313469e-08    0.000000e+00
2.904908e-09    1.836857e-08    0.000000e+00
3.117284e-09    1.726322e-08    0.000000e+00
3.318680e-09    1.620714e-08    0.000000e+00
3.501110e-09    1.520952e-08    0.000000e+00
3.655124e-09    1.428080e-08    0.000000e+00
3.770237e-09    1.343305e-08    0.000000e+00
3.832574e-09    1.267806e-08    0.000000e+00
3.856691e-09    1.201670e-08    0.000000e+00
3.720199e-09    1.140395e-08    0.000000e+00
3.623317e-09    1.126699e-08    0.000000e+00
3.475351e-09    1.116756e-08    0.000000e+00
2.541955e-09    1.559132e-08    0.000000e+00
1.818730e-09    1.502009e-08    0.000000e+00
1.721754e-09    1.905067e-08    0.000000e+00
7.909274e-10    1.859420e-08    0.000000e+00
1.209030e-09    2.158583e-08    0.000000e+00
1.863994e-10    2.126022e-08    0.000000e+00
1.458453e-09    2.030139e-08    0.000000e+00
4.772239e-10    1.990632e-08    0.000000e+00
1.993969e-09    1.784235e-08    0.000000e+00
1.122801e-09    1.733418e-08    0.000000e+00
2.269624e-09    1.668569e-08    0.000000e+00
1.467593e-09    1.613820e-08    0.000000e+00
3.248229e-09    1.281777e-08    0.000000e+00
2.815527e-09    1.230901e-08    0.000000e+00
2.802832e-09    1.457156e-08    0.000000e+00
2.168026e-09    1.399583e-08    0.000000e+00
3.041789e-09    1.364002e-08    0.000000e+00
2.505051e-09    1.308343e-08    0.000000e+00
3.405552e-09    1.211237e-08    0.000000e+00
3.089631e-09    1.169911e-08    0.000000e+00
3.542106e-09    1.157660e-08    0.000000e+00
3.314291e-09    1.132121e-08    0.000000e+00
2.756111e-09    1.069197e-08    0.000000e+00
2.813778e-09    1.096390e-08    0.000000e+00
1.004596e-09    1.018107e-08    0.000000e+00
1.002784e-09    1.037909e-08    0.000000e+00
5.724949e-10    1.004861e-08    0.000000e+00
5.634314e-10    1.017975e-08    0.000000e+00
7.665119e-10    1.011142e-08    0.000000e+00
7.595306e-10    1.027553e-08    0.000000e+00
3.041119e-10    9.937871e-09    0.000000e+00
2.981712e-10    1.001014e-08    0.000000e+00
2.216827e-10    9.887743e-09    0.000000e+00
2.198918e-10    9.934695e-09    0.000000e+00
4.196607e-10    9.991169e-09    0.000000e+00
4.111242e-10    1.009151e-08    0.000000e+00
1.287717e-09    1.025922e-08    0.000000e+00
1.294408e-09    1.049007e-08    0.000000e+00
2.322384e-10    9.835360e-09    0.000000e+00
3.194155e-10    9.861155e-09    0.000000e+00
4.380908e-10    9.887453e-09    0.000000e+00
5.918717e-10    9.915237e-09    0.000000e+00
7.840020e-10    9.946120e-09    0.000000e+00
1.016749e-09    9.982436e-09    0.000000e+00
1.290649e-09    1.002731e-08    0.000000e+00
1.603594e-09    1.008472e-08    0.000000e+00
1.949787e-09    1.015950e-08    0.000000e+00
2.318541e-09    1.025726e-08    0.000000e+00
2.692866e-09    1.038454e-08    0.000000e+00
3.048640e-09    1.054728e-08    0.000000e+00
3.350930e-09    1.075547e-08    0.000000e+00
3.583282e-09    1.099418e-08    0.000000e+00
3.508151e-09    1.112303e-08    0.000000e+00
3.467710e-09    1.122855e-08    0.000000e+00
3.216915e-09    1.127186e-08    0.000000e+00
2.855989e-09    1.123129e-08    0.000000e+00
2.451203e-09    1.113960e-08    0.000000e+00
2.042222e-09    1.101523e-08    0.000000e+00
1.655991e-09    1.087335e-08    0.000000e+00
1.309142e-09    1.072501e-08    0.000000e+00
1.010336e-09    1.057801e-08    0.000000e+00
7.623941e-10    1.043743e-08    0.000000e+00
5.641354e-10    1.030612e-08    0.000000e+00
4.119388e-10    1.018525e-08    0.000000e+00
3.009998e-10    1.007471e-08    0.000000e+00
2.263151e-10    9.973500e-09    0.000000e+00
1.834105e-10    9.880062e-09    0.000000e+00
1.719884e-10    9.864074e-09    0.000000e+00
1.683892e-10    9.839849e-09    0.000000e+00
1.730720e-10    9.809630e-09    0.000000e+00
2.008778e-09    1.072812e-08    0.000000e+00
1.976588e-09    1.044822e-08    0.000000e+00
1.632155e-09    1.060722e-08    0.000000e+00
1.613829e-09    1.034767e-08    0.000000e+00
2.410198e-09    1.084885e-08    0.000000e+00
2.363876e-09    1.056240e-08    0.000000e+00
3.478790e-09    1.114278e-08    0.000000e+00
3.430600e-09    1.100059e-08    0.000000e+00
3.185235e-09    1.106515e-08    0.000000e+00
3.124604e-09    1.083581e-08    0.000000e+00
3.602675e-09    1.116957e-08    0.000000e+00
3.632090e-09    1.115605e-08    0.000000e+00
2.470755e-09    9.174218e-09    0.000000e+00
2.513593e-09    9.094245e-09    0.000000e+00
2.520889e-09    9.034584e-09    0.000000e+00
2.510205e-09    8.964719e-09    0.000000e+00
2.348036e-09    8.926802e-09    0.000000e+00
2.092082e-09    8.928028e-09    0.000000e+00
1.790558e-09    8.963504e-09    0.000000e+00
1.482346e-09    9.023343e-09    0.000000e+00
1.192965e-09    9.098460e-09    0.000000e+00
9.363119e-10    9.182089e-09    0.000000e+00
7.186332e-10    9.269450e-09    0.000000e+00
5.411044e-10    9.357496e-09    0.000000e+00
4.019150e-10    9.444622e-09    0.000000e+00
2.979070e-10    9.530401e-09    0.000000e+00
2.258152e-10    9.615348e-09    0.000000e+00
1.831572e-10    9.700704e-09    0.000000e+00
1.688244e-10    9.788240e-09    0.000000e+00
1.351812e-10    9.779298e-09    0.000000e+00
1.286484e-10    9.749618e-09    0.000000e+00
1.516016e-10    9.721555e-09    0.000000e+00
2.040142e-10    9.696183e-09    0.000000e+00
2.875443e-10    9.674394e-09    0.000000e+00
4.051257e-10    9.656555e-09    0.000000e+00
5.602715e-10    9.642109e-09    0.000000e+00
7.560562e-10    9.629122e-09    0.000000e+00
9.937120e-10    9.613760e-09    0.000000e+00
1.270809e-09    9.589751e-09    0.000000e+00
1.578922e-09    9.547712e-09    0.000000e+00
1.901330e-09    9.475201e-09    0.000000e+00
2.211842e-09    9.352732e-09    0.000000e+00
6.578621e-10    9.400270e-09    0.000000e+00
6.049653e-10    9.524517e-09    0.000000e+00
1.722592e-09    9.158502e-09    0.000000e+00
1.651498e-09    9.347339e-09    0.000000e+00
2.322123e-09    9.063619e-09    0.000000e+00
2.278832e-09    9.194301e-09    0.000000e+00
2.040189e-09    9.105464e-09    0.000000e+00
1.975448e-09    9.278945e-09    0.000000e+00
1.120501e-09    9.275920e-09    0.000000e+00
1.053875e-09    9.445781e-09    0.000000e+00
1.408859e-09    9.215946e-09    0.000000e+00
1.338068e-09    9.401125e-09    0.000000e+00
8.686861e-10    9.337590e-09    0.000000e+00
8.084491e-10    9.485884e-09    0.000000e+00
2.596870e-10    9.591400e-09    0.000000e+00
2.283252e-10    9.647094e-09    0.000000e+00
4.879662e-10    9.463535e-09    0.000000e+00
4.425593e-10    9.563635e-09    0.000000e+00
3.564214e-10    9.527214e-09    0.000000e+00
3.182320e-10    9.604329e-09    0.000000e+00
1.582734e-10    9.722972e-09    0.000000e+00
1.400104e-10    9.739173e-09    0.000000e+00
1.944159e-10    9.656449e-09    0.000000e+00
1.696042e-10    9.692056e-09    0.000000e+00
1.504618e-10    9.791825e-09    0.000000e+00
1.391266e-10    9.788406e-09    0.000000e+00
-3.815548e-14    -3.176654e-11    0.000000e+00
-4.271449e-12    -3.414596e-11    0.000000e+00
-9.432980e-12    -4.071967e-11    0.000000e+00
-1.656833e-11    -5.080959e-11    0.000000e+00
-2.708433e-11    -6.234248e-11    0.000000e+00
-4.313174e-11    -7.029972e-11    0.000000e+00
-6.868484e-11    -6.371249e-11    0.000000e+00
-1.110188e-10    -2.173754e-11    0.000000e+00
-1.879916e-10    9.588601e-11    0.000000e+00
-3.066564e-10    3.461046e-10    0.000000e+00
-5.922901e-10    8.605268e-10    0.000000e+00
-2.077981e-10    9.332559e-10    0.000000e+00
3.219200e-10    9.836740e-10    0.000000e+00
9.254013e-10    1.067930e-09    0.000000e+00
5.696722e-10    3.891615e-10    0.000000e+00
3.191900e-10    9.625299e-11    0.000000e+00
1.707353e-10    -2.230443e-11    0.000000e+00
8.511424e-11    -6.574742e-11    0.000000e+00
3.630303e-11    -7.523072e-11    0.000000e+00
1.037708e-11    -7.004165e-11    0.000000e+00
-1.415046e-12    -6.023421e-11    0.000000e+00
-4.735644e-12    -5.098948e-11    0.000000e+00
-3.385832e-12    -4.477849e-11    0.000000e+00
1.280320e-13    -4.269386e-11    0.000000e+00
6.680869e-14    -4.068645e-11    0.000000e+00
1.762871e-14    -3.762660e-11    0.000000e+00
2.189741e-11    -8.491467e-11    0.000000e+00
-1.008621e-11    -8.379426e-11    0.000000e+00
1.463427e-10    5.160436e-11    0.000000e+00
-5.154502e-11    5.626478e-11    0.000000e+00
2.227162e-10    3.159667e-10    0.000000e+00
-1.188528e-10    3.097892e-10    0.000000e+00
8.857132e-11    -5.019395e-11    0.000000e+00
-2.160138e-11    -4.834454e-11    0.000000e+00
4.779533e-11    -8.287971e-11    0.000000e+00
-1.271796e-11    -8.208446e-11    0.000000e+00
-1.530231e-13    -6.164488e-11    0.000000e+00
-7.194603e-12    -5.918440e-11    0.000000e+00
7.018778e-12    -7.470919e-11    0.000000e+00
-8.805923e-12    -7.282855e-11    0.000000e+00
-2.410301e-12    -5.042823e-11    0.000000e+00
-5.085664e-12    -4.762936e-11    0.000000e+00
-1.833760e-12    -4.317314e-11    0.000000e+00
-2.625954e-12    -4.020714e-11    0.000000e+00
-1.133185e-09    2.440386e-09    0.000000e+00
-1.046310e-09    4.077295e-09    0.000000e+00
-6.218849e-10    5.620575e-09    0.000000e+00
3.464219e-11    6.911169e-09    0.000000e+00
7.662100e-10    7.873403e-09    0.000000e+00
1.454251e-09    8.509112e-09    0.000000e+00
2.009227e-09    8.863090e-09    0.000000e+00
2.376105e-09    9.004283e-09    0.000000e+00
2.539298e-09    9.013073e-09    0.000000e+00
2.617192e-09    8.957526e-09    0.000000e+00
2.671280e-09    8.652581e-09    0.000000e+00
2.627245e-09    8.220546e-09    0.000000e+00
2.491949e-09    7.623508e-09    0.000000e+00
2.283905e-09    6.830852e-09    0.000000e+00
2.033448e-09    5.841025e-09    0.000000e+00
1.770090e-09    4.677007e-09    0.000000e+00
1.510656e-09    3.398173e-09    0.000000e+00
1.240210e-09    2.121052e-09    0.000000e+00
1.311840e-09    7.533824e-09    0.000000e+00
1.813149e-09    7.195762e-09    0.000000e+00
-1.583484e-10    3.818861e-09    0.000000e+00
6.501148e-10    3.593645e-09    0.000000e+00
-2.897529e-10    2.292575e-09    0.000000e+00
4.449847e-10    2.160112e-09    0.000000e+00
2.104120e-10    5.292103e-09    0.000000e+00
9.793734e-10    4.989394e-09    0.000000e+00
7.373609e-10    6.554236e-09    0.000000e+00
1.389244e-09    6.210746e-09    0.000000e+00
2.254266e-09    8.656680e-09    0.000000e+00
2.466190e-09    8.442214e-09    0.000000e+00
1.840900e-09    8.223227e-09    0.000000e+00
2.188548e-09    7.931940e-09    0.000000e+00
2.510788e-09    8.892571e-09    0.000000e+00
2.616316e-09    8.770850e-09    0.000000e+00
2.596572e-09    8.997669e-09    0.000000e+00
2.629266e-09    8.971477e-09    0.000000e+00
0.000000e+00    0.000000e+00    0.000000e+00
0.000000e+00    0.000000e+00    0.000000e+00
0.000000e+00    0.000000e+00    0.000000e+00
0.000000e+00    0.000000e+00    0.000000e+00
0.000000e+00    0.000000e+00    0.000000e+00
0.000000e+00    0.000000e+00    0.000000e+00
0.000000e+00    0.000000e+00    0.000000e+00
0.000000e+00    0.000000e+00    0.000000e+00
0.000000e+00    0.000000e+00    0.000000e+00
0.000000e+00    0.000000e+00    0.000000e+00
0.000000e+00    0.000000e+00    0.000000e+00
-6.738655e-11    1.276876e-10    0.000000e+00
-1.621219e-10    2.755266e-10    0.000000e+00
-2.740108e-10    4.455127e-10    0.000000e+00
-6.950608e-14    -2.380153e-11    0.000000e+00
-6.884505e-14    -1.469838e-11    0.000000e+00
-3.611877e-14    -6.228970e-12    0.000000e+00
-6.054388e-11    -4.835062e-11    0.000000e+00
-5.774570e-11    -2.531545e-11    0.000000e+00
-3.578929e-11    -7.467615e-12    0.000000e+00
-2.114420e-10    9.207621e-11    0.000000e+00
-1.716531e-10    7.172318e-11    0.000000e+00
-1.009995e-10    3.686286e-11    0.000000e+00
-1.946895e-10    1.779602e-10    0.000000e+00
-2.675158e-10    2.587164e-10    0.000000e+00
-1.015949e-10    8.083879e-11    0.000000e+00
-8.957741e-11    -1.707179e-11    0.000000e+00
-1.293660e-10    9.927640e-12    0.000000e+00
-9.544056e-11    -3.972746e-11    0.000000e+00
-1.435519e-10    -2.287318e-12    0.000000e+00
-5.550070e-11    -2.268439e-12    0.000000e+00
-7.949334e-11    1.085350e-11    0.000000e+00
-2.179783e-11    -3.702657e-11    0.000000e+00
-2.047130e-11    -2.161727e-11    0.000000e+00
-1.241769e-11    -8.213854e-12    0.000000e+00
-3.536334e-11    -2.491203e-11    0.000000e+00
-3.718994e-11    -4.446276e-11    0.000000e+00
-2.171934e-11    -8.671497e-12    0.000000e+00
-4.689750e-12    -1.570511e-11    0.000000e+00
-1.093661e-11    -1.814354e-11    0.000000e+00
-5.161384e-12    -2.555694e-11    0.000000e+00
-1.184559e-11    -3.014805e-11    0.000000e+00
-2.768553e-12    -6.585593e-12    0.000000e+00
-6.538953e-12    -7.317450e-12    0.000000e+00
1.519947e-09    2.301885e-08    0.000000e+00
1.944967e-09    2.392344e-08    0.000000e+00
2.163633e-09    2.251795e-08    0.000000e+00
4.567639e-10    2.277578e-08    0.000000e+00
8.621597e-10    2.369543e-08    0.000000e+00
1.098016e-09    2.224040e-08    0.000000e+00
-5.970963e-10    2.251569e-08    0.000000e+00
-2.015182e-10    2.344840e-08    0.000000e+00
5.784119e-11    2.195208e-08    0.000000e+00
-1.267322e-09    2.317550e-08    0.000000e+00
-9.785600e-10    2.164571e-08    0.000000e+00
-1.522009e-09    2.479240e-08    0.000000e+00
-8.672340e-10    2.412101e-08    0.000000e+00
-1.725045e-09    2.642265e-08    0.000000e+00
-1.094493e-09    2.574501e-08    0.000000e+00
-1.871462e-09    2.805169e-08    0.000000e+00
-1.272559e-09    2.737512e-08    0.000000e+00
-1.955625e-09    2.966232e-08    0.000000e+00
-1.396914e-09    2.899585e-08    0.000000e+00
-1.971355e-09    3.123354e-08    0.000000e+00
-1.462876e-09    3.058838e-08    0.000000e+00
-1.912071e-09    3.273939e-08    0.000000e+00
-1.465621e-09    3.212959e-08    0.000000e+00
-1.771141e-09    3.414780e-08    0.000000e+00
-1.400438e-09    3.359086e-08    0.000000e+00
-1.542113e-09    3.541987e-08    0.000000e+00
-1.262921e-09    3.493721e-08    0.000000e+00
-1.220719e-09    3.650850e-08    0.000000e+00
-1.050220e-09    3.612507e-08    0.000000e+00
-8.058733e-10    3.736865e-08    0.000000e+00
-7.597395e-10    3.710623e-08    0.000000e+00
-3.338892e-10    3.804439e-08    0.000000e+00
-3.971772e-10    3.784915e-08    0.000000e+00
4.485447e-11    3.861176e-08    0.000000e+00
7.527847e-12    3.831226e-08    0.000000e+00
-1.188889e-10    3.817953e-08    0.000000e+00
-3.783453e-12    3.823807e-08    0.000000e+00
7.703052e-13    3.818082e-08    0.000000e+00
1.371076e-10    3.809973e-08    0.000000e+00
3.708472e-10    3.765484e-08    0.000000e+00
1.128587e-10    3.797629e-08    0.000000e+00
5.442071e-10    3.686480e-08    0.000000e+00
1.951241e-10    3.731747e-08    0.000000e+00
6.789431e-10    3.583126e-08    0.000000e+00
2.565596e-10    3.637722e-08    0.000000e+00
7.974074e-10    3.461344e-08    0.000000e+00
3.144968e-10    3.522605e-08    0.000000e+00
9.136192e-10    3.325714e-08    0.000000e+00
3.812826e-10    3.391544e-08    0.000000e+00
1.037472e-09    3.180019e-08    0.000000e+00
4.651841e-10    3.248800e-08    0.000000e+00
1.176079e-09    3.027369e-08    0.000000e+00
5.719507e-10    3.097812e-08    0.000000e+00
1.334224e-09    2.870330e-08    0.000000e+00
7.052492e-10    2.941396e-08    0.000000e+00
1.514668e-09    2.711045e-08    0.000000e+00
8.670353e-10    2.781871e-08    0.000000e+00
1.718420e-09    2.551249e-08    0.000000e+00
1.057821e-09    2.621151e-08    0.000000e+00
1.276811e-09    2.460741e-08    0.000000e+00
-5.051904e-10    3.233953e-08    0.000000e+00
-9.719981e-10    3.148347e-08    0.000000e+00
-9.724173e-10    3.298446e-08    0.000000e+00
1.649522e-11    3.167001e-08    0.000000e+00
-4.764583e-11    3.315471e-08    0.000000e+00
-2.069762e-10    2.761503e-08    0.000000e+00
-6.492160e-10    2.668821e-08    0.000000e+00
-8.072602e-10    2.831216e-08    0.000000e+00
4.217778e-10    2.691553e-08    0.000000e+00
2.509487e-10    2.852728e-08    0.000000e+00
2.016187e-10    2.437623e-08    0.000000e+00
-4.453826e-10    2.506255e-08    0.000000e+00
6.269399e-10    2.530044e-08    0.000000e+00
-2.201826e-11    2.599323e-08    0.000000e+00
-3.504574e-10    2.922653e-08    0.000000e+00
-9.159531e-10    2.991750e-08    0.000000e+00
1.157554e-10    3.011902e-08    0.000000e+00
-4.503646e-10    3.080902e-08    0.000000e+00
-3.989159e-10    3.629989e-08    0.000000e+00
-7.980003e-10    3.565706e-08    0.000000e+00
-6.223792e-10    3.674164e-08    0.000000e+00
-8.137983e-11    3.579221e-08    0.000000e+00
-6.121467e-11    3.685802e-08    0.000000e+00
-5.142789e-10    3.378960e-08    0.000000e+00
-9.148671e-10    3.438893e-08    0.000000e+00
-7.891972e-11    3.454184e-08    0.000000e+00
-4.781533e-10    3.512459e-08    0.000000e+00
-2.798529e-10    3.726481e-08    0.000000e+00
-3.857428e-10    3.759206e-08    0.000000e+00
-2.845060e-11    3.768121e-08    0.000000e+00
-1.297270e-10    3.795761e-08    0.000000e+00
3.237678e-09    1.110169e-08    0.000000e+00
3.406979e-09    1.111728e-08    0.000000e+00
3.450266e-09    1.108490e-08    0.000000e+00
2.981751e-09    1.126883e-08    0.000000e+00
3.199719e-09    1.123506e-08    0.000000e+00
2.642203e-09    1.162662e-08    0.000000e+00
2.949442e-09    1.154124e-08    0.000000e+00
2.223626e-09    1.222656e-08    0.000000e+00
2.621851e-09    1.209311e-08    0.000000e+00
1.784201e-09    1.301788e-08    0.000000e+00
2.252438e-09    1.283537e-08    0.000000e+00
1.338907e-09    1.396329e-08    0.000000e+00
1.862628e-09    1.372992e-08    0.000000e+00
8.986287e-10    1.503657e-08    0.000000e+00
1.466524e-09    1.475023e-08    0.000000e+00
4.721565e-10    1.621549e-08    0.000000e+00
1.074116e-09    1.587513e-08    0.000000e+00
6.635253e-11    1.748112e-08    0.000000e+00
6.934929e-10    1.708658e-08    0.000000e+00
-3.134186e-10    1.881718e-08    0.000000e+00
3.309966e-10    1.836896e-08    0.000000e+00
-6.629233e-10    2.020963e-08    0.000000e+00
-8.337872e-12    1.970886e-08    0.000000e+00
-3.201942e-10    2.109457e-08    0.000000e+00
2.369299e-09    2.129787e-08    0.000000e+00
1.731891e-09    2.174613e-08    0.000000e+00
2.582482e-09    2.010256e-08    0.000000e+00
1.961281e-09    2.049891e-08    0.000000e+00
2.799140e-09    1.893808e-08    0.000000e+00
2.200217e-09    1.928227e-08    0.000000e+00
3.014335e-09    1.781117e-08    0.000000e+00
2.443953e-09    1.810369e-08    0.000000e+00
3.222005e-09    1.672937e-08    0.000000e+00
2.686988e-09    1.697129e-08    0.000000e+00
3.414870e-09    1.570132e-08    0.000000e+00
2.922599e-09    1.589436e-08    0.000000e+00
3.584144e-09    1.473658e-08    0.000000e+00
3.142656e-09    1.488340e-08    0.000000e+00
3.720016e-09    1.384731e-08    0.000000e+00
3.337434e-09    1.395103e-08    0.000000e+00
3.810143e-09    1.304180e-08    0.000000e+00
3.495518e-09    1.311118e-08    0.000000e+00
3.852145e-09    1.234830e-08    0.000000e+00
3.606807e-09    1.238448e-08    0.000000e+00
3.801321e-09    1.169577e-08    0.000000e+00
3.663309e-09    1.174759e-08    0.000000e+00
3.701135e-09    1.132441e-08    0.000000e+00
3.660084e-09    1.118457e-08    0.000000e+00
3.548528e-09    1.121638e-08    0.000000e+00
3.594169e-09    1.138276e-08    0.000000e+00
3.677186e-09    1.123094e-08    0.000000e+00
3.414419e-09    1.122759e-08    0.000000e+00
3.573011e-09    1.116515e-08    0.000000e+00
2.176700e-09    1.530165e-08    0.000000e+00
2.409084e-09    1.613079e-08    0.000000e+00
2.676624e-09    1.507205e-08    0.000000e+00
1.645228e-09    1.556986e-08    0.000000e+00
1.996397e-09    1.449643e-08    0.000000e+00
1.254701e-09    1.882240e-08    0.000000e+00
1.591477e-09    1.967203e-08    0.000000e+00
1.859746e-09    1.844145e-08    0.000000e+00
6.343832e-10    1.924608e-08    0.000000e+00
9.576232e-10    1.795855e-08    0.000000e+00
6.965463e-10    2.142461e-08    0.000000e+00
1.334704e-09    2.094054e-08    0.000000e+00
3.317597e-10    2.058036e-08    0.000000e+00
9.665026e-10    2.010470e-08    0.000000e+00
1.556277e-09    1.758717e-08    0.000000e+00
2.134311e-09    1.725773e-08    0.000000e+00
1.296535e-09    1.672886e-08    0.000000e+00
1.865834e-09    1.640954e-08    0.000000e+00
3.022495e-09    1.255060e-08    0.000000e+00
3.151577e-09    1.321539e-08    0.000000e+00
3.334631e-09    1.245221e-08    0.000000e+00
2.666115e-09    1.267922e-08    0.000000e+00
2.959613e-09    1.198084e-08    0.000000e+00
2.480542e-09    1.427752e-08    0.000000e+00
2.927750e-09    1.409458e-08    0.000000e+00
2.340703e-09    1.352549e-08    0.000000e+00
2.767344e-09    1.335303e-08    0.000000e+00
3.239890e-09    1.188783e-08    0.000000e+00
3.480738e-09    1.181983e-08    0.000000e+00
3.212888e-09    1.148343e-08    0.000000e+00
3.423371e-09    1.142997e-08    0.000000e+00
1.696872e-10    9.825317e-09    0.000000e+00
1.993570e-10    9.822494e-09    0.000000e+00
1.500189e-10    9.794422e-09    0.000000e+00
1.691762e-10    9.852865e-09    0.000000e+00
1.916278e-10    9.863476e-09    0.000000e+00
1.498261e-10    9.813830e-09    0.000000e+00
1.767719e-10    9.873213e-09    0.000000e+00
1.923909e-10    9.898792e-09    0.000000e+00
1.574211e-10    9.827447e-09    0.000000e+00
2.011349e-10    9.925925e-09    0.000000e+00
1.723959e-10    9.833473e-09    0.000000e+00
2.594256e-10    1.002304e-08    0.000000e+00
2.221275e-10    9.955243e-09    0.000000e+00
3.516314e-10    1.012875e-08    0.000000e+00
2.985250e-10    1.004352e-08    0.000000e+00
4.825664e-10    1.024438e-08    0.000000e+00
4.103825e-10    1.013932e-08    0.000000e+00
6.572414e-10    1.037053e-08    0.000000e+00
5.625636e-10    1.024357e-08    0.000000e+00
8.800094e-10    1.050671e-08    0.000000e+00
7.597147e-10    1.035665e-08    0.000000e+00
1.153446e-09    1.065098e-08    0.000000e+00
1.005360e-09    1.047813e-08    0.000000e+00
1.476946e-09    1.079944e-08    0.000000e+00
1.300738e-09    1.060641e-08    0.000000e+00
1.845016e-09    1.094570e-08    0.000000e+00
1.643375e-09    1.073845e-08    0.000000e+00
2.245273e-09    1.108041e-08    0.000000e+00
2.025373e-09    1.086929e-08    0.000000e+00
2.656359e-09    1.119058e-08    0.000000e+00
2.431518e-09    1.099164e-08    0.000000e+00
3.044841e-09    1.125936e-08    0.000000e+00
2.837055e-09    1.109558e-08    0.000000e+00
3.363908e-09    1.126176e-08    0.000000e+00
3.205352e-09    1.116747e-08    0.000000e+00
3.520681e-09    1.117780e-08    0.000000e+00
3.481221e-09    1.119153e-08    0.000000e+00
3.558541e-09    1.115275e-08    0.000000e+00
3.469451e-09    1.086495e-08    0.000000e+00
3.618625e-09    1.111916e-08    0.000000e+00
3.210175e-09    1.064665e-08    0.000000e+00
3.390965e-09    1.088610e-08    0.000000e+00
2.874574e-09    1.046062e-08    0.000000e+00
3.087994e-09    1.070180e-08    0.000000e+00
2.506429e-09    1.031682e-08    0.000000e+00
2.724154e-09    1.054343e-08    0.000000e+00
2.132225e-09    1.020504e-08    0.000000e+00
2.340492e-09    1.041300e-08    0.000000e+00
1.773083e-09    1.011957e-08    0.000000e+00
1.962051e-09    1.030536e-08    0.000000e+00
1.442507e-09    1.005414e-08    0.000000e+00
1.607399e-09    1.021678e-08    0.000000e+00
1.148617e-09    1.000355e-08    0.000000e+00
1.287782e-09    1.014335e-08    0.000000e+00
8.952172e-10    9.963407e-09    0.000000e+00
1.009259e-09    1.008163e-08    0.000000e+00
6.829723e-10    9.930152e-09    0.000000e+00
7.738720e-10    1.002863e-08    0.000000e+00
5.103768e-10    9.901068e-09    0.000000e+00
5.808530e-10    9.981865e-09    0.000000e+00
3.745893e-10    9.874189e-09    0.000000e+00
4.276139e-10    9.939392e-09    0.000000e+00
2.721168e-10    9.848230e-09    0.000000e+00
3.105748e-10    9.899755e-09    0.000000e+00
2.258419e-10    9.861964e-09    0.000000e+00
1.289997e-09    1.037420e-08    0.000000e+00
1.142593e-09    1.043371e-08    0.000000e+00
1.457835e-09    1.054799e-08    0.000000e+00
1.140572e-09    1.021896e-08    0.000000e+00
1.445681e-09    1.030202e-08    0.000000e+00
4.142055e-10    1.004186e-08    0.000000e+00
3.500222e-10    1.005002e-08    0.000000e+00
4.820658e-10    1.013473e-08    0.000000e+00
3.574878e-10    9.964068e-09    0.000000e+00
4.911592e-10    1.001930e-08    0.000000e+00
2.197228e-10    9.912037e-09    0.000000e+00
2.549766e-10    9.971736e-09    0.000000e+00
2.590200e-10    9.912457e-09    0.000000e+00
3.000153e-10    9.974695e-09    0.000000e+00
7.617808e-10    1.019351e-08    0.000000e+00
6.557593e-10    1.022668e-08    0.000000e+00
8.751225e-10    1.032635e-08    0.000000e+00
6.641423e-10    1.007925e-08    0.000000e+00
8.799293e-10    1.014528e-08    0.000000e+00
5.667324e-10    1.011448e-08    0.000000e+00
1.002495e-09    1.027984e-08    0.000000e+00
2.786271e-09    1.082994e-08    0.000000e+00
2.613533e-09    1.090748e-08    0.000000e+00
3.006047e-09    1.101662e-08    0.000000e+00
2.560918e-09    1.062510e-08    0.000000e+00
2.945676e-09    1.076201e-08    0.000000e+00
1.992301e-09    1.058795e-08    0.000000e+00
1.816307e-09    1.066739e-08    0.000000e+00
2.207587e-09    1.078878e-08    0.000000e+00
1.791235e-09    1.039628e-08    0.000000e+00
2.168206e-09    1.050346e-08    0.000000e+00
1.622180e-09    1.047696e-08    0.000000e+00
2.387330e-09    1.070628e-08    0.000000e+00
3.460152e-09    1.108073e-08    0.000000e+00
3.346057e-09    1.110810e-08    0.000000e+00
3.567765e-09    1.116490e-08    0.000000e+00
3.287201e-09    1.091515e-08    0.000000e+00
3.551144e-09    1.108063e-08    0.000000e+00
3.157646e-09    1.095607e-08    0.000000e+00
3.630080e-09    1.117517e-08    0.000000e+00
2.498351e-09    9.128454e-09    0.000000e+00
2.349351e-09    9.274486e-09    0.000000e+00
2.553427e-09    9.075461e-09    0.000000e+00
2.520485e-09    9.063977e-09    0.000000e+00
2.407917e-09    9.147050e-09    0.000000e+00
2.586366e-09    9.040184e-09    0.000000e+00
2.517047e-09    9.002258e-09    0.000000e+00
2.434959e-09    9.049212e-09    0.000000e+00
2.578031e-09    9.021640e-09    0.000000e+00
2.443073e-09    8.945140e-09    0.000000e+00
2.547968e-09    8.992854e-09    0.000000e+00
2.229192e-09    8.924052e-09    0.000000e+00
2.336997e-09    8.997076e-09    0.000000e+00
1.944442e-09    8.942200e-09    0.000000e+00
2.067315e-09    9.018934e-09    0.000000e+00
1.635361e-09    8.990991e-09    0.000000e+00
1.756761e-09    9.063116e-09    0.000000e+00
1.334223e-09    9.059456e-09    0.000000e+00
1.445150e-09    9.121384e-09    0.000000e+00
1.060011e-09    9.139541e-09    0.000000e+00
1.155922e-09    9.188594e-09    0.000000e+00
8.224360e-10    9.225518e-09    0.000000e+00
9.015229e-10    9.260935e-09    0.000000e+00
6.249152e-10    9.313507e-09    0.000000e+00
6.872356e-10    9.335709e-09    0.000000e+00
4.668994e-10    9.401215e-09    0.000000e+00
5.135618e-10    9.411189e-09    0.000000e+00
3.457269e-10    9.487658e-09    0.000000e+00
3.782647e-10    9.486496e-09    0.000000e+00
2.580535e-10    9.572908e-09    0.000000e+00
2.779629e-10    9.561461e-09    0.000000e+00
2.009137e-10    9.657868e-09    0.000000e+00
2.093265e-10    9.636517e-09    0.000000e+00
1.724553e-10    9.744069e-09    0.000000e+00
1.699303e-10    9.712582e-09    0.000000e+00
1.588133e-10    9.790957e-09    0.000000e+00
1.281568e-10    9.764317e-09    0.000000e+00
1.362339e-10    9.784444e-09    0.000000e+00
1.364845e-10    9.735315e-09    0.000000e+00
1.334760e-10    9.745065e-09    0.000000e+00
1.740593e-10    9.708471e-09    0.000000e+00
1.597611e-10    9.707585e-09    0.000000e+00
2.417314e-10    9.684808e-09    0.000000e+00
2.152914e-10    9.672537e-09    0.000000e+00
3.418648e-10    9.665002e-09    0.000000e+00
3.019400e-10    9.640352e-09    0.000000e+00
4.777892e-10    9.649010e-09    0.000000e+00
4.228138e-10    9.611106e-09    0.000000e+00
6.529482e-10    9.635649e-09    0.000000e+00
5.815309e-10    9.584217e-09    0.000000e+00
8.696971e-10    9.622102e-09    0.000000e+00
7.811704e-10    9.558104e-09    0.000000e+00
1.127688e-09    9.603389e-09    0.000000e+00
1.022834e-09    9.529800e-09    0.000000e+00
1.421838e-09    9.571747e-09    0.000000e+00
1.303790e-09    9.494512e-09    0.000000e+00
1.739703e-09    9.516307e-09    0.000000e+00
1.615122e-09    9.445274e-09    0.000000e+00
2.059819e-09    9.422168e-09    0.000000e+00
1.939247e-09    9.372627e-09    0.000000e+00
2.248396e-09    9.266684e-09    0.000000e+00
6.304219e-10    9.463204e-09    0.000000e+00
7.580751e-10    9.368835e-09    0.000000e+00
5.679206e-10    9.431844e-09    0.000000e+00
7.014471e-10    9.505255e-09    0.000000e+00
5.187827e-10    9.543942e-09    0.000000e+00
1.687363e-09    9.252526e-09    0.000000e+00
1.882903e-09    9.131435e-09    0.000000e+00
1.563655e-09    9.186850e-09    0.000000e+00
1.813747e-09    9.315519e-09    0.000000e+00
1.492059e-09    9.375759e-09    0.000000e+00
2.303234e-09    9.127107e-09    0.000000e+00
2.188316e-09    9.083840e-09    0.000000e+00
2.132428e-09    9.239344e-09    0.000000e+00
2.009234e-09    9.190864e-09    0.000000e+00
1.086452e-09    9.361409e-09    0.000000e+00
1.260634e-09    9.245676e-09    0.000000e+00
9.896171e-10    9.306593e-09    0.000000e+00
1.191545e-09    9.424301e-09    0.000000e+00
9.259962e-10    9.466203e-09    0.000000e+00
1.373121e-09    9.308735e-09    0.000000e+00
8.376381e-10    9.412477e-09    0.000000e+00
2.431333e-10    9.619996e-09    0.000000e+00
3.039272e-10    9.559223e-09    0.000000e+00
2.232949e-10    9.623779e-09    0.000000e+00
2.691971e-10    9.625442e-09    0.000000e+00
1.952283e-10    9.669301e-09    0.000000e+00
4.642870e-10    9.514396e-09    0.000000e+00
4.176137e-10    9.495319e-09    0.000000e+00
3.758616e-10    9.583750e-09    0.000000e+00
3.364019e-10    9.566553e-09    0.000000e+00
1.482898e-10    9.731823e-09    0.000000e+00
1.727929e-10    9.689473e-09    0.000000e+00
1.508061e-10    9.757041e-09    0.000000e+00
1.512335e-10    9.715347e-09    0.000000e+00
1.359334e-10    9.763520e-09    0.000000e+00
1.811670e-10    9.674986e-09    0.000000e+00
1.438864e-10    9.790920e-09    0.000000e+00
-2.078568e-12    -3.240064e-11    0.000000e+00
-1.131305e-14    -3.506828e-11    0.000000e+00
-5.458986e-14    -2.802054e-11    0.000000e+00
-6.666436e-12    -3.691947e-11    0.000000e+00
-3.436186e-12    -3.758593e-11    0.000000e+00
-4.844807e-12    -3.010869e-11    0.000000e+00
-1.265791e-11    -4.540337e-11    0.000000e+00
-7.254789e-12    -4.470521e-11    0.000000e+00
-1.096257e-11    -3.575006e-11    0.000000e+00
-2.126564e-11    -5.662679e-11    0.000000e+00
-1.194572e-11    -5.573694e-11    0.000000e+00
-1.986026e-11    -4.431786e-11    0.000000e+00
-3.416038e-11    -6.731304e-11    0.000000e+00
-1.819792e-11    -6.860820e-11    0.000000e+00
-3.341271e-11    -5.392400e-11    0.000000e+00
-5.429383e-11    -7.000396e-11    0.000000e+00
-2.736492e-11    -7.843526e-11    0.000000e+00
-5.423084e-11    -5.982711e-11    0.000000e+00
-8.662672e-11    -4.939756e-11    0.000000e+00
-4.241742e-11    -7.457779e-11    0.000000e+00
-8.590789e-11    -5.230593e-11    0.000000e+00
-1.440003e-10    2.278122e-11    0.000000e+00
-7.132751e-11    -3.704437e-11    0.000000e+00
-1.349832e-10    -1.083528e-11    0.000000e+00
-2.375876e-10    1.945705e-10    0.000000e+00
-1.277394e-10    7.462639e-11    0.000000e+00
-2.072655e-10    9.360097e-11    0.000000e+00
-4.296527e-10    5.330552e-10    0.000000e+00
-2.469689e-10    3.285793e-10    0.000000e+00
-3.216439e-10    3.163315e-10    0.000000e+00
-4.271943e-10    8.841656e-10    0.000000e+00
-9.336733e-10    1.679076e-09    0.000000e+00
-3.791284e-10    6.313737e-10    0.000000e+00
4.579806e-11    9.592453e-10    0.000000e+00
-1.695363e-10    5.420278e-10    0.000000e+00
-2.294464e-10    1.534416e-09    0.000000e+00
6.131551e-10    1.016277e-09    0.000000e+00
2.746151e-10    5.810837e-10    0.000000e+00
3.863156e-10    1.517526e-09    0.000000e+00
7.434462e-10    6.646554e-10    0.000000e+00
1.101315e-09    1.545304e-09    0.000000e+00
4.301114e-10    2.101696e-10    0.000000e+00
4.072399e-10    3.436760e-10    0.000000e+00
2.347553e-10    2.363854e-11    0.000000e+00
2.425914e-10    6.753952e-11    0.000000e+00
1.219966e-10    -4.988907e-11    0.000000e+00
1.366470e-10    -3.938502e-11    0.000000e+00
5.703680e-11    -7.321853e-11    0.000000e+00
7.115930e-11    -7.608844e-11    0.000000e+00
2.106561e-11    -7.367992e-11    0.000000e+00
3.231475e-11    -8.102130e-11    0.000000e+00
3.079035e-12    -6.530703e-11    0.000000e+00
1.084522e-11    -7.287150e-11    0.000000e+00
-3.893205e-12    -5.533920e-11    0.000000e+00
5.860630e-13    -6.116373e-11    0.000000e+00
-4.486026e-12    -4.741382e-11    0.000000e+00
-2.772754e-12    -5.077481e-11    0.000000e+00
-1.831644e-12    -4.315704e-11    0.000000e+00
-2.240249e-12    -4.395988e-11    0.000000e+00
8.436414e-14    -4.164709e-11    0.000000e+00
4.262686e-14    -3.943057e-11    0.000000e+00
-1.005204e-12    -4.130021e-11    0.000000e+00
-1.330118e-12    -3.827620e-11    0.000000e+00
7.040079e-12    -8.592536e-11    0.000000e+00
3.322337e-11    -8.629529e-11    0.000000e+00
1.327471e-11    -8.060403e-11    0.000000e+00
-1.093301e-11    -8.539572e-11    0.000000e+00
-9.408306e-12    -7.909619e-11    0.000000e+00
4.467661e-11    4.851694e-11    0.000000e+00
1.816921e-10    1.525856e-10    0.000000e+00
1.153108e-10    -1.234951e-11    0.000000e+00
-7.765250e-11    1.571819e-10    0.000000e+00
-3.222742e-11    -7.690062e-12    0.000000e+00
4.258726e-11    3.048389e-10    0.000000e+00
3.364063e-11    -5.308075e-11    0.000000e+00
6.609773e-11    -7.219562e-11    0.000000e+00
-1.555099e-11    -7.093043e-11    0.000000e+00
1.871328e-11    -8.484419e-11    0.000000e+00
-3.008401e-12    -6.108405e-11    0.000000e+00
2.643082e-12    -6.814565e-11    0.000000e+00
-1.768765e-12    -5.561735e-11    0.000000e+00
-8.053713e-12    -6.594362e-11    0.000000e+00
-6.194391e-12    -5.295854e-11    0.000000e+00
4.450756e-14    -7.479299e-11    0.000000e+00
-3.327859e-12    -4.946754e-11    0.000000e+00
-2.383395e-12    -4.622187e-11    0.000000e+00
-3.888711e-12    -4.332019e-11    0.000000e+00
-2.028828e-12    -4.200169e-11    0.000000e+00
-1.113348e-09    3.268391e-09    0.000000e+00
-6.717088e-10    2.351415e-09    0.000000e+00
-8.465435e-10    4.863013e-09    0.000000e+00
-5.943898e-10    3.944660e-09    0.000000e+00
-2.906313e-10    6.294177e-09    0.000000e+00
-1.951933e-10    5.452180e-09    0.000000e+00
4.156585e-10    7.423971e-09    0.000000e+00
3.920812e-10    6.731609e-09    0.000000e+00
1.134377e-09    8.221106e-09    0.000000e+00
1.043724e-09    7.703846e-09    0.000000e+00
1.760660e-09    8.710494e-09    0.000000e+00
1.651049e-09    8.367604e-09    0.000000e+00
2.222337e-09    8.950929e-09    0.000000e+00
2.134493e-09    8.762038e-09    0.000000e+00
2.485256e-09    9.018871e-09    0.000000e+00
2.445757e-09    8.950893e-09    0.000000e+00
2.569888e-09    9.007931e-09    0.000000e+00
2.655746e-09    8.816513e-09    0.000000e+00
2.630660e-09    8.961434e-09    0.000000e+00
2.662539e-09    8.450168e-09    0.000000e+00
2.652095e-09    8.710721e-09    0.000000e+00
2.574094e-09    7.937339e-09    0.000000e+00
2.554678e-09    8.333213e-09    0.000000e+00
2.403271e-09    7.243145e-09    0.000000e+00
2.346286e-09    7.782413e-09    0.000000e+00
2.174489e-09    6.350232e-09    0.000000e+00
2.050730e-09    7.020386e-09    0.000000e+00
1.918465e-09    5.268632e-09    0.000000e+00
1.707884e-09    6.033925e-09    0.000000e+00
1.659997e-09    4.037791e-09    0.000000e+00
1.364352e-09    4.839849e-09    0.000000e+00
1.400661e-09    2.742259e-09    0.000000e+00
1.061211e-09    3.497934e-09    0.000000e+00
8.170041e-10    2.134546e-09    0.000000e+00
1.565461e-09    7.367450e-09    0.000000e+00
1.039249e-09    7.071968e-09    0.000000e+00
1.597754e-09    7.905223e-09    0.000000e+00
1.616708e-09    6.726019e-09    0.000000e+00
2.019912e-09    7.586110e-09    0.000000e+00
2.440589e-10    3.703972e-09    0.000000e+00
-2.393989e-10    3.037531e-09    0.000000e+00
1.930840e-11    4.564934e-09    0.000000e+00
5.476087e-10    2.868247e-09    0.000000e+00
8.191614e-10    4.301274e-09    0.000000e+00
8.096110e-11    2.214802e-09    0.000000e+00
5.953968e-10    5.140315e-09    0.000000e+00
4.788094e-10    5.946644e-09    0.000000e+00
1.194809e-09    5.619151e-09    0.000000e+00
1.064766e-09    6.384536e-09    0.000000e+00
2.364757e-09    8.551374e-09    0.000000e+00
2.072417e-09    8.462096e-09    0.000000e+00
2.407826e-09    8.790858e-09    0.000000e+00
2.348017e-09    8.206297e-09    0.000000e+00
2.561567e-09    8.621489e-09    0.000000e+00
2.018693e-09    8.080182e-09    0.000000e+00
2.568117e-09    8.832743e-09    0.000000e+00
2.576997e-09    8.955391e-09    0.000000e+00
2.641168e-09    8.881836e-09    0.000000e+00
2.617015e-09    8.984761e-09    0.000000e+00
0.000000e+00    0.000000e+00    0.000000e+00
-1.655484e-14    -2.786872e-12    0.000000e+00
0.000000e+00    0.000000e+00    0.000000e+00
-1.419280e-12    -2.909886e-12    0.000000e+00
0.000000e+00    0.000000e+00    0.000000e+00
-3.378474e-12    -3.129311e-12    0.000000e+00
0.000000e+00    0.000000e+00    0.000000e+00
-6.481909e-12    -3.322918e-12    0.000000e+00
0.000000e+00    0.000000e+00    0.000000e+00
-1.144416e-11    -3.187751e-12    0.000000e+00
0.000000e+00    0.000000e+00    0.000000e+00
-1.904139e-11    -2.145991e-12    0.000000e+00
0.000000e+00    0.000000e+00    0.000000e+00
-2.978137e-11    8.315628e-13    0.000000e+00
0.000000e+00    0.000000e+00    0.000000e+00
-4.302980e-11    7.313020e-12    0.000000e+00
0.000000e+00    0.000000e+00    0.000000e+00
-5.508342e-11    1.920936e-11    0.000000e+00
0.000000e+00    0.000000e+00    0.000000e+00
-5.729102e-11    3.719244e-11    0.000000e+00
-2.597191e-11    6.083789e-11    0.000000e+00
-1.119648e-10    1.985107e-10    0.000000e+00
-9.151836e-11    1.059313e-10    0.000000e+00
-2.037548e-10    3.513831e-10    0.000000e+00
-1.811383e-10    2.318368e-10    0.000000e+00
-3.088644e-10    3.943526e-10    0.000000e+00
-6.907979e-14    -1.928680e-11    0.000000e+00
-2.475736e-12    -2.430268e-11    0.000000e+00
-5.223215e-14    -1.027840e-11    0.000000e+00
-2.233052e-12    -1.501283e-11    0.000000e+00
-1.311136e-12    -6.378606e-12    0.000000e+00
-6.174996e-11    -3.654326e-11    0.000000e+00
-7.631049e-11    -4.646303e-11    0.000000e+00
-4.763730e-11    -4.729470e-11    0.000000e+00
-4.892162e-11    -1.538434e-11    0.000000e+00
-7.246468e-11    -2.284494e-11    0.000000e+00
-4.545302e-11    -2.577767e-11    0.000000e+00
-4.493357e-11    -5.521914e-12    0.000000e+00
-2.804818e-11    -8.398847e-12    0.000000e+00
-1.949897e-10    8.376110e-11    0.000000e+00
-2.445374e-10    1.716464e-10    0.000000e+00
-1.756900e-10    3.659553e-11    0.000000e+00
-1.395936e-10    5.547858e-11    0.000000e+00
-1.859966e-10    1.175191e-10    0.000000e+00
-1.514955e-10    3.530062e-11    0.000000e+00
-1.061081e-10    5.729170e-11    0.000000e+00
-9.159992e-11    2.238815e-11    0.000000e+00
-2.354171e-10    2.207804e-10    0.000000e+00
-1.490079e-10    1.279508e-10    0.000000e+00
-1.086969e-10    -6.956203e-12    0.000000e+00
-9.612152e-11    -2.786247e-11    0.000000e+00
-7.563753e-11    -8.382013e-12    0.000000e+00
-1.422948e-10    5.288026e-12    0.000000e+00
-1.086777e-10    1.173297e-11    0.000000e+00
-1.176482e-10    -2.604657e-11    0.000000e+00
-6.722363e-11    3.115768e-12    0.000000e+00
-2.200316e-11    -2.929506e-11    0.000000e+00
-2.862547e-11    -4.087358e-11    0.000000e+00
-1.626353e-11    -3.338001e-11    0.000000e+00
-1.717305e-11    -1.444531e-11    0.000000e+00
-2.708445e-11    -2.343326e-11    0.000000e+00
-1.514875e-11    -1.981775e-11    0.000000e+00
-1.652763e-11    -8.576910e-12    0.000000e+00
-9.118163e-12    -7.799452e-12    0.000000e+00
-3.778693e-11    -3.458844e-11    0.000000e+00
-2.982236e-11    -1.609159e-11    0.000000e+00
-7.497785e-12    -1.676714e-11    0.000000e+00
-5.108844e-12    -2.066611e-11    0.000000e+00
-3.880845e-12    -1.093060e-11    0.000000e+00
-1.183175e-11    -2.416336e-11    0.000000e+00
-9.106356e-12    -1.242463e-11    0.000000e+00
-8.190287e-12    -2.751616e-11    0.000000e+00
-4.450202e-12    -6.937253e-12    0.000000e+00

CELL_DATA      259
TENSORS Element_Stress2.400000e+00 double
-5.199527e+02 -2.250101e+02        0
-2.250101e+02 -1.024340e+02        0
       0        0 9.390328e+01

-5.076861e+02 -1.887732e+02        0
-1.887732e+02 -9.710774e+01        0
       0        0 -2.361752e+02

-4.733499e+02 -2.238846e+02        0
-2.238846e+02 -1.099751e+02        0
       0        0 1.777459e+02

-4.110805e+02 -1.700545e+02        0
-1.700545e+02 -9.598784e+01        0
       0        0 -1.020488e+02

-5.659051e+02 -2.090903e+02        0
-2.090903e+02 -7.721983e+01        0
       0        0 4.413925e+02

-5.701127e+02 -2.234319e+02        0
-2.234319e+02 -8.766773e+01        0
       0        0 4.772053e+02

-6.013825e+02 -2.037054e+02        0
-2.037054e+02 -9.704259e+01        0
       0        0 -3.727787e+02

-5.657669e+02 -2.262710e+02        0
-2.262710e+02 -9.549132e+01        0
       0        0 9.282731e+00

-5.638950e+02 -1.966138e+02        0
-1.966138e+02 -6.837066e+01        0
       0        0 4.045111e+02

-1.083332e+03 -3.434546e+02        0
-3.434546e+02 -1.517381e+02        0
       0        0 -9.817241e+02

4.695790e+02 -1.582596e+02        0
-1.582596e+02 -2.558475e+01        0
       0        0 6.344419e+02

-1.111437e+03 -3.417043e+02        0
-3.417043e+02 -6.442094e+02        0
       0        0 -1.009404e+03

7.510648e+02 -1.248023e+02        0
-1.248023e+02 -1.018662e+02        0
       0        0 7.825540e+02

-2.538640e+03 -2.616509e+02        0
-2.616509e+02 -3.033375e+02        0
       0        0 -2.583817e+03

-3.197650e+03 -7.496480e+02        0
-7.496480e+02 -1.685493e+03        0
       0        0 -3.031627e+03

2.040889e+02 -1.378369e+02        0
-1.378369e+02 -1.535420e+01        0
       0        0 4.821196e+02

-1.020507e+03 -3.135059e+02        0
-3.135059e+02 -7.661247e+01        0
       0        0 -9.380247e+02

-2.206991e+03 -2.564744e+02        0
-2.564744e+02 -1.580410e+02        0
       0        0 -2.319137e+03

-9.345168e+02 -2.803377e+02        0
-2.803377e+02 -6.485430e+01        0
       0        0 -7.915936e+02

-1.709685e+02 -1.219487e+02        0
-1.219487e+02 -2.091611e+01        0
       0        0 2.965923e+02

-9.744526e+02 -2.945483e+02        0
-2.945483e+02 -6.583924e+01        0
       0        0 -8.719959e+02

-6.672501e+00 -1.244847e+02        0
-1.244847e+02 -1.720315e+01        0
       0        0 3.703326e+02

-1.709073e+03 -2.683730e+02        0
-2.683730e+02 -1.039884e+02        0
       0        0 -1.849422e+03

-1.939316e+03 -2.651289e+02        0
-2.651289e+02 -1.204319e+02        0
       0        0 -2.079614e+03

-2.978474e+02 -1.253943e+02        0
-1.253943e+02 -2.504001e+01        0
       0        0 2.534513e+02

-8.937226e+02 -2.686011e+02        0
-2.686011e+02 -6.643970e+01        0
       0        0 -7.009641e+02

-1.508689e+03 -2.675080e+02        0
-2.675080e+02 -9.685209e+01        0
       0        0 -1.629528e+03

-8.065811e+02 -2.503281e+02        0
-2.503281e+02 -7.228675e+01        0
       0        0 -5.015807e+02

-4.612313e+02 -1.413446e+02        0
-1.413446e+02 -3.451925e+01        0
       0        0 2.365478e+02

-8.510753e+02 -2.587107e+02        0
-2.587107e+02 -6.914380e+01        0
       0        0 -6.034884e+02

-3.929106e+02 -1.323546e+02        0
-1.323546e+02 -2.958776e+01        0
       0        0 2.350387e+02

-1.179139e+03 -2.572986e+02        0
-2.572986e+02 -9.252407e+01        0
       0        0 -1.221147e+03

-1.333418e+03 -2.635396e+02        0
-2.635396e+02 -9.365129e+01        0
       0        0 -1.420089e+03

-5.076074e+02 -1.514132e+02        0
-1.514132e+02 -3.987785e+01        0
       0        0 2.538224e+02

-7.604017e+02 -2.432793e+02        0
-2.432793e+02 -7.568966e+01        0
       0        0 -3.971272e+02

-1.042127e+03 -2.493837e+02        0
-2.493837e+02 -9.243777e+01        0
       0        0 -1.032346e+03

-6.637781e+02 -2.326580e+02        0
-2.326580e+02 -8.355369e+01        0
       0        0 -1.862528e+02

-5.528610e+02 -1.729965e+02        0
-1.729965e+02 -5.227239e+01        0
       0        0 3.212435e+02

-7.127174e+02 -2.374258e+02        0
-2.374258e+02 -7.939482e+01        0
       0        0 -2.916025e+02

-5.366740e+02 -1.620256e+02        0
-1.620256e+02 -4.574675e+01        0
       0        0 2.831730e+02

-8.056041e+02 -2.295495e+02        0
-2.295495e+02 -9.356331e+01        0
       0        0 -6.824007e+02

-9.187887e+02 -2.401217e+02        0
-2.401217e+02 -9.287980e+01        0
       0        0 -8.530468e+02

-5.604857e+02 -1.845628e+02        0
-1.845628e+02 -5.970085e+01        0
       0        0 3.644833e+02

-6.137983e+02 -2.288139e+02        0
-2.288139e+02 -8.869114e+01        0
       0        0 -8.301293e+01

-6.992869e+02 -2.173658e+02        0
-2.173658e+02 -9.421471e+01        0
       0        0 -5.198219e+02

-5.780973e+02 -2.403441e+02        0
-2.403441e+02 -1.001453e+02        0
       0        0 5.094284e+02

-4.261594e+02 -2.226494e+02        0
-2.226494e+02 -1.186014e+02        0
       0        0 2.582979e+02

-3.101593e+02 -1.467722e+02        0
-1.467722e+02 -9.329748e+01        0
       0        0 2.917288e+01

-6.105278e+02 -2.846189e+02        0
-2.846189e+02 -1.332615e+02        0
       0        0 5.562577e+02

-5.911593e+02 -2.605072e+02        0
-2.605072e+02 -1.151627e+02        0
       0        0 5.363618e+02

-9.037172e+01 -8.270569e+01        0
-8.270569e+01 -8.058768e+01        0
       0        0 2.833719e+02

-3.307176e+02 -2.193482e+02        0
-2.193482e+02 -1.394032e+02        0
       0        0 4.056538e+02

-2.036001e+02 -1.179912e+02        0
-1.179912e+02 -8.838489e+01        0
       0        0 1.576755e+02

-3.785647e+02 -2.211770e+02        0
-2.211770e+02 -1.283984e+02        0
       0        0 3.346030e+02

-6.372015e+02 -3.135587e+02        0
-3.135587e+02 -1.550905e+02        0
       0        0 5.672745e+02

-2.829477e+02 -2.170527e+02        0
-2.170527e+02 -1.515084e+02        0
       0        0 4.702357e+02

3.056502e+01 -4.006984e+01        0
-4.006984e+01 -6.876133e+01        0
       0        0 4.060557e+02

-7.154433e+02 -3.885602e+02        0
-3.885602e+02 -2.119957e+02        0
       0        0 5.549997e+02

-6.724910e+02 -3.473431e+02        0
-3.473431e+02 -1.805793e+02        0
       0        0 5.675263e+02

2.998869e+02 7.175230e+01        0
7.175230e+01 -3.022956e+01        0
       0        0 6.394688e+02

-1.928456e+02 -2.114814e+02        0
-2.114814e+02 -1.790912e+02        0
       0        0 5.725139e+02

1.602310e+02 1.082016e+01        0
1.082016e+01 -5.307258e+01        0
       0        0 5.248198e+02

-2.356716e+02 -2.148226e+02        0
-2.148226e+02 -1.645003e+02        0
       0        0 5.269066e+02

-7.717537e+02 -4.278588e+02        0
-4.278588e+02 -2.440275e+02        0
       0        0 5.279762e+02

-1.553460e+02 -2.039628e+02        0
-2.039628e+02 -2.185768e+02        0
       0        0 5.984479e+02

4.163724e+02 1.532259e+02        0
1.532259e+02 -2.947020e+00        0
       0        0 7.370407e+02

-8.394442e+02 -4.639928e+02        0
-4.639928e+02 -8.512842e+02        0
       0        0 2.962254e+02

-8.344530e+02 -5.065409e+02        0
-5.065409e+02 -3.875762e+02        0
       0        0 4.552023e+02

9.565035e+01 2.845480e+02        0
2.845480e+02 2.499769e+02        0
       0        0 7.822508e+02

-2.590560e+02 1.037823e+02        0
1.037823e+02 -2.133031e+02        0
       0        0 5.959672e+02

3.441650e+02 2.631354e+02        0
2.631354e+02 6.280470e+01        0
       0        0 7.740070e+02

-1.421892e+02 -7.570704e+01        0
-7.570704e+01 -2.836467e+02        0
       0        0 6.003719e+02

1.179057e+01 -2.020818e+01        0
-2.020818e+01 -5.810475e+02        0
       0        0 5.300869e+02

9.655934e+00 -7.441637e+01        0
-7.441637e+01 1.773730e+01        0
       0        0 6.208716e+02

1.303230e+01 -1.179953e+02        0
-1.179953e+02 2.227231e+02        0
       0        0 7.467352e+02

1.177158e+01 -4.054163e+01        0
-4.054163e+01 -2.480164e+02        0
       0        0 3.917042e+02

8.285776e+00 -1.265147e+01        0
-1.265147e+01 -2.060623e+02        0
       0        0 4.113508e+02

1.702325e+01 -6.894761e+01        0
-6.894761e+01 -2.511383e+02        0
       0        0 4.741260e+02

1.026103e+01 -1.784591e+01        0
-1.784591e+01 -2.961289e+02        0
       0        0 4.661719e+02

2.482537e+00 -1.209789e+01        0
-1.209789e+01 -2.472333e+02        0
       0        0 3.818156e+02

5.918281e+00 -3.973650e+01        0
-3.973650e+01 -1.368523e+02        0
       0        0 4.968712e+02

4.370276e+00 9.221265e-01        0
9.221265e-01 -2.445474e+02        0
       0        0 2.379079e+02

4.296566e+00 -9.888694e-01        0
-9.888694e-01 -1.080374e+02        0
       0        0 2.880868e+02

7.737010e+00 -1.737295e+01        0
-1.737295e+01 -2.459341e+02        0
       0        0 3.117717e+02

6.175147e+00 -6.700034e+00        0
-6.700034e+00 -1.450876e+02        0
       0        0 3.503404e+02

-1.772306e+00 2.354181e+01        0
2.354181e+01 -3.678283e+02        0
       0        0 1.921263e+02

2.124686e-02 8.551230e+00        0
8.551230e+00 -3.219189e+02        0
       0        0 2.795871e+02

-3.111551e-01 2.452486e+01        0
2.452486e+01 -2.436958e+02        0
       0        0 1.160229e+02

1.206953e+00 8.875308e+00        0
8.875308e+00 -8.473663e+01        0
       0        0 1.730768e+02

1.706466e+00 1.470951e+01        0
1.470951e+01 -2.438258e+02        0
       0        0 1.723081e+02

2.621993e+00 4.280864e+00        0
4.280864e+00 -8.950734e+01        0
       0        0 2.281869e+02

-3.778386e+00 3.996234e+01        0
3.996234e+01 -3.995623e+02        0
       0        0 6.202912e+01

-3.011946e+00 3.370455e+01        0
3.370455e+01 -3.917153e+02        0
       0        0 1.198230e+02

-2.664496e+00 3.455829e+01        0
3.455829e+01 -2.448748e+02        0
       0        0 3.172510e+01

-8.208977e-01 1.561873e+01        0
1.561873e+01 -1.003350e+02        0
       0        0 8.255750e+01

-1.743157e+00 3.094489e+01        0
3.094489e+01 -2.440742e+02        0
       0        0 6.927603e+01

5.979731e-02 1.267483e+01        0
1.267483e+01 -8.953124e+01        0
       0        0 1.242664e+02

-4.279172e+00 4.413515e+01        0
4.413515e+01 -3.871524e+02        0
       0        0 -1.580826e+01

-4.172362e+00 4.317732e+01        0
4.317732e+01 -3.965879e+02        0
       0        0 1.739007e+01

-3.284477e+00 3.558094e+01        0
3.558094e+01 -2.473819e+02        0
       0        0 -1.865893e+01

-1.841890e+00 1.894333e+01        0
1.894333e+01 -1.288225e+02        0
       0        0 2.127571e+01

-3.152662e+00 3.592990e+01        0
3.592990e+01 -2.460126e+02        0
       0        0 2.688790e+00

-1.447865e+00 1.769895e+01        0
1.769895e+01 -1.142162e+02        0
       0        0 4.824107e+01

-3.931538e+00 4.192186e+01        0
4.192186e+01 -3.621690e+02        0
       0        0 -5.508092e+01

-4.175498e+00 4.352233e+01        0
4.352233e+01 -3.747741e+02        0
       0        0 -3.938796e+01

-2.020025e+00 1.938107e+01        0
1.938107e+01 -1.421538e+02        0
       0        0 1.489021e+00

-3.133522e+00 3.394964e+01        0
3.394964e+01 -2.484881e+02        0
       0        0 -3.302916e+01

-3.599370e+00 3.980853e+01        0
3.980853e+01 -3.511411e+02        0
       0        0 -6.432506e+01

2.717068e+01 -1.416248e+02        0
-1.416248e+02 -2.715506e+02        0
       0        0 6.179154e+02

1.326312e+01 -2.311752e+01        0
-2.311752e+01 -4.224786e+02        0
       0        0 5.081854e+02

2.235097e+01 -1.015085e+02        0
-1.015085e+02 -2.553212e+02        0
       0        0 5.532163e+02

-7.387445e+01 1.235701e+02        0
1.235701e+02 4.364926e+02        0
       0        0 8.131592e+02

-4.483679e+01 -8.760763e+01        0
-8.760763e+01 4.158270e+02        0
       0        0 8.217373e+02

-3.582843e+02 -2.423758e+02        0
-2.423758e+02 -1.085499e+03        0
       0        0 3.540669e+02

-3.259918e+02 -3.776332e+01        0
-3.776332e+01 -1.061285e+02        0
       0        0 6.208404e+02

-1.253416e+01 -4.624974e+01        0
-4.624974e+01 -8.239638e+02        0
       0        0 5.038419e+02

-7.571115e+01 -1.660707e+02        0
-1.660707e+02 -2.350432e+02        0
       0        0 6.457689e+02

-3.186936e+01 2.988726e+01        0
2.988726e+01 4.890481e+01        0
       0        0 5.679466e+02

-8.312965e+01 1.426438e+02        0
1.426438e+02 -2.392085e+02        0
       0        0 4.826774e+02

-6.630670e+01 1.750969e+02        0
1.750969e+02 -5.824500e+02        0
       0        0 3.961093e+02

-2.116747e+01 5.587537e+01        0
5.587537e+01 -6.854805e+01        0
       0        0 4.784413e+02

-4.002919e+01 1.263401e+02        0
1.263401e+02 -2.563422e+02        0
       0        0 4.237060e+02

-2.263879e+01 1.048030e+02        0
1.048030e+02 -4.362226e+02        0
       0        0 3.784055e+02

-1.357564e+01 5.900175e+01        0
5.900175e+01 -1.856002e+02        0
       0        0 3.756052e+02

-1.852035e+01 9.909786e+01        0
9.909786e+01 -2.599402e+02        0
       0        0 3.523522e+02

-8.055780e+00 6.905513e+01        0
6.905513e+01 -3.123514e+02        0
       0        0 3.386258e+02

-7.491433e+00 4.821860e+01        0
4.821860e+01 -3.278818e+02        0
       0        0 1.915234e+02

-1.002985e+01 5.387619e+01        0
5.387619e+01 -2.734638e+02        0
       0        0 2.769666e+02

-2.132166e+00 3.185799e+01        0
3.185799e+01 -1.837855e+02        0
       0        0 2.248061e+02

-6.753949e+00 5.310554e+01        0
5.310554e+01 -2.601025e+02        0
       0        0 2.059781e+02

-4.346718e+00 4.710693e+01        0
4.710693e+01 -2.320289e+02        0
       0        0 2.835807e+02

-1.113016e+01 7.310259e+01        0
7.310259e+01 -2.600143e+02        0
       0        0 2.770101e+02

-4.156262e+00 3.893444e+01        0
3.893444e+01 -3.681704e+02        0
       0        0 6.442296e+01

-5.564852e+00 4.314317e+01        0
4.314317e+01 -3.569058e+02        0
       0        0 1.208274e+02

-2.346153e-01 1.613864e+01        0
1.613864e+01 -1.497062e+02        0
       0        0 1.170722e+02

-1.824808e+00 2.921496e+01        0
2.921496e+01 -2.598490e+02        0
       0        0 8.993669e+01

-8.526275e-01 2.191317e+01        0
2.191317e+01 -1.588155e+02        0
       0        0 1.681413e+02

-3.724437e+00 3.875338e+01        0
3.875338e+01 -2.601294e+02        0
       0        0 1.430987e+02

-3.208199e+00 3.576060e+01        0
3.576060e+01 -3.680498e+02        0
       0        0 2.086942e+01

-8.114372e-01 2.362069e+01        0
2.362069e+01 -2.592414e+02        0
       0        0 4.673636e+01

-1.010730e-01 1.343554e+01        0
1.343554e+01 -1.502316e+02        0
       0        0 7.349383e+01

-2.395307e+00 3.269663e+01        0
3.269663e+01 -3.531315e+02        0
       0        0 -3.534891e+01

-2.645607e+00 3.368496e+01        0
3.368496e+01 -3.617001e+02        0
       0        0 -1.173242e+01

-6.455577e-01 1.361662e+01        0
1.361662e+01 -1.615860e+02        0
       0        0 1.149430e+01

-5.822138e-01 2.098927e+01        0
2.098927e+01 -2.570644e+02        0
       0        0 -1.217738e+01

-2.829486e-01 1.285847e+01        0
1.285847e+01 -1.554498e+02        0
       0        0 3.823559e+01

-4.630115e-01 2.113317e+01        0
2.113317e+01 -2.583057e+02        0
       0        0 1.298510e+01

-2.563229e+00 3.365541e+01        0
3.365541e+01 -3.403370e+02        0
       0        0 -6.224410e+01

-2.388697e+00 3.272603e+01        0
3.272603e+01 -3.453219e+02        0
       0        0 -5.173446e+01

-1.499145e+00 1.671939e+01        0
1.671939e+01 -1.666100e+02        0
       0        0 -1.688740e+01

-1.583530e+00 2.510378e+01        0
2.510378e+01 -2.538168e+02        0
       0        0 -4.016820e+01

-1.080175e+00 1.507186e+01        0
1.507186e+01 -1.659101e+02        0
       0        0 -6.829449e+00

-1.002575e+00 2.251209e+01        0
2.251209e+01 -2.555529e+02        0
       0        0 -2.965263e+01

-3.227375e+00 3.749101e+01        0
3.749101e+01 -3.431358e+02        0
       0        0 -6.840973e+01

-2.862124e+00 3.531772e+01        0
3.531772e+01 -3.394346e+02        0
       0        0 -6.771658e+01

-2.016407e+00 1.910910e+01        0
1.910910e+01 -1.539338e+02        0
       0        0 -1.220766e+01

-2.755825e+00 3.136463e+01        0
3.136463e+01 -2.499128e+02        0
       0        0 -4.159389e+01

-1.833332e+00 1.816591e+01        0
1.816591e+01 -1.626951e+02        0
       0        0 -1.872703e+01

-2.204431e+00 2.822403e+01        0
2.822403e+01 -2.519135e+02        0
       0        0 -4.413917e+01

8.049574e+02 -1.535489e+02        0
-1.535489e+02 6.037415e+00        0
       0        0 3.987056e+02

1.024664e+03 -4.984361e+01        0
-4.984361e+01 -4.617148e+01        0
       0        0 5.181975e+02

-5.662174e+02 2.837357e+01        0
2.837357e+01 -1.977356e+01        0
       0        0 -2.616270e+02

-1.184688e-01 -2.112654e+02        0
-2.112654e+02 2.672607e+01        0
       0        0 3.134490e+01

-1.199987e+03 2.554411e+02        0
2.554411e+02 -6.486040e+02        0
       0        0 -6.965059e+02

-1.360522e+02 -1.499552e+01        0
-1.499552e+01 -2.960443e+02        0
       0        0 -1.091428e+02

5.218477e+02 -1.131028e+02        0
-1.131028e+02 1.632742e+01        0
       0        0 2.632793e+02

8.188638e+01 -1.878998e+02        0
-1.878998e+02 7.077077e+01        0
       0        0 6.834397e+01

-2.508986e+02 -8.259960e+01        0
-8.259960e+01 8.413363e+01        0
       0        0 -1.024584e+02

1.915624e+02 -4.797974e+01        0
-4.797974e+01 7.375973e+00        0
       0        0 9.650088e+01

3.228547e+02 -7.311152e+01        0
-7.311152e+01 1.100058e+01        0
       0        0 1.639110e+02

-5.079743e+01 -9.378198e+01        0
-9.378198e+01 7.234580e+01        0
       0        0 -1.924046e+01

7.027752e+01 -1.013134e+02        0
-1.013134e+02 3.918766e+01        0
       0        0 4.198019e+01

-1.120178e+02 -1.050906e+02        0
-1.050906e+02 8.538617e+01        0
       0        0 -4.281613e+01

9.278386e+01 -1.411979e+02        0
-1.411979e+02 5.379303e+01        0
       0        0 6.055527e+01

4.938561e+01 -2.017629e+01        0
-2.017629e+01 3.836140e+00        0
       0        0 2.099555e+01

1.052909e+02 -3.146768e+01        0
-3.146768e+01 5.154926e+00        0
       0        0 5.107954e+01

-1.538826e+01 -5.051700e+01        0
-5.051700e+01 4.817063e+01        0
       0        0 -7.935472e+00

2.170547e+01 -4.662371e+01        0
-4.662371e+01 2.260530e+01        0
       0        0 1.075280e+01

-2.586591e+01 -7.231926e+01        0
-7.231926e+01 5.957853e+01        0
       0        0 -1.062066e+01

4.368267e+01 -7.037414e+01        0
-7.037414e+01 2.936538e+01        0
       0        0 2.443391e+01

1.476991e+01 -1.217749e+01        0
-1.217749e+01 2.919813e+00        0
       0        0 1.907107e+00

6.325584e+00 -2.879350e+01        0
-2.879350e+01 1.764130e+01        0
       0        0 1.159743e+00

-1.098884e+01 -3.210817e+01        0
-3.210817e+01 3.869634e+01        0
       0        0 -7.596699e+00

-1.391838e+01 -1.962513e+00        0
-1.962513e+00 2.046426e+00        0
       0        0 -1.411623e+01

-4.868778e+00 -6.428861e+00        0
-6.428861e+00 2.328041e+00        0
       0        0 -9.180179e+00

-8.386739e+00 -5.514376e+00        0
-5.514376e+00 2.864891e+01        0
       0        0 -8.266751e+00

-7.471473e+00 -4.848248e+00        0
-4.848248e+00 1.270203e+01        0
       0        0 -7.517223e+00

-9.127788e+00 -1.745809e+01        0
-1.745809e+01 3.197446e+01        0
       0        0 -7.944483e+00

-3.014591e+00 -1.542577e+01        0
-1.542577e+01 1.431729e+01        0
       0        0 -4.775965e+00

-8.743599e+02 3.972308e+02        0
3.972308e+02 -9.722388e+01        0
       0        0 -5.284094e+02

-1.715084e+03 6.373563e+02        0
6.373563e+02 -3.959567e+02        0
       0        0 -8.592803e+02

9.939627e+01 2.836140e+02        0
2.836140e+02 -9.669906e+01        0
       0        0 3.532108e+02

-3.421650e+02 5.347259e+02        0
5.347259e+02 -1.464418e+02        0
       0        0 -8.927462e+01

7.421128e+02 1.801886e+02        0
1.801886e+02 -6.326200e+01        0
       0        0 4.956360e+02

-3.393485e+02 5.293810e+02        0
5.293810e+02 -3.255216e+02        0
       0        0 -1.706140e+02

-3.243184e+02 2.636439e+02        0
2.636439e+02 -1.353082e+02        0
       0        0 -2.727545e+02

-2.690977e+02 4.275517e+02        0
4.275517e+02 -2.437849e+02        0
       0        0 -1.280414e+01

-4.117699e+02 3.504948e+02        0
3.504948e+02 -1.996537e+02        0
       0        0 2.363114e+02

1.245977e+02 -3.534804e+01        0
-3.534804e+01 -3.488823e+01        0
       0        0 2.354043e+02

-1.199050e+01 1.056257e+02        0
1.056257e+02 -1.069133e+02        0
       0        0 -6.082453e+00

-7.442053e+02 5.452213e+02        0
5.452213e+02 -4.591200e+02        0
       0        0 2.099362e+02

-2.295915e+02 2.427393e+02        0
2.427393e+02 -2.977839e+02        0
       0        0 2.321307e+02

-6.747054e+02 4.551562e+02        0
4.551562e+02 -3.227848e+02        0
       0        0 1.965289e+02

-2.362497e+02 3.218249e+02        0
3.218249e+02 -2.940105e+02        0
       0        0 1.027606e+02

1.050272e+02 -1.500678e+02        0
-1.500678e+02 1.380095e+02        0
       0        0 5.670238e+02

1.450940e+02 -1.221730e+02        0
-1.221730e+02 5.735193e+01        0
       0        0 4.303542e+02

-5.499342e+02 5.662669e+02        0
5.662669e+02 -6.904848e+02        0
       0        0 3.038104e+02

-2.198751e+02 1.661085e+02        0
1.661085e+02 -2.551813e+02        0
       0        0 4.456140e+02

-6.823308e+02 5.853043e+02        0
5.853043e+02 -5.886644e+02        0
       0        0 2.526257e+02

-2.278618e+02 1.924926e+02        0
1.924926e+02 -2.790043e+02        0
       0        0 3.517837e+02

4.702495e+01 -1.291016e+02        0
-1.291016e+02 1.846828e+02        0
       0        0 6.430850e+02

-2.005846e+02 1.552721e+02        0
1.552721e+02 -2.371022e+02        0
       0        0 5.052912e+02

-3.966751e+02 4.964929e+02        0
4.964929e+02 -7.473937e+02        0
       0        0 3.490592e+02

-2.839907e+01 -1.938825e+01        0
-1.938825e+01 1.398225e+02        0
       0        0 6.339787e+02

-1.909663e+00 -7.845362e+01        0
-7.845362e+01 1.855908e+02        0
       0        0 6.626319e+02

-1.475147e+02 2.802956e+02        0
2.802956e+02 -6.965029e+02        0
       0        0 3.945506e+02

-1.300588e+02 1.468756e+02        0
1.468756e+02 -2.257216e+02        0
       0        0 5.204538e+02

-2.562123e+02 3.944447e+02        0
3.944447e+02 -7.508596e+02        0
       0        0 3.800323e+02

-1.698578e+02 1.513879e+02        0
1.513879e+02 -2.287617e+02        0
       0        0 5.289691e+02

-3.687647e+02 3.361835e+02        0
3.361835e+02 -3.365296e+02        0
       0        0 -3.225785e+02

-6.276415e+02 3.032224e+02        0
3.032224e+02 -2.101298e+02        0
       0        0 -3.789829e+02

-2.842027e+02 4.895404e+02        0
4.895404e+02 -8.843436e+02        0
       0        0 -4.585187e+02

-8.906270e+02 7.906635e+02        0
7.906635e+02 -1.042282e+03        0
       0        0 -7.405952e+02

-1.980903e+02 2.594953e+02        0
2.594953e+02 -4.245471e+02        0
       0        0 -2.169771e+02

-2.491464e+02 2.960829e+02        0
2.960829e+02 -4.149465e+02        0
       0        0 -2.761778e+02

-1.682526e+02 2.488701e+02        0
2.488701e+02 -6.905672e+02        0
       0        0 -2.790832e+02

-1.630585e+02 3.386396e+02        0
3.386396e+02 -7.504489e+02        0
       0        0 -3.373763e+02

-1.524375e+02 1.329171e+01        0
1.329171e+01 7.212174e+01        0
       0        0 -8.485922e+01

-1.306565e+02 -4.578284e+01        0
-4.578284e+01 8.375471e+01        0
       0        0 -6.640494e+01

-2.312690e+02 5.949389e+01        0
5.949389e+01 2.844235e+01        0
       0        0 -1.389474e+02

-2.210790e+02 -1.746718e+01        0
-1.746718e+01 7.065736e+01        0
       0        0 -1.147953e+02

-3.247739e+02 1.642734e+02        0
1.642734e+02 -8.837008e+01        0
       0        0 -2.207320e+02

-3.699944e+02 7.530510e+01        0
7.530510e+01 1.083621e+01        0
       0        0 -2.016723e+02

-5.566440e+01 1.016196e+02        0
1.016196e+02 6.097448e+00        0
       0        0 -3.448742e+01

-1.255987e+02 6.528271e+01        0
6.528271e+01 4.474452e+01        0
       0        0 -7.348931e+01

-9.973562e+01 1.544211e+02        0
1.544211e+02 -6.549641e+01        0
       0        0 -7.447517e+01

-1.875013e+02 1.143791e+02        0
1.143791e+02 -1.949376e+01        0
       0        0 -1.242743e+02

-1.532112e+02 2.152278e+02        0
2.152278e+02 -2.019955e+02        0
       0        0 -1.359706e+02

-2.448988e+02 1.933239e+02        0
1.933239e+02 -1.632401e+02        0
       0        0 -1.961023e+02

-5.429079e+01 -8.057884e+00        0
-8.057884e+00 7.509280e+01        0
       0        0 -2.958122e+01

-4.471325e+01 -3.464001e+01        0
-3.464001e+01 6.807000e+01        0
       0        0 -2.422180e+01

-9.380423e+01 -3.902604e+00        0
-3.902604e+00 8.116811e+01        0
       0        0 -5.036855e+01

-7.701098e+01 -4.473371e+01        0
-4.473371e+01 7.903296e+01        0
       0        0 -3.937079e+01

-7.262925e+00 3.659935e+01        0
3.659935e+01 4.806899e+01        0
       0        0 1.010114e+00

-4.124920e+01 1.877394e+01        0
1.877394e+01 6.774274e+01        0
       0        0 -2.087892e+01

-2.552950e+01 6.270647e+01        0
6.270647e+01 3.778865e+01        0
       0        0 -1.122742e+01

-7.564818e+01 3.565565e+01        0
3.565565e+01 6.642891e+01        0
       0        0 -4.054035e+01

-8.996141e+00 -1.489751e+00        0
-1.489751e+00 5.097196e+01        0
       0        0 -8.746939e+00

-1.042604e+01 -4.095370e+00        0
-4.095370e+00 4.294183e+01        0
       0        0 -1.020426e+01

-1.557377e+01 -4.512350e+00        0
-4.512350e+00 5.585321e+01        0
       0        0 -1.140624e+01

-1.526520e+01 -1.290073e+01        0
-1.290073e+01 4.755570e+01        0
       0        0 -1.187903e+01

-2.960000e+01 -7.135656e+00        0
-7.135656e+00 6.479630e+01        0
       0        0 -1.770283e+01

-2.573795e+01 -2.313351e+01        0
-2.313351e+01 5.649649e+01        0
       0        0 -1.603741e+01

1.006323e+01 2.880325e+00        0
2.880325e+00 4.444509e+01        0
       0        0 1.017243e+01

-1.987467e+00 1.199274e+00        0
1.199274e+00 5.114580e+01        0
       0        0 -1.766069e+00

7.920392e+00 9.710086e+00        0
9.710086e+00 4.636098e+01        0
       0        0 9.313599e+00

-7.619268e+00 4.190716e+00        0
4.190716e+00 5.508684e+01        0
       0        0 -4.158489e+00

2.859219e+00 2.001827e+01        0
2.001827e+01 4.872475e+01        0
       0        0 6.851914e+00

-1.972009e+01 9.339914e+00        0
9.339914e+00 6.171712e+01        0
       0        0 -9.851182e+00

POINT_DATA     938
VECTORS DISPLACEMENT_2.600000e+00 double
2.037358e-09    1.705247e-08    0.000000e+00
2.214961e-09    1.607963e-08    0.000000e+00
1.864361e-09    1.804815e-08    0.000000e+00
-6.833091e-10    1.724093e-08    0.000000e+00
-4.088939e-10    1.607404e-08    0.000000e+00
-1.079955e-10    1.494837e-08    0.000000e+00
2.162225e-10    1.387481e-08    0.000000e+00
5.598770e-10    1.286576e-08    0.000000e+00
9.179253e-10    1.193566e-08    0.000000e+00
1.284055e-09    1.110153e-08    0.000000e+00
1.649985e-09    1.038287e-08    0.000000e+00
2.005694e-09    9.804862e-09    0.000000e+00
2.328170e-09    9.406579e-09    0.000000e+00
2.553692e-09    9.196796e-09    0.000000e+00
2.753490e-09    9.115761e-09    0.000000e+00
-1.026824e-11    3.129509e-08    0.000000e+00
-2.048899e-10    3.122872e-08    0.000000e+00
-3.863827e-11    3.073926e-08    0.000000e+00
-4.235445e-10    3.064493e-08    0.000000e+00
-7.128253e-11    2.899305e-08    0.000000e+00
-7.142044e-10    2.887097e-08    0.000000e+00
-5.824595e-11    2.790144e-08    0.000000e+00
-7.863449e-10    2.776549e-08    0.000000e+00
-6.265642e-11    2.995329e-08    0.000000e+00
-5.930274e-10    2.984441e-08    0.000000e+00
4.747724e-11    2.546085e-08    0.000000e+00
-7.865479e-10    2.529896e-08    0.000000e+00
1.439377e-10    2.416361e-08    0.000000e+00
-7.184603e-10    2.399021e-08    0.000000e+00
4.251207e-10    2.151082e-08    0.000000e+00
-4.588095e-10    2.131771e-08    0.000000e+00
6.076952e-10    2.018296e-08    0.000000e+00
-2.731235e-10    1.998207e-08    0.000000e+00
2.700306e-10    2.284179e-08    0.000000e+00
-6.082811e-10    2.265798e-08    0.000000e+00
-1.951540e-11    2.671458e-08    0.000000e+00
-8.099260e-10    2.656524e-08    0.000000e+00
1.503394e-09    2.036388e-08    0.000000e+00
1.325966e-09    2.167823e-08    0.000000e+00
1.167702e-09    2.299439e-08    0.000000e+00
1.028420e-09    2.429977e-08    0.000000e+00
9.066271e-10    2.557818e-08    0.000000e+00
7.992493e-10    2.681025e-08    0.000000e+00
7.014247e-10    2.797284e-08    0.000000e+00
6.062201e-10    2.903763e-08    0.000000e+00
5.040180e-10    2.997029e-08    0.000000e+00
3.807075e-10    3.072882e-08    0.000000e+00
2.142381e-10    3.125371e-08    0.000000e+00
2.637092e-12    3.144739e-08    0.000000e+00
-4.608135e-12    3.154059e-08    0.000000e+00
7.305471e-12    3.159910e-08    0.000000e+00
-1.701537e-10    3.201823e-08    0.000000e+00
-4.672530e-10    3.110872e-08    0.000000e+00
-8.487404e-10    3.047959e-08    0.000000e+00
-1.150681e-09    2.966506e-08    0.000000e+00
-1.377846e-09    2.868428e-08    0.000000e+00
-1.529723e-09    2.757376e-08    0.000000e+00
-1.611723e-09    2.636832e-08    0.000000e+00
-1.629084e-09    2.509684e-08    0.000000e+00
-1.587342e-09    2.378296e-08    0.000000e+00
-1.491771e-09    2.244585e-08    0.000000e+00
-1.347254e-09    2.110109e-08    0.000000e+00
-1.158192e-09    1.976160e-08    0.000000e+00
-9.284190e-10    1.843874e-08    0.000000e+00
-5.761606e-11    1.866050e-08    0.000000e+00
8.122529e-10    1.886821e-08    0.000000e+00
1.698960e-09    1.906197e-08    0.000000e+00
2.393516e-09    1.513489e-08    0.000000e+00
2.568504e-09    1.422413e-08    0.000000e+00
2.734446e-09    1.335397e-08    0.000000e+00
2.884760e-09    1.253197e-08    0.000000e+00
3.011661e-09    1.176675e-08    0.000000e+00
3.106509e-09    1.106824e-08    0.000000e+00
3.157871e-09    1.044616e-08    0.000000e+00
3.177743e-09    9.901229e-09    0.000000e+00
3.065280e-09    9.396351e-09    0.000000e+00
2.985453e-09    9.283503e-09    0.000000e+00
2.863536e-09    9.201572e-09    0.000000e+00
2.094458e-09    1.284656e-08    0.000000e+00
1.498553e-09    1.237589e-08    0.000000e+00
1.418649e-09    1.569691e-08    0.000000e+00
6.516892e-10    1.532080e-08    0.000000e+00
9.961875e-10    1.778577e-08    0.000000e+00
1.535849e-10    1.751748e-08    0.000000e+00
1.201701e-09    1.672745e-08    0.000000e+00
3.932114e-10    1.640193e-08    0.000000e+00
1.642942e-09    1.470131e-08    0.000000e+00
9.251385e-10    1.428260e-08    0.000000e+00
1.870070e-09    1.374827e-08    0.000000e+00
1.209232e-09    1.329717e-08    0.000000e+00
2.676397e-09    1.056128e-08    0.000000e+00
2.319870e-09    1.014208e-08    0.000000e+00
2.309410e-09    1.200632e-08    0.000000e+00
1.786358e-09    1.153194e-08    0.000000e+00
2.506300e-09    1.123877e-08    0.000000e+00
2.064052e-09    1.078017e-08    0.000000e+00
2.806025e-09    9.980055e-09    0.000000e+00
2.545720e-09    9.639548e-09    0.000000e+00
2.918539e-09    9.538607e-09    0.000000e+00
2.730829e-09    9.328179e-09    0.000000e+00
2.270914e-09    8.809707e-09    0.000000e+00
2.318429e-09    9.033769e-09    0.000000e+00
8.277429e-10    8.388751e-09    0.000000e+00
8.262500e-10    8.551913e-09    0.000000e+00
4.717105e-10    8.279611e-09    0.000000e+00
4.642426e-10    8.387663e-09    0.000000e+00
6.315719e-10    8.331364e-09    0.000000e+00
6.258196e-10    8.466579e-09    0.000000e+00
2.505748e-10    8.188367e-09    0.000000e+00
2.456799e-10    8.247911e-09    0.000000e+00
1.826567e-10    8.147063e-09    0.000000e+00
1.811812e-10    8.185750e-09    0.000000e+00
3.457819e-10    8.232282e-09    0.000000e+00
3.387482e-10    8.314956e-09    0.000000e+00
1.061022e-09    8.453148e-09    0.000000e+00
1.066535e-09    8.643357e-09    0.000000e+00
1.913542e-10    8.103902e-09    0.000000e+00
2.631843e-10    8.125156e-09    0.000000e+00
3.609675e-10    8.146825e-09    0.000000e+00
4.876761e-10    8.169717e-09    0.000000e+00
6.459830e-10    8.195163e-09    0.000000e+00
8.377565e-10    8.225086e-09    0.000000e+00
1.063437e-09    8.262063e-09    0.000000e+00
1.321291e-09    8.309366e-09    0.000000e+00
1.606538e-09    8.370979e-09    0.000000e+00
1.910376e-09    8.451531e-09    0.000000e+00
2.218803e-09    8.556401e-09    0.000000e+00
2.511945e-09    8.690489e-09    0.000000e+00
2.761018e-09    8.862032e-09    0.000000e+00
2.952466e-09    9.058718e-09    0.000000e+00
2.890561e-09    9.164882e-09    0.000000e+00
2.857240e-09    9.251832e-09    0.000000e+00
2.650596e-09    9.287516e-09    0.000000e+00
2.353209e-09    9.254083e-09    0.000000e+00
2.019683e-09    9.178536e-09    0.000000e+00
1.682701e-09    9.076062e-09    0.000000e+00
1.364464e-09    8.959161e-09    0.000000e+00
1.078675e-09    8.836934e-09    0.000000e+00
8.324723e-10    8.715812e-09    0.000000e+00
6.281790e-10    8.599978e-09    0.000000e+00
4.648226e-10    8.491790e-09    0.000000e+00
3.394193e-10    8.392200e-09    0.000000e+00
2.480105e-10    8.301118e-09    0.000000e+00
1.864736e-10    8.217723e-09    0.000000e+00
1.511221e-10    8.140735e-09    0.000000e+00
1.417109e-10    8.127561e-09    0.000000e+00
1.387453e-10    8.107601e-09    0.000000e+00
1.426037e-10    8.082701e-09    0.000000e+00
1.655144e-09    8.839501e-09    0.000000e+00
1.628621e-09    8.608872e-09    0.000000e+00
1.344824e-09    8.739880e-09    0.000000e+00
1.329724e-09    8.526020e-09    0.000000e+00
1.985897e-09    8.938976e-09    0.000000e+00
1.947729e-09    8.702948e-09    0.000000e+00
2.866369e-09    9.181155e-09    0.000000e+00
2.826662e-09    9.063998e-09    0.000000e+00
2.624493e-09    9.117192e-09    0.000000e+00
2.574536e-09    8.928231e-09    0.000000e+00
2.968445e-09    9.203229e-09    0.000000e+00
2.992682e-09    9.192090e-09    0.000000e+00
2.035793e-09    7.559151e-09    0.000000e+00
2.071089e-09    7.493256e-09    0.000000e+00
2.077101e-09    7.444098e-09    0.000000e+00
2.068298e-09    7.386532e-09    0.000000e+00
1.934678e-09    7.355290e-09    0.000000e+00
1.723783e-09    7.356301e-09    0.000000e+00
1.475340e-09    7.385531e-09    0.000000e+00
1.221388e-09    7.434836e-09    0.000000e+00
9.829505e-10    7.496729e-09    0.000000e+00
7.714796e-10    7.565635e-09    0.000000e+00
5.921220e-10    7.637617e-09    0.000000e+00
4.458461e-10    7.710164e-09    0.000000e+00
3.311602e-10    7.781951e-09    0.000000e+00
2.454622e-10    7.852630e-09    0.000000e+00
1.860618e-10    7.922622e-09    0.000000e+00
1.509134e-10    7.992952e-09    0.000000e+00
1.391039e-10    8.065077e-09    0.000000e+00
1.113833e-10    8.057709e-09    0.000000e+00
1.060006e-10    8.033255e-09    0.000000e+00
1.249130e-10    8.010132e-09    0.000000e+00
1.680987e-10    7.989226e-09    0.000000e+00
2.369238e-10    7.971274e-09    0.000000e+00
3.338057e-10    7.956575e-09    0.000000e+00
4.616390e-10    7.944671e-09    0.000000e+00
6.229569e-10    7.933971e-09    0.000000e+00
8.187748e-10    7.921313e-09    0.000000e+00
1.047090e-09    7.901531e-09    0.000000e+00
1.300962e-09    7.866893e-09    0.000000e+00
1.566612e-09    7.807147e-09    0.000000e+00
1.822460e-09    7.706238e-09    0.000000e+00
5.420493e-10    7.745407e-09    0.000000e+00
4.984647e-10    7.847781e-09    0.000000e+00
1.419340e-09    7.546201e-09    0.000000e+00
1.360762e-09    7.701794e-09    0.000000e+00
1.913327e-09    7.468021e-09    0.000000e+00
1.877657e-09    7.575698e-09    0.000000e+00
1.681025e-09    7.502500e-09    0.000000e+00
1.627682e-09    7.645440e-09    0.000000e+00
9.232435e-10    7.642949e-09    0.000000e+00
8.683467e-10    7.782907e-09    0.000000e+00
1.160838e-09    7.593532e-09    0.000000e+00
1.102509e-09    7.746112e-09    0.000000e+00
7.157589e-10    7.693761e-09    0.000000e+00
6.661264e-10    7.815949e-09    0.000000e+00
2.139706e-10    7.902890e-09    0.000000e+00
1.881299e-10    7.948779e-09    0.000000e+00
4.020626e-10    7.797535e-09    0.000000e+00
3.646493e-10    7.880013e-09    0.000000e+00
2.936755e-10    7.850004e-09    0.000000e+00
2.622091e-10    7.913543e-09    0.000000e+00
1.304103e-10    8.011299e-09    0.000000e+00
1.153624e-10    8.024649e-09    0.000000e+00
1.601901e-10    7.956487e-09    0.000000e+00
1.397464e-10    7.985826e-09    0.000000e+00
1.239739e-10    8.068031e-09    0.000000e+00
1.146342e-10    8.065214e-09    0.000000e+00
-3.143843e-14    -2.617422e-11    0.000000e+00
-3.519486e-12    -2.813476e-11    0.000000e+00
-7.772359e-12    -3.355121e-11    0.000000e+00
-1.365157e-11    -4.186486e-11    0.000000e+00
-2.231629e-11    -5.136745e-11    0.000000e+00
-3.553865e-11    -5.792386e-11    0.000000e+00
-5.659327e-11    -5.249627e-11    0.000000e+00
-9.147460e-11    -1.791077e-11    0.000000e+00
-1.548968e-10    7.900584e-11    0.000000e+00
-2.526713e-10    2.851749e-10    0.000000e+00
-4.880208e-10    7.090361e-10    0.000000e+00
-1.712165e-10    7.689616e-10    0.000000e+00
2.652478e-10    8.105039e-10    0.000000e+00
7.624898e-10    8.799275e-10    0.000000e+00
4.693847e-10    3.206519e-10    0.000000e+00
2.629985e-10    7.930821e-11    0.000000e+00
1.406784e-10    -1.837787e-11    0.000000e+00
7.013038e-11    -5.417297e-11    0.000000e+00
2.991209e-11    -6.198679e-11    0.000000e+00
8.550256e-12    -5.771122e-11    0.000000e+00
-1.165935e-12    -4.963033e-11    0.000000e+00
-3.901962e-12    -4.201308e-11    0.000000e+00
-2.789776e-12    -3.689550e-11    0.000000e+00
1.054927e-13    -3.517786e-11    0.000000e+00
5.504741e-14    -3.352384e-11    0.000000e+00
1.452528e-14    -3.100266e-11    0.000000e+00
1.804250e-11    -6.996593e-11    0.000000e+00
-8.310592e-12    -6.904276e-11    0.000000e+00
1.205799e-10    4.251971e-11    0.000000e+00
-4.247082e-11    4.635970e-11    0.000000e+00
1.835083e-10    2.603426e-10    0.000000e+00
-9.792948e-11    2.552526e-10    0.000000e+00
7.297885e-11    -4.135760e-11    0.000000e+00
-1.779858e-11    -3.983377e-11    0.000000e+00
3.938124e-11    -6.828922e-11    0.000000e+00
-1.047903e-11    -6.763397e-11    0.000000e+00
-1.260842e-13    -5.079266e-11    0.000000e+00
-5.928035e-12    -4.876533e-11    0.000000e+00
5.783163e-12    -6.155707e-11    0.000000e+00
-7.255692e-12    -6.000751e-11    0.000000e+00
-1.985981e-12    -4.155063e-11    0.000000e+00
-4.190362e-12    -3.924448e-11    0.000000e+00
-1.510937e-12    -3.557276e-11    0.000000e+00
-2.163670e-12    -3.312891e-11    0.000000e+00
-9.336944e-10    2.010770e-09    0.000000e+00
-8.621131e-10    3.359511e-09    0.000000e+00
-5.124057e-10    4.631106e-09    0.000000e+00
2.854363e-11    5.694498e-09    0.000000e+00
6.313232e-10    6.487337e-09    0.000000e+00
1.198239e-09    7.011132e-09    0.000000e+00
1.655514e-09    7.302794e-09    0.000000e+00
1.957805e-09    7.419131e-09    0.000000e+00
2.092270e-09    7.426374e-09    0.000000e+00
2.156450e-09    7.380605e-09    0.000000e+00
2.201017e-09    7.129344e-09    0.000000e+00
2.164733e-09    6.773366e-09    0.000000e+00
2.053256e-09    6.281434e-09    0.000000e+00
1.881837e-09    5.628320e-09    0.000000e+00
1.675471e-09    4.812747e-09    0.000000e+00
1.458476e-09    3.853647e-09    0.000000e+00
1.244714e-09    2.799945e-09    0.000000e+00
1.021878e-09    1.747653e-09    0.000000e+00
1.080898e-09    6.207538e-09    0.000000e+00
1.493955e-09    5.928990e-09    0.000000e+00
-1.304721e-10    3.146573e-09    0.000000e+00
5.356659e-10    2.961005e-09    0.000000e+00
-2.387436e-10    1.888981e-09    0.000000e+00
3.666477e-10    1.779837e-09    0.000000e+00
1.733702e-10    4.360459e-09    0.000000e+00
8.069604e-10    4.111040e-09    0.000000e+00
6.075528e-10    5.400400e-09    0.000000e+00
1.144675e-09    5.117381e-09    0.000000e+00
1.857416e-09    7.132722e-09    0.000000e+00
2.032032e-09    6.956011e-09    0.000000e+00
1.516820e-09    6.775576e-09    0.000000e+00
1.803267e-09    6.535568e-09    0.000000e+00
2.068778e-09    7.327086e-09    0.000000e+00
2.155729e-09    7.226793e-09    0.000000e+00
2.139460e-09    7.413682e-09    0.000000e+00
2.166399e-09    7.392101e-09    0.000000e+00
0.000000e+00    0.000000e+00    0.000000e+00
0.000000e+00    0.000000e+00    0.000000e+00
0.000000e+00    0.000000e+00    0.000000e+00
0.000000e+00    0.000000e+00    0.000000e+00
0.000000e+00    0.000000e+00    0.000000e+00
0.000000e+00    0.000000e+00    0.000000e+00
0.000000e+00    0.000000e+00    0.000000e+00
0.000000e+00    0.000000e+00    0.000000e+00
0.000000e+00    0.000000e+00    0.000000e+00
0.000000e+00    0.000000e+00    0.000000e+00
0.000000e+00    0.000000e+00    0.000000e+00
-5.552354e-11    1.052089e-10    0.000000e+00
-1.335813e-10    2.270217e-10    0.000000e+00
-2.257728e-10    3.670827e-10    0.000000e+00
-5.726994e-14    -1.961141e-11    0.000000e+00
-5.672528e-14    -1.211082e-11    0.000000e+00
-2.976027e-14    -5.132396e-12    0.000000e+00
-4.988548e-11    -3.983878e-11    0.000000e+00
-4.757991e-11    -2.085881e-11    0.000000e+00
-2.948879e-11    -6.152985e-12    0.000000e+00
-1.742189e-10    7.586673e-11    0.000000e+00
-1.414346e-10    5.909673e-11    0.000000e+00
-8.321915e-11    3.037337e-11    0.000000e+00
-1.604155e-10    1.466314e-10    0.000000e+00
-2.204212e-10    2.131709e-10    0.000000e+00
-8.370972e-11    6.660759e-11    0.000000e+00
-7.380783e-11    -1.406640e-11    0.000000e+00
-1.065919e-10    8.179937e-12    0.000000e+00
-7.863881e-11    -3.273367e-11    0.000000e+00
-1.182804e-10    -1.884649e-12    0.000000e+00
-4.573013e-11    -1.869093e-12    0.000000e+00
-6.549900e-11    8.942806e-12    0.000000e+00
-1.796045e-11    -3.050826e-11    0.000000e+00
-1.686745e-11    -1.781168e-11    0.000000e+00
-1.023163e-11    -6.767853e-12    0.000000e+00
-2.913783e-11    -2.052641e-11    0.000000e+00
-3.064286e-11    -3.663535e-11    0.000000e+00
-1.789578e-11    -7.144931e-12    0.000000e+00
-3.864146e-12    -1.294032e-11    0.000000e+00
-9.011286e-12    -1.494947e-11    0.000000e+00
-4.252752e-12    -2.105779e-11    0.000000e+00
-9.760242e-12    -2.484066e-11    0.000000e+00
-2.281165e-12    -5.426238e-12    0.000000e+00
-5.387809e-12    -6.029256e-12    0.000000e+00
1.252369e-09    1.896651e-08    0.000000e+00
1.602567e-09    1.971186e-08    0.000000e+00
1.782738e-09    1.855380e-08    0.000000e+00
3.763533e-10    1.876623e-08    0.000000e+00
7.103815e-10    1.952398e-08    0.000000e+00
9.047170e-10    1.832511e-08    0.000000e+00
-4.919810e-10    1.855193e-08    0.000000e+00
-1.660421e-10    1.932044e-08    0.000000e+00
4.765858e-11    1.808754e-08    0.000000e+00
-1.044217e-09    1.909558e-08    0.000000e+00
-8.062902e-10    1.783511e-08    0.000000e+00
-1.254068e-09    2.042784e-08    0.000000e+00
-7.145625e-10    1.987465e-08    0.000000e+00
-1.421361e-09    2.177109e-08    0.000000e+00
-9.018142e-10    2.121275e-08    0.000000e+00
-1.542002e-09    2.311335e-08    0.000000e+00
-1.048533e-09    2.255589e-08    0.000000e+00
-1.611349e-09    2.444045e-08    0.000000e+00
-1.150995e-09    2.389130e-08    0.000000e+00
-1.624310e-09    2.573506e-08    0.000000e+00
-1.205345e-09    2.520347e-08    0.000000e+00
-1.575462e-09    2.697581e-08    0.000000e+00
-1.207607e-09    2.647337e-08    0.000000e+00
-1.459342e-09    2.813628e-08    0.000000e+00
-1.153899e-09    2.767739e-08    0.000000e+00
-1.270633e-09    2.918441e-08    0.000000e+00
-1.040591e-09    2.878671e-08    0.000000e+00
-1.005818e-09    3.008139e-08    0.000000e+00
-8.653352e-10    2.976546e-08    0.000000e+00
-6.640040e-10    3.079012e-08    0.000000e+00
-6.259918e-10    3.057390e-08    0.000000e+00
-2.751099e-10    3.134690e-08    0.000000e+00
-3.272565e-10    3.118603e-08    0.000000e+00
3.695810e-11    3.181438e-08    0.000000e+00
6.202613e-12    3.156761e-08    0.000000e+00
-9.795916e-11    3.145824e-08    0.000000e+00
-3.117398e-12    3.150648e-08    0.000000e+00
6.346974e-13    3.145931e-08    0.000000e+00
1.129706e-10    3.139249e-08    0.000000e+00
3.055617e-10    3.102592e-08    0.000000e+00
9.299061e-11    3.129079e-08    0.000000e+00
4.484026e-10    3.037497e-08    0.000000e+00
1.607736e-10    3.074795e-08    0.000000e+00
5.594191e-10    2.952338e-08    0.000000e+00
2.113938e-10    2.997322e-08    0.000000e+00
6.570285e-10    2.851995e-08    0.000000e+00
2.591314e-10    2.902471e-08    0.000000e+00
7.527818e-10    2.740241e-08    0.000000e+00
3.141600e-10    2.794482e-08    0.000000e+00
8.548314e-10    2.620195e-08    0.000000e+00
3.832911e-10    2.676867e-08    0.000000e+00
9.690369e-10    2.494418e-08    0.000000e+00
4.712621e-10    2.552460e-08    0.000000e+00
1.099342e-09    2.365025e-08    0.000000e+00
5.810942e-10    2.423580e-08    0.000000e+00
1.248019e-09    2.233781e-08    0.000000e+00
7.143988e-10    2.292139e-08    0.000000e+00
1.415902e-09    2.102116e-08    0.000000e+00
8.715979e-10    2.159712e-08    0.000000e+00
1.052036e-09    2.027542e-08    0.000000e+00
-4.162546e-10    2.664635e-08    0.000000e+00
-8.008835e-10    2.594099e-08    0.000000e+00
-8.012289e-10    2.717774e-08    0.000000e+00
1.359133e-11    2.609469e-08    0.000000e+00
-3.925806e-11    2.731802e-08    0.000000e+00
-1.705392e-10    2.275357e-08    0.000000e+00
-5.349253e-10    2.198991e-08    0.000000e+00
-6.651467e-10    2.332797e-08    0.000000e+00
3.475263e-10    2.217720e-08    0.000000e+00
2.067707e-10    2.350522e-08    0.000000e+00
1.661249e-10    2.008494e-08    0.000000e+00
-3.669756e-10    2.065043e-08    0.000000e+00
5.165707e-10    2.084644e-08    0.000000e+00
-1.814207e-11    2.141727e-08    0.000000e+00
-2.887614e-10    2.408137e-08    0.000000e+00
-7.547049e-10    2.465070e-08    0.000000e+00
9.537736e-11    2.481674e-08    0.000000e+00
-3.710805e-10    2.538528e-08    0.000000e+00
-3.286891e-10    2.990950e-08    0.000000e+00
-6.575170e-10    2.937984e-08    0.000000e+00
-5.128130e-10    3.027349e-08    0.000000e+00
-6.705338e-11    2.949120e-08    0.000000e+00
-5.043819e-11    3.036938e-08    0.000000e+00
-4.237431e-10    2.784114e-08    0.000000e+00
-7.538101e-10    2.833496e-08    0.000000e+00
-6.502636e-11    2.846095e-08    0.000000e+00
-3.939772e-10    2.894111e-08    0.000000e+00
-2.305864e-10    3.070456e-08    0.000000e+00
-3.178350e-10    3.097419e-08    0.000000e+00
-2.344203e-11    3.104765e-08    0.000000e+00
-1.068893e-10    3.127539e-08    0.000000e+00
2.667703e-09    9.147306e-09    0.000000e+00
2.807200e-09    9.160149e-09    0.000000e+00
2.842867e-09    9.133468e-09    0.000000e+00
2.456831e-09    9.285014e-09    0.000000e+00
2.636427e-09    9.257195e-09    0.000000e+00
2.177058e-09    9.579824e-09    0.000000e+00
2.430210e-09    9.509475e-09    0.000000e+00
1.832169e-09    1.007414e-08    0.000000e+00
2.160290e-09    9.964187e-09    0.000000e+00
1.470103e-09    1.072615e-08    0.000000e+00
1.855909e-09    1.057578e-08    0.000000e+00
1.103200e-09    1.150513e-08    0.000000e+00
1.534723e-09    1.131285e-08    0.000000e+00
7.404303e-10    1.238947e-08    0.000000e+00
1.208351e-09    1.215354e-08    0.000000e+00
3.890361e-10    1.336085e-08    0.000000e+00
8.850243e-10    1.308040e-08    0.000000e+00
5.467156e-11    1.440367e-08    0.000000e+00
5.714075e-10    1.407859e-08    0.000000e+00
-2.582430e-10    1.550453e-08    0.000000e+00
2.727266e-10    1.513521e-08    0.000000e+00
-5.462195e-10    1.665184e-08    0.000000e+00
-6.870039e-12    1.623923e-08    0.000000e+00
-2.638259e-10    1.738099e-08    0.000000e+00
1.952198e-09    1.754850e-08    0.000000e+00
1.427001e-09    1.791785e-08    0.000000e+00
2.127851e-09    1.656362e-08    0.000000e+00
1.616009e-09    1.689020e-08    0.000000e+00
2.306368e-09    1.560414e-08    0.000000e+00
1.812882e-09    1.588774e-08    0.000000e+00
2.483679e-09    1.467562e-08    0.000000e+00
2.013709e-09    1.491664e-08    0.000000e+00
2.654790e-09    1.378426e-08    0.000000e+00
2.213959e-09    1.398359e-08    0.000000e+00
2.813702e-09    1.293719e-08    0.000000e+00
2.408092e-09    1.309625e-08    0.000000e+00
2.953176e-09    1.214229e-08    0.000000e+00
2.589410e-09    1.226327e-08    0.000000e+00
3.065129e-09    1.140957e-08    0.000000e+00
2.749898e-09    1.149504e-08    0.000000e+00
3.139390e-09    1.074587e-08    0.000000e+00
2.880152e-09    1.080303e-08    0.000000e+00
3.173997e-09    1.017445e-08    0.000000e+00
2.971849e-09    1.020426e-08    0.000000e+00
3.132121e-09    9.636797e-09    0.000000e+00
3.018405e-09    9.679496e-09    0.000000e+00
3.049571e-09    9.330811e-09    0.000000e+00
3.015747e-09    9.215595e-09    0.000000e+00
2.923830e-09    9.241803e-09    0.000000e+00
2.961436e-09    9.378890e-09    0.000000e+00
3.029839e-09    9.253800e-09    0.000000e+00
2.813330e-09    9.251034e-09    0.000000e+00
2.944003e-09    9.199590e-09    0.000000e+00
1.793505e-09    1.260788e-08    0.000000e+00
1.984979e-09    1.329106e-08    0.000000e+00
2.205420e-09    1.241870e-08    0.000000e+00
1.355595e-09    1.282888e-08    0.000000e+00
1.644943e-09    1.194442e-08    0.000000e+00
1.033818e-09    1.550883e-08    0.000000e+00
1.311307e-09    1.620889e-08    0.000000e+00
1.532348e-09    1.519494e-08    0.000000e+00
5.227038e-10    1.585792e-08    0.000000e+00
7.890392e-10    1.479705e-08    0.000000e+00
5.739234e-10    1.765293e-08    0.000000e+00
1.099737e-09    1.725408e-08    0.000000e+00
2.733553e-10    1.695731e-08    0.000000e+00
7.963554e-10    1.656538e-08    0.000000e+00
1.282304e-09    1.449105e-08    0.000000e+00
1.758578e-09    1.421961e-08    0.000000e+00
1.068287e-09    1.378384e-08    0.000000e+00
1.537365e-09    1.352073e-08    0.000000e+00
2.490403e-09    1.034114e-08    0.000000e+00
2.596760e-09    1.088890e-08    0.000000e+00
2.747589e-09    1.026007e-08    0.000000e+00
2.196761e-09    1.044711e-08    0.000000e+00
2.438590e-09    9.871680e-09    0.000000e+00
2.043857e-09    1.176404e-08    0.000000e+00
2.412337e-09    1.161331e-08    0.000000e+00
1.928636e-09    1.114441e-08    0.000000e+00
2.280169e-09    1.100231e-08    0.000000e+00
2.669526e-09    9.795043e-09    0.000000e+00
2.867974e-09    9.739021e-09    0.000000e+00
2.647278e-09    9.461841e-09    0.000000e+00
2.820706e-09    9.417790e-09    0.000000e+00
1.398147e-10    8.095627e-09    0.000000e+00
1.642614e-10    8.093301e-09    0.000000e+00
1.236090e-10    8.070171e-09    0.000000e+00
1.393937e-10    8.118326e-09    0.000000e+00
1.578928e-10    8.127068e-09    0.000000e+00
1.234501e-10    8.086163e-09    0.000000e+00
1.456523e-10    8.135091e-09    0.000000e+00
1.585216e-10    8.156167e-09    0.000000e+00
1.297081e-10    8.097382e-09    0.000000e+00
1.657263e-10    8.178524e-09    0.000000e+00
1.420466e-10    8.102348e-09    0.000000e+00
2.137553e-10    8.258539e-09    0.000000e+00
1.830232e-10    8.202681e-09    0.000000e+00
2.897287e-10    8.345644e-09    0.000000e+00
2.459714e-10    8.275416e-09    0.000000e+00
3.976134e-10    8.440918e-09    0.000000e+00
3.381371e-10    8.354349e-09    0.000000e+00
5.415379e-10    8.544855e-09    0.000000e+00
4.635276e-10    8.440249e-09    0.000000e+00
7.250888e-10    8.657064e-09    0.000000e+00
6.259714e-10    8.533426e-09    0.000000e+00
9.503886e-10    8.775938e-09    0.000000e+00
8.283722e-10    8.633513e-09    0.000000e+00
1.216938e-09    8.898260e-09    0.000000e+00
1.071751e-09    8.739217e-09    0.000000e+00
1.520211e-09    9.018773e-09    0.000000e+00
1.354068e-09    8.848012e-09    0.000000e+00
1.850006e-09    9.129770e-09    0.000000e+00
1.668818e-09    8.955812e-09    0.000000e+00
2.188723e-09    9.220544e-09    0.000000e+00
2.003463e-09    9.056625e-09    0.000000e+00
2.508814e-09    9.277211e-09    0.000000e+00
2.337608e-09    9.142270e-09    0.000000e+00
2.771711e-09    9.279190e-09    0.000000e+00
2.641069e-09    9.201503e-09    0.000000e+00
2.900886e-09    9.210017e-09    0.000000e+00
2.868372e-09    9.221329e-09    0.000000e+00
2.932081e-09    9.189371e-09    0.000000e+00
2.858674e-09    8.952237e-09    0.000000e+00
2.981587e-09    9.161693e-09    0.000000e+00
2.645042e-09    8.772368e-09    0.000000e+00
2.794006e-09    8.969668e-09    0.000000e+00
2.368522e-09    8.619091e-09    0.000000e+00
2.544371e-09    8.817807e-09    0.000000e+00
2.065186e-09    8.500605e-09    0.000000e+00
2.244582e-09    8.687322e-09    0.000000e+00
1.756860e-09    8.408503e-09    0.000000e+00
1.928462e-09    8.579850e-09    0.000000e+00
1.460942e-09    8.338077e-09    0.000000e+00
1.616644e-09    8.491160e-09    0.000000e+00
1.188562e-09    8.284164e-09    0.000000e+00
1.324426e-09    8.418172e-09    0.000000e+00
9.464094e-10    8.242486e-09    0.000000e+00
1.061076e-09    8.357669e-09    0.000000e+00
7.376194e-10    8.209407e-09    0.000000e+00
8.315850e-10    8.306816e-09    0.000000e+00
5.627390e-10    8.182007e-09    0.000000e+00
6.376364e-10    8.263144e-09    0.000000e+00
4.205280e-10    8.158042e-09    0.000000e+00
4.785972e-10    8.224616e-09    0.000000e+00
3.086451e-10    8.135896e-09    0.000000e+00
3.523350e-10    8.189620e-09    0.000000e+00
2.242122e-10    8.114507e-09    0.000000e+00
2.558999e-10    8.156961e-09    0.000000e+00
1.860838e-10    8.125822e-09    0.000000e+00
1.062901e-09    8.547885e-09    0.000000e+00
9.414459e-10    8.596918e-09    0.000000e+00
1.201192e-09    8.691077e-09    0.000000e+00
9.397808e-10    8.419969e-09    0.000000e+00
1.191177e-09    8.488410e-09    0.000000e+00
3.412870e-10    8.274048e-09    0.000000e+00
2.884028e-10    8.280775e-09    0.000000e+00
3.972009e-10    8.350569e-09    0.000000e+00
2.945542e-10    8.209952e-09    0.000000e+00
4.046935e-10    8.255459e-09    0.000000e+00
1.810418e-10    8.167080e-09    0.000000e+00
2.100894e-10    8.216270e-09    0.000000e+00
2.134210e-10    8.167427e-09    0.000000e+00
2.471994e-10    8.218708e-09    0.000000e+00
6.276737e-10    8.398998e-09    0.000000e+00
5.403167e-10    8.426329e-09    0.000000e+00
7.210623e-10    8.508455e-09    0.000000e+00
5.472239e-10    8.304859e-09    0.000000e+00
7.250229e-10    8.359262e-09    0.000000e+00
4.669624e-10    8.333881e-09    0.000000e+00
8.260118e-10    8.470136e-09    0.000000e+00
2.295764e-09    8.923394e-09    0.000000e+00
2.153436e-09    8.987282e-09    0.000000e+00
2.476850e-09    9.077205e-09    0.000000e+00
2.110083e-09    8.754613e-09    0.000000e+00
2.427107e-09    8.867420e-09    0.000000e+00
1.641568e-09    8.724007e-09    0.000000e+00
1.496557e-09    8.789459e-09    0.000000e+00
1.818954e-09    8.889474e-09    0.000000e+00
1.475898e-09    8.566077e-09    0.000000e+00
1.786506e-09    8.654391e-09    0.000000e+00
1.336604e-09    8.632554e-09    0.000000e+00
1.967055e-09    8.821503e-09    0.000000e+00
2.851012e-09    9.130033e-09    0.000000e+00
2.757003e-09    9.152585e-09    0.000000e+00
2.939681e-09    9.199387e-09    0.000000e+00
2.708509e-09    8.993604e-09    0.000000e+00
2.925985e-09    9.129953e-09    0.000000e+00
2.601761e-09    9.027316e-09    0.000000e+00
2.991026e-09    9.207845e-09    0.000000e+00
2.058531e-09    7.521443e-09    0.000000e+00
1.935762e-09    7.641767e-09    0.000000e+00
2.103911e-09    7.477779e-09    0.000000e+00
2.076768e-09    7.468317e-09    0.000000e+00
1.984017e-09    7.536765e-09    0.000000e+00
2.131052e-09    7.448712e-09    0.000000e+00
2.073935e-09    7.417463e-09    0.000000e+00
2.006299e-09    7.456151e-09    0.000000e+00
2.124184e-09    7.433432e-09    0.000000e+00
2.012984e-09    7.370400e-09    0.000000e+00
2.099413e-09    7.409715e-09    0.000000e+00
1.836756e-09    7.353024e-09    0.000000e+00
1.925582e-09    7.413193e-09    0.000000e+00
1.602134e-09    7.367978e-09    0.000000e+00
1.703376e-09    7.431203e-09    0.000000e+00
1.347466e-09    7.408180e-09    0.000000e+00
1.447494e-09    7.467607e-09    0.000000e+00
1.099340e-09    7.464591e-09    0.000000e+00
1.190740e-09    7.515618e-09    0.000000e+00
8.734024e-10    7.530578e-09    0.000000e+00
9.524290e-10    7.570996e-09    0.000000e+00
6.776509e-10    7.601420e-09    0.000000e+00
7.428151e-10    7.630601e-09    0.000000e+00
5.149025e-10    7.673918e-09    0.000000e+00
5.662518e-10    7.692211e-09    0.000000e+00
3.847045e-10    7.746186e-09    0.000000e+00
4.231522e-10    7.754404e-09    0.000000e+00
2.848637e-10    7.817411e-09    0.000000e+00
3.116734e-10    7.816453e-09    0.000000e+00
2.126247e-10    7.887653e-09    0.000000e+00
2.290292e-10    7.878222e-09    0.000000e+00
1.655440e-10    7.957657e-09    0.000000e+00
1.724758e-10    7.940064e-09    0.000000e+00
1.420956e-10    8.028683e-09    0.000000e+00
1.400151e-10    8.002739e-09    0.000000e+00
1.308551e-10    8.067316e-09    0.000000e+00
1.055955e-10    8.045366e-09    0.000000e+00
1.122507e-10    8.061950e-09    0.000000e+00
1.124572e-10    8.021470e-09    0.000000e+00
1.099783e-10    8.029503e-09    0.000000e+00
1.434172e-10    7.999351e-09    0.000000e+00
1.316361e-10    7.998621e-09    0.000000e+00
1.991760e-10    7.979854e-09    0.000000e+00
1.773906e-10    7.969743e-09    0.000000e+00
2.816815e-10    7.963534e-09    0.000000e+00
2.487852e-10    7.943224e-09    0.000000e+00
3.936772e-10    7.950358e-09    0.000000e+00
3.483799e-10    7.919127e-09    0.000000e+00
5.380005e-10    7.939349e-09    0.000000e+00
4.791557e-10    7.896971e-09    0.000000e+00
7.165920e-10    7.928187e-09    0.000000e+00
6.436499e-10    7.875456e-09    0.000000e+00
9.291648e-10    7.912768e-09    0.000000e+00
8.427697e-10    7.852134e-09    0.000000e+00
1.171532e-09    7.886697e-09    0.000000e+00
1.074265e-09    7.823059e-09    0.000000e+00
1.433438e-09    7.841017e-09    0.000000e+00
1.330790e-09    7.782489e-09    0.000000e+00
1.697200e-09    7.763450e-09    0.000000e+00
1.597854e-09    7.722630e-09    0.000000e+00
1.852579e-09    7.635339e-09    0.000000e+00
5.194398e-10    7.797262e-09    0.000000e+00
6.246204e-10    7.719506e-09    0.000000e+00
4.679415e-10    7.771422e-09    0.000000e+00
5.779614e-10    7.831911e-09    0.000000e+00
4.274540e-10    7.863786e-09    0.000000e+00
1.390312e-09    7.623672e-09    0.000000e+00
1.551429e-09    7.523899e-09    0.000000e+00
1.288382e-09    7.569559e-09    0.000000e+00
1.494447e-09    7.675576e-09    0.000000e+00
1.229390e-09    7.725211e-09    0.000000e+00
1.897763e-09    7.520333e-09    0.000000e+00
1.803076e-09    7.484683e-09    0.000000e+00
1.757026e-09    7.612811e-09    0.000000e+00
1.655520e-09    7.572866e-09    0.000000e+00
8.951887e-10    7.713387e-09    0.000000e+00
1.038707e-09    7.618028e-09    0.000000e+00
8.154008e-10    7.668222e-09    0.000000e+00
9.817805e-10    7.765208e-09    0.000000e+00
7.629799e-10    7.799733e-09    0.000000e+00
1.131391e-09    7.669986e-09    0.000000e+00
6.901768e-10    7.755465e-09    0.000000e+00
2.003311e-10    7.926451e-09    0.000000e+00
2.504225e-10    7.876377e-09    0.000000e+00
1.839851e-10    7.929569e-09    0.000000e+00
2.218065e-10    7.930939e-09    0.000000e+00
1.608595e-10    7.967077e-09    0.000000e+00
3.825520e-10    7.839442e-09    0.000000e+00
3.440952e-10    7.823724e-09    0.000000e+00
3.096934e-10    7.896586e-09    0.000000e+00
2.771803e-10    7.882417e-09    0.000000e+00
1.221842e-10    8.018592e-09    0.000000e+00
1.423737e-10    7.983698e-09    0.000000e+00
1.242576e-10    8.039370e-09    0.000000e+00
1.246097e-10    8.005017e-09    0.000000e+00
1.120032e-10    8.044709e-09    0.000000e+00
1.492736e-10    7.971761e-09    0.000000e+00
1.185561e-10    8.067286e-09    0.000000e+00
-1.712648e-12    -2.669670e-11    0.000000e+00
-9.321451e-15    -2.889471e-11    0.000000e+00
-4.497964e-14    -2.308769e-11    0.000000e+00
-5.492849e-12    -3.042001e-11    0.000000e+00
-2.831265e-12    -3.096915e-11    0.000000e+00
-3.991907e-12    -2.480823e-11    0.000000e+00
-1.042956e-11    -3.741037e-11    0.000000e+00
-5.977625e-12    -3.683512e-11    0.000000e+00
-9.032677e-12    -2.945647e-11    0.000000e+00
-1.752195e-11    -4.665798e-11    0.000000e+00
-9.842747e-12    -4.592477e-11    0.000000e+00
-1.636398e-11    -3.651596e-11    0.000000e+00
-2.814664e-11    -5.546297e-11    0.000000e+00
-1.499428e-11    -5.653012e-11    0.000000e+00
-2.753060e-11    -4.443099e-11    0.000000e+00
-4.473572e-11    -5.768017e-11    0.000000e+00
-2.254748e-11    -6.462719e-11    0.000000e+00
-4.468382e-11    -4.929489e-11    0.000000e+00
-7.137659e-11    -4.070140e-11    0.000000e+00
-3.495008e-11    -6.144880e-11    0.000000e+00
-7.078430e-11    -4.309778e-11    0.000000e+00
-1.186499e-10    1.877072e-11    0.000000e+00
-5.877072e-11    -3.052293e-11    0.000000e+00
-1.112202e-10    -8.927791e-12    0.000000e+00
-1.957616e-10    1.603175e-10    0.000000e+00
-1.052516e-10    6.148885e-11    0.000000e+00
-1.707776e-10    7.712306e-11    0.000000e+00
-3.540148e-10    4.392139e-10    0.000000e+00
-2.034915e-10    2.707348e-10    0.000000e+00
-2.650204e-10    2.606432e-10    0.000000e+00
-3.519893e-10    7.285134e-10    0.000000e+00
-7.693056e-10    1.383485e-09    0.000000e+00
-3.123850e-10    5.202240e-10    0.000000e+00
3.773558e-11    7.903757e-10    0.000000e+00
-1.396904e-10    4.466070e-10    0.000000e+00
-1.890537e-10    1.264291e-09    0.000000e+00
5.052127e-10    8.373675e-10    0.000000e+00
2.262707e-10    4.787873e-10    0.000000e+00
3.183070e-10    1.250375e-09    0.000000e+00
6.125668e-10    5.476467e-10    0.000000e+00
9.074353e-10    1.273262e-09    0.000000e+00
3.543928e-10    1.731705e-10    0.000000e+00
3.355477e-10    2.831738e-10    0.000000e+00
1.934280e-10    1.947711e-11    0.000000e+00
1.998846e-10    5.564958e-11    0.000000e+00
1.005198e-10    -4.110639e-11    0.000000e+00
1.125911e-10    -3.245152e-11    0.000000e+00
4.699580e-11    -6.032883e-11    0.000000e+00
5.863212e-11    -6.269351e-11    0.000000e+00
1.735713e-11    -6.070900e-11    0.000000e+00
2.662592e-11    -6.675797e-11    0.000000e+00
2.536988e-12    -5.381011e-11    0.000000e+00
8.935986e-12    -6.004289e-11    0.000000e+00
-3.207829e-12    -4.559706e-11    0.000000e+00
4.828900e-13    -5.039621e-11    0.000000e+00
-3.696287e-12    -3.906690e-11    0.000000e+00
-2.284626e-12    -4.183620e-11    0.000000e+00
-1.509194e-12    -3.555949e-11    0.000000e+00
-1.845866e-12    -3.622100e-11    0.000000e+00
6.951232e-14    -3.431536e-11    0.000000e+00
3.512265e-14    -3.248904e-11    0.000000e+00
-8.282433e-13    -3.402955e-11    0.000000e+00
-1.095959e-12    -3.153790e-11    0.000000e+00
5.800714e-12    -7.079870e-11    0.000000e+00
2.737459e-11    -7.110350e-11    0.000000e+00
1.093778e-11    -6.641416e-11    0.000000e+00
-9.008317e-12    -7.036230e-11    0.000000e+00
-7.752029e-12    -6.517176e-11    0.000000e+00
3.681155e-11    3.997582e-11    0.000000e+00
1.497063e-10    1.257238e-10    0.000000e+00
9.501102e-11    -1.017545e-11    0.000000e+00
-6.398223e-11    1.295110e-10    0.000000e+00
-2.655397e-11    -6.336271e-12    0.000000e+00
3.509002e-11    2.511738e-10    0.000000e+00
2.771840e-11    -4.373619e-11    0.000000e+00
5.446161e-11    -5.948600e-11    0.000000e+00
-1.281333e-11    -5.844354e-11    0.000000e+00
1.541891e-11    -6.990786e-11    0.000000e+00
-2.478790e-12    -5.033055e-11    0.000000e+00
2.177782e-12    -5.614900e-11    0.000000e+00
-1.457384e-12    -4.582624e-11    0.000000e+00
-6.635903e-12    -5.433463e-11    0.000000e+00
-5.103904e-12    -4.363550e-11    0.000000e+00
3.667226e-14    -6.162612e-11    0.000000e+00
-2.742009e-12    -4.075906e-11    0.000000e+00
-1.963812e-12    -3.808478e-11    0.000000e+00
-3.204126e-12    -3.569392e-11    0.000000e+00
-1.671665e-12    -3.460754e-11    0.000000e+00
-9.173492e-10    2.693009e-09    0.000000e+00
-5.534584e-10    1.937462e-09    0.000000e+00
-6.975144e-10    4.006908e-09    0.000000e+00
-4.897510e-10    3.250226e-09    0.000000e+00
-2.394673e-10    5.186124e-09    0.000000e+00
-1.608307e-10    4.492356e-09    0.000000e+00
3.424843e-10    6.117024e-09    0.000000e+00
3.230576e-10    5.546548e-09    0.000000e+00
9.346762e-10    6.773828e-09    0.000000e+00
8.599826e-10    6.347629e-09    0.000000e+00
1.450706e-09    7.177063e-09    0.000000e+00
1.360392e-09    6.894536e-09    0.000000e+00
1.831108e-09    7.375170e-09    0.000000e+00
1.758728e-09    7.219532e-09    0.000000e+00
2.047741e-09    7.431151e-09    0.000000e+00
2.015196e-09    7.375141e-09    0.000000e+00
2.117474e-09    7.422137e-09    0.000000e+00
2.188217e-09    7.264417e-09    0.000000e+00
2.167547e-09    7.383825e-09    0.000000e+00
2.193814e-09    6.962565e-09    0.000000e+00
2.185209e-09    7.177249e-09    0.000000e+00
2.120940e-09    6.540016e-09    0.000000e+00
2.104942e-09    6.866200e-09    0.000000e+00
1.980189e-09    5.968031e-09    0.000000e+00
1.933236e-09    6.412365e-09    0.000000e+00
1.791683e-09    5.232310e-09    0.000000e+00
1.689711e-09    5.784488e-09    0.000000e+00
1.580730e-09    4.341120e-09    0.000000e+00
1.407221e-09    4.971688e-09    0.000000e+00
1.367764e-09    3.326961e-09    0.000000e+00
1.124166e-09    3.987822e-09    0.000000e+00
1.154082e-09    2.259500e-09    0.000000e+00
8.743909e-10    2.882143e-09    0.000000e+00
6.731753e-10    1.758771e-09    0.000000e+00
1.289870e-09    6.070453e-09    0.000000e+00
8.562956e-10    5.826989e-09    0.000000e+00
1.316478e-09    6.513555e-09    0.000000e+00
1.332096e-09    5.541942e-09    0.000000e+00
1.664318e-09    6.250619e-09    0.000000e+00
2.010937e-10    3.051909e-09    0.000000e+00
-1.972541e-10    2.502791e-09    0.000000e+00
1.590927e-11    3.761304e-09    0.000000e+00
4.512054e-10    2.363309e-09    0.000000e+00
6.749528e-10    3.544060e-09    0.000000e+00
6.670837e-11    1.824899e-09    0.000000e+00
4.905806e-10    4.235393e-09    0.000000e+00
3.945178e-10    4.899772e-09    0.000000e+00
9.844694e-10    4.629932e-09    0.000000e+00
8.773201e-10    5.260576e-09    0.000000e+00
1.948456e-09    7.045954e-09    0.000000e+00
1.707580e-09    6.972393e-09    0.000000e+00
1.983942e-09    7.243279e-09    0.000000e+00
1.934662e-09    6.761626e-09    0.000000e+00
2.110618e-09    7.103726e-09    0.000000e+00
1.663314e-09    6.657713e-09    0.000000e+00
2.116015e-09    7.277790e-09    0.000000e+00
2.123332e-09    7.378846e-09    0.000000e+00
2.176206e-09    7.318241e-09    0.000000e+00
2.156305e-09    7.403046e-09    0.000000e+00
0.000000e+00    0.000000e+00    0.000000e+00
-1.364046e-14    -2.296259e-12    0.000000e+00
0.000000e+00    0.000000e+00    0.000000e+00
-1.169424e-12    -2.397618e-12    0.000000e+00
0.000000e+00    0.000000e+00    0.000000e+00
-2.783713e-12    -2.578414e-12    0.000000e+00
0.000000e+00    0.000000e+00    0.000000e+00
-5.340807e-12    -2.737938e-12    0.000000e+00
0.000000e+00    0.000000e+00    0.000000e+00
-9.429482e-12    -2.626566e-12    0.000000e+00
0.000000e+00    0.000000e+00    0.000000e+00
-1.568927e-11    -1.768201e-12    0.000000e+00
0.000000e+00    0.000000e+00    0.000000e+00
-2.453853e-11    6.851710e-13    0.000000e+00
0.000000e+00    0.000000e+00    0.000000e+00
-3.545466e-11    6.025605e-12    0.000000e+00
0.000000e+00    0.000000e+00    0.000000e+00
-4.538631e-11    1.582766e-11    0.000000e+00
0.000000e+00    0.000000e+00    0.000000e+00
-4.720527e-11    3.064493e-11    0.000000e+00
-2.139971e-11    5.012773e-11    0.000000e+00
-9.225408e-11    1.635641e-10    0.000000e+00
-7.540709e-11    8.728268e-11    0.000000e+00
-1.678850e-10    2.895241e-10    0.000000e+00
-1.492500e-10    1.910233e-10    0.000000e+00
-2.544906e-10    3.249292e-10    0.000000e+00
-5.691870e-14    -1.589147e-11    0.000000e+00
-2.039897e-12    -2.002434e-11    0.000000e+00
-4.303698e-14    -8.468950e-12    0.000000e+00
-1.839936e-12    -1.236990e-11    0.000000e+00
-1.080318e-12    -5.255690e-12    0.000000e+00
-5.087924e-11    -3.011003e-11    0.000000e+00
-6.287648e-11    -3.828348e-11    0.000000e+00
-3.925103e-11    -3.896875e-11    0.000000e+00
-4.030926e-11    -1.267601e-11    0.000000e+00
-5.970770e-11    -1.882322e-11    0.000000e+00
-3.745128e-11    -2.123966e-11    0.000000e+00
-3.702328e-11    -4.549813e-12    0.000000e+00
-2.311046e-11    -6.920279e-12    0.000000e+00
-1.606629e-10    6.901544e-11    0.000000e+00
-2.014880e-10    1.414290e-10    0.000000e+00
-1.447608e-10    3.015310e-11    0.000000e+00
-1.150189e-10    4.571190e-11    0.000000e+00
-1.532530e-10    9.683051e-11    0.000000e+00
-1.248256e-10    2.908616e-11    0.000000e+00
-8.742839e-11    4.720583e-11    0.000000e+00
-7.547429e-11    1.844684e-11    0.000000e+00
-1.939733e-10    1.819133e-10    0.000000e+00
-1.227759e-10    1.054258e-10    0.000000e+00
-8.956148e-11    -5.731604e-12    0.000000e+00
-7.919989e-11    -2.295745e-11    0.000000e+00
-6.232198e-11    -6.906408e-12    0.000000e+00
-1.172446e-10    4.357100e-12    0.000000e+00
-8.954560e-11    9.667450e-12    0.000000e+00
-9.693693e-11    -2.146122e-11    0.000000e+00
-5.538930e-11    2.567255e-12    0.000000e+00
-1.812963e-11    -2.413784e-11    0.000000e+00
-2.358612e-11    -3.367802e-11    0.000000e+00
-1.340043e-11    -2.750365e-11    0.000000e+00
-1.414983e-11    -1.190229e-11    0.000000e+00
-2.231639e-11    -1.930797e-11    0.000000e+00
-1.248190e-11    -1.632895e-11    0.000000e+00
-1.361804e-11    -7.066995e-12    0.000000e+00
-7.512963e-12    -6.426404e-12    0.000000e+00
-3.113476e-11    -2.849935e-11    0.000000e+00
-2.457231e-11    -1.325876e-11    0.000000e+00
-6.177844e-12    -1.381538e-11    0.000000e+00
-4.209461e-12    -1.702796e-11    0.000000e+00
-3.197645e-12    -9.006331e-12    0.000000e+00
-9.748837e-12    -1.990954e-11    0.000000e+00
-7.503235e-12    -1.023735e-11    0.000000e+00
-6.748434e-12    -2.267210e-11    0.000000e+00
-3.666769e-12    -5.715990e-12    0.000000e+00

CELL_DATA      259
TENSORS Element_Stress2.600000e+00 double
-4.284181e+02 -1.853984e+02        0
-1.853984e+02 -8.440107e+01        0
       0        0 7.737215e+01

-4.183109e+02 -1.555407e+02        0
-1.555407e+02 -8.001249e+01        0
       0        0 -1.945979e+02

-3.900194e+02 -1.844710e+02        0
-1.844710e+02 -9.061462e+01        0
       0        0 1.464548e+02

-3.387122e+02 -1.401174e+02        0
-1.401174e+02 -7.908974e+01        0
       0        0 -8.408370e+01

-4.662808e+02 -1.722812e+02        0
-1.722812e+02 -6.362573e+01        0
       0        0 3.636879e+02

-4.697477e+02 -1.840980e+02        0
-1.840980e+02 -7.223433e+01        0
       0        0 3.931961e+02

-4.955126e+02 -1.678442e+02        0
-1.678442e+02 -7.995880e+01        0
       0        0 -3.071532e+02

-4.661669e+02 -1.864373e+02        0
-1.864373e+02 -7.868063e+01        0
       0        0 7.648560e+00

-4.646245e+02 -1.620011e+02        0
-1.620011e+02 -5.633441e+01        0
       0        0 3.332992e+02

-8.926178e+02 -2.829914e+02        0
-2.829914e+02 -1.250255e+02        0
       0        0 -8.088973e+02

3.869123e+02 -1.303990e+02        0
-1.303990e+02 -2.108070e+01        0
       0        0 5.227521e+02

-9.157751e+02 -2.815492e+02        0
-2.815492e+02 -5.308001e+02        0
       0        0 -8.317042e+02

6.188442e+02 -1.028316e+02        0
-1.028316e+02 -8.393322e+01        0
       0        0 6.447899e+02

-2.091727e+03 -2.155888e+02        0
-2.155888e+02 -2.499367e+02        0
       0        0 -2.128951e+03

-2.634722e+03 -6.176768e+02        0
-6.176768e+02 -1.388772e+03        0
       0        0 -2.497927e+03

1.681602e+02 -1.135715e+02        0
-1.135715e+02 -1.265118e+01        0
       0        0 3.972452e+02

-8.408525e+02 -2.583150e+02        0
-2.583150e+02 -6.312529e+01        0
       0        0 -7.728909e+02

-1.818463e+03 -2.113236e+02        0
-2.113236e+02 -1.302188e+02        0
       0        0 -1.910866e+03

-7.700006e+02 -2.309859e+02        0
-2.309859e+02 -5.343708e+01        0
       0        0 -6.522381e+02

-1.408705e+02 -1.004803e+02        0
-1.004803e+02 -1.723395e+01        0
       0        0 2.443790e+02

-8.029059e+02 -2.426948e+02        0
-2.426948e+02 -5.424863e+01        0
       0        0 -7.184861e+02

-5.497846e+00 -1.025699e+02        0
-1.025699e+02 -1.417464e+01        0
       0        0 3.051377e+02

-1.408201e+03 -2.211275e+02        0
-2.211275e+02 -8.568181e+01        0
       0        0 -1.523842e+03

-1.597910e+03 -2.184545e+02        0
-2.184545e+02 -9.923055e+01        0
       0        0 -1.713510e+03

-2.454131e+02 -1.033194e+02        0
-1.033194e+02 -2.063186e+01        0
       0        0 2.088327e+02

-7.363879e+02 -2.213154e+02        0
-2.213154e+02 -5.474338e+01        0
       0        0 -5.775634e+02

-1.243093e+03 -2.204148e+02        0
-2.204148e+02 -7.980184e+01        0
       0        0 -1.342659e+03

-6.645872e+02 -2.062593e+02        0
-2.062593e+02 -5.956109e+01        0
       0        0 -4.132803e+02

-3.800342e+02 -1.164617e+02        0
-1.164617e+02 -2.844234e+01        0
       0        0 1.949049e+02

-7.012484e+02 -2.131662e+02        0
-2.131662e+02 -5.697143e+01        0
       0        0 -4.972478e+02

-3.237410e+02 -1.090544e+02        0
-1.090544e+02 -2.437901e+01        0
       0        0 1.936615e+02

-9.715584e+02 -2.120027e+02        0
-2.120027e+02 -7.623575e+01        0
       0        0 -1.006171e+03

-1.098677e+03 -2.171450e+02        0
-2.171450e+02 -7.716453e+01        0
       0        0 -1.170091e+03

-4.182461e+02 -1.247578e+02        0
-1.247578e+02 -3.285758e+01        0
       0        0 2.091385e+02

-6.265374e+02 -2.004514e+02        0
-2.004514e+02 -6.236494e+01        0
       0        0 -3.272152e+02

-8.586670e+02 -2.054811e+02        0
-2.054811e+02 -7.616464e+01        0
       0        0 -8.506077e+02

-5.469239e+02 -1.916999e+02        0
-1.916999e+02 -6.884455e+01        0
       0        0 -1.534641e+02

-4.555331e+02 -1.425414e+02        0
-1.425414e+02 -4.307014e+01        0
       0        0 2.646904e+02

-5.872477e+02 -1.956284e+02        0
-1.956284e+02 -6.541782e+01        0
       0        0 -2.402676e+02

-4.421957e+02 -1.335019e+02        0
-1.335019e+02 -3.769330e+01        0
       0        0 2.333221e+02

-6.637822e+02 -1.891387e+02        0
-1.891387e+02 -7.709204e+01        0
       0        0 -5.622680e+02

-7.570413e+02 -1.978497e+02        0
-1.978497e+02 -7.652885e+01        0
       0        0 -7.028729e+02

-4.618154e+02 -1.520716e+02        0
-1.520716e+02 -4.919086e+01        0
       0        0 3.003181e+02

-5.057427e+02 -1.885325e+02        0
-1.885325e+02 -7.307758e+01        0
       0        0 -6.839899e+01

-5.761815e+02 -1.790998e+02        0
-1.790998e+02 -7.762876e+01        0
       0        0 -4.283103e+02

-4.763267e+02 -1.980329e+02        0
-1.980329e+02 -8.251528e+01        0
       0        0 4.197465e+02

-3.511365e+02 -1.834533e+02        0
-1.834533e+02 -9.772231e+01        0
       0        0 2.128261e+02

-2.555576e+02 -1.209338e+02        0
-1.209338e+02 -7.687300e+01        0
       0        0 2.403716e+01

-5.030479e+02 -2.345134e+02        0
-2.345134e+02 -1.098016e+02        0
       0        0 4.583317e+02

-4.870892e+02 -2.146464e+02        0
-2.146464e+02 -9.488894e+01        0
       0        0 4.419385e+02

-7.446231e+01 -6.814584e+01        0
-6.814584e+01 -6.640069e+01        0
       0        0 2.334860e+02

-2.724967e+02 -1.807332e+02        0
-1.807332e+02 -1.148621e+02        0
       0        0 3.342408e+02

-1.677575e+02 -9.721953e+01        0
-9.721953e+01 -7.282525e+01        0
       0        0 1.299177e+02

-3.119206e+02 -1.822401e+02        0
-1.822401e+02 -1.057946e+02        0
       0        0 2.756981e+02

-5.250259e+02 -2.583585e+02        0
-2.583585e+02 -1.277877e+02        0
       0        0 4.674091e+02

-2.331364e+02 -1.788418e+02        0
-1.788418e+02 -1.248363e+02        0
       0        0 3.874534e+02

2.518422e+01 -3.301578e+01        0
-3.301578e+01 -5.665630e+01        0
       0        0 3.345720e+02

-5.894937e+02 -3.201564e+02        0
-3.201564e+02 -1.746751e+02        0
       0        0 4.572952e+02

-5.541029e+02 -2.861954e+02        0
-2.861954e+02 -1.487893e+02        0
       0        0 4.676166e+02

2.470935e+02 5.912073e+01        0
5.912073e+01 -2.490782e+01        0
       0        0 5.268941e+02

-1.588963e+02 -1.742513e+02        0
-1.742513e+02 -1.475632e+02        0
       0        0 4.717262e+02

1.320233e+02 8.915335e+00        0
8.915335e+00 -4.372946e+01        0
       0        0 4.324283e+02

-1.941830e+02 -1.770043e+02        0
-1.770043e+02 -1.355410e+02        0
       0        0 4.341478e+02

-6.358909e+02 -3.525368e+02        0
-3.525368e+02 -2.010678e+02        0
       0        0 4.350291e+02

-1.279982e+02 -1.680564e+02        0
-1.680564e+02 -1.800976e+02        0
       0        0 4.930947e+02

3.430725e+02 1.262513e+02        0
1.262513e+02 -2.428215e+00        0
       0        0 6.072889e+02

-6.916649e+02 -3.823096e+02        0
-3.823096e+02 -7.014206e+02        0
       0        0 2.440766e+02

-6.875524e+02 -4.173673e+02        0
-4.173673e+02 -3.193456e+02        0
       0        0 3.750666e+02

7.881166e+01 2.344550e+02        0
2.344550e+02 2.059699e+02        0
       0        0 6.445401e+02

-2.134507e+02 8.551206e+01        0
8.551206e+01 -1.757524e+02        0
       0        0 4.910506e+02

2.835767e+02 2.168120e+02        0
2.168120e+02 5.174829e+01        0
       0        0 6.377476e+02

-1.171576e+02 -6.237926e+01        0
-6.237926e+01 -2.337124e+02        0
       0        0 4.946799e+02

9.714907e+00 -1.665065e+01        0
-1.665065e+01 -4.787574e+02        0
       0        0 4.367682e+02

7.956063e+00 -6.131580e+01        0
-6.131580e+01 1.461475e+01        0
       0        0 5.115707e+02

1.073804e+01 -9.722295e+01        0
-9.722295e+01 1.835140e+02        0
       0        0 6.152768e+02

9.699265e+00 -3.340451e+01        0
-3.340451e+01 -2.043546e+02        0
       0        0 3.227470e+02

6.827113e+00 -1.042425e+01        0
-1.042425e+01 -1.697863e+02        0
       0        0 3.389349e+02

1.402640e+01 -5.680978e+01        0
-5.680978e+01 -2.069269e+02        0
       0        0 3.906589e+02

8.454637e+00 -1.470424e+01        0
-1.470424e+01 -2.439972e+02        0
       0        0 3.841051e+02

2.045501e+00 -9.968127e+00        0
-9.968127e+00 -2.037093e+02        0
       0        0 3.145992e+02

4.876402e+00 -3.274112e+01        0
-3.274112e+01 -1.127603e+02        0
       0        0 4.093999e+02

3.600914e+00 7.597915e-01        0
7.597915e-01 -2.014963e+02        0
       0        0 1.960256e+02

3.540181e+00 -8.147847e-01        0
-8.147847e-01 -8.901803e+01        0
       0        0 2.373708e+02

6.374955e+00 -1.431454e+01        0
-1.431454e+01 -2.026389e+02        0
       0        0 2.568861e+02

5.088049e+00 -5.520532e+00        0
-5.520532e+00 -1.195458e+02        0
       0        0 2.886650e+02

-1.460302e+00 1.939741e+01        0
1.939741e+01 -3.030743e+02        0
       0        0 1.583036e+02

1.750647e-02 7.045836e+00        0
7.045836e+00 -2.652469e+02        0
       0        0 2.303674e+02

-2.563781e-01 2.020740e+01        0
2.020740e+01 -2.007945e+02        0
       0        0 9.559777e+01

9.944757e-01 7.312862e+00        0
7.312862e+00 -6.981924e+01        0
       0        0 1.426076e+02

1.406052e+00 1.211999e+01        0
1.211999e+01 -2.009017e+02        0
       0        0 1.419743e+02

2.160406e+00 3.527243e+00        0
3.527243e+00 -7.375010e+01        0
       0        0 1.880159e+02

-3.113223e+00 3.292720e+01        0
3.292720e+01 -3.292217e+02        0
       0        0 5.110926e+01

-2.481711e+00 2.777106e+01        0
2.777106e+01 -3.227561e+02        0
       0        0 9.872887e+01

-2.195427e+00 2.847450e+01        0
2.847450e+01 -2.017660e+02        0
       0        0 2.614008e+01

-6.763834e-01 1.286915e+01        0
1.286915e+01 -8.267159e+01        0
       0        0 6.802373e+01

-1.436284e+00 2.549722e+01        0
2.549722e+01 -2.011064e+02        0
       0        0 5.708039e+01

4.927034e-02 1.044350e+01        0
1.044350e+01 -7.376979e+01        0
       0        0 1.023900e+02

-3.525849e+00 3.636541e+01        0
3.636541e+01 -3.189965e+02        0
       0        0 -1.302531e+01

-3.437842e+00 3.557620e+01        0
3.557620e+01 -3.267709e+02        0
       0        0 1.432865e+01

-2.706264e+00 2.931713e+01        0
2.931713e+01 -2.038318e+02        0
       0        0 -1.537413e+01

-1.517636e+00 1.560846e+01        0
1.560846e+01 -1.061440e+02        0
       0        0 1.753024e+01

-2.597654e+00 2.960465e+01        0
2.960465e+01 -2.027035e+02        0
       0        0 2.215444e+00

-1.192977e+00 1.458315e+01        0
1.458315e+01 -9.410914e+01        0
       0        0 3.974851e+01

-3.239413e+00 3.454176e+01        0
3.454176e+01 -2.984112e+02        0
       0        0 -4.538424e+01

-3.440426e+00 3.586048e+01        0
3.586048e+01 -3.087973e+02        0
       0        0 -3.245394e+01

-1.664411e+00 1.596915e+01        0
1.596915e+01 -1.171284e+02        0
       0        0 1.226888e+00

-2.581884e+00 2.797300e+01        0
2.797300e+01 -2.047433e+02        0
       0        0 -2.721457e+01

-2.965722e+00 3.280047e+01        0
3.280047e+01 -2.893247e+02        0
       0        0 -5.300101e+01

2.238744e+01 -1.166926e+02        0
-1.166926e+02 -2.237457e+02        0
       0        0 5.091350e+02

1.092822e+01 -1.904782e+01        0
-1.904782e+01 -3.481037e+02        0
       0        0 4.187223e+02

1.841621e+01 -8.363855e+01        0
-8.363855e+01 -2.103734e+02        0
       0        0 4.558258e+02

-6.086928e+01 1.018163e+02        0
1.018163e+02 3.596506e+02        0
       0        0 6.700072e+02

-3.694354e+01 -7.218482e+01        0
-7.218482e+01 3.426231e+02        0
       0        0 6.770752e+02

-2.952104e+02 -1.997069e+02        0
-1.997069e+02 -8.944034e+02        0
       0        0 2.917355e+02

-2.686029e+02 -3.111530e+01        0
-3.111530e+01 -8.744519e+01        0
       0        0 5.115450e+02

-1.032760e+01 -3.810774e+01        0
-3.810774e+01 -6.789098e+02        0
       0        0 4.151435e+02

-6.238264e+01 -1.368349e+02        0
-1.368349e+02 -1.936652e+02        0
       0        0 5.320850e+02

-2.625895e+01 2.462579e+01        0
2.462579e+01 4.029540e+01        0
       0        0 4.679629e+02

-6.849516e+01 1.175322e+02        0
1.175322e+02 -1.970972e+02        0
       0        0 3.977049e+02

-5.463379e+01 1.442721e+02        0
1.442721e+02 -4.799131e+02        0
       0        0 3.263765e+02

-1.744106e+01 4.603884e+01        0
4.603884e+01 -5.648056e+01        0
       0        0 3.942145e+02

-3.298228e+01 1.040986e+02        0
1.040986e+02 -2.112146e+02        0
       0        0 3.491150e+02

-1.865336e+01 8.635301e+01        0
8.635301e+01 -3.594281e+02        0
       0        0 3.117894e+02

-1.118573e+01 4.861483e+01        0
4.861483e+01 -1.529264e+02        0
       0        0 3.094821e+02

-1.525995e+01 8.165226e+01        0
8.165226e+01 -2.141793e+02        0
       0        0 2.903227e+02

-6.637606e+00 5.689838e+01        0
5.689838e+01 -2.573637e+02        0
       0        0 2.790127e+02

-6.172610e+00 3.973000e+01        0
3.973000e+01 -2.701601e+02        0
       0        0 1.578068e+02

-8.264151e+00 4.439160e+01        0
4.439160e+01 -2.253221e+02        0
       0        0 2.282082e+02

-1.756811e+00 2.624958e+01        0
2.624958e+01 -1.514312e+02        0
       0        0 1.852303e+02

-5.564956e+00 4.375662e+01        0
4.375662e+01 -2.143130e+02        0
       0        0 1.697169e+02

-3.581504e+00 3.881403e+01        0
3.881403e+01 -1.911816e+02        0
       0        0 2.336580e+02

-9.170761e+00 6.023330e+01        0
6.023330e+01 -2.142403e+02        0
       0        0 2.282441e+02

-3.424576e+00 3.208025e+01        0
3.208025e+01 -3.033561e+02        0
       0        0 5.308167e+01

-4.585193e+00 3.554806e+01        0
3.554806e+01 -2.940746e+02        0
       0        0 9.955647e+01

-1.933127e-01 1.329752e+01        0
1.329752e+01 -1.233513e+02        0
       0        0 9.646233e+01

-1.503561e+00 2.407184e+01        0
2.407184e+01 -2.141041e+02        0
       0        0 7.410386e+01

-7.025274e-01 1.805548e+01        0
1.805548e+01 -1.308570e+02        0
       0        0 1.385410e+02

-3.068772e+00 3.193107e+01        0
3.193107e+01 -2.143351e+02        0
       0        0 1.179070e+02

-2.643414e+00 2.946516e+01        0
2.946516e+01 -3.032568e+02        0
       0        0 1.719548e+01

-6.685884e-01 1.946240e+01        0
1.946240e+01 -2.136035e+02        0
       0        0 3.850870e+01

-8.327967e-02 1.107029e+01        0
1.107029e+01 -1.237842e+02        0
       0        0 6.055567e+01

-1.973627e+00 2.694058e+01        0
2.694058e+01 -2.909648e+02        0
       0        0 -2.912594e+01

-2.179863e+00 2.775492e+01        0
2.775492e+01 -2.980249e+02        0
       0        0 -9.666996e+00

-5.319110e-01 1.121949e+01        0
1.121949e+01 -1.331397e+02        0
       0        0 9.470798e+00

-4.797184e-01 1.729423e+01        0
1.729423e+01 -2.118097e+02        0
       0        0 -1.003362e+01

-2.331372e-01 1.059481e+01        0
1.059481e+01 -1.280838e+02        0
       0        0 3.150444e+01

-3.815010e-01 1.741280e+01        0
1.741280e+01 -2.128325e+02        0
       0        0 1.069915e+01

-2.111988e+00 2.773057e+01        0
2.773057e+01 -2.804227e+02        0
       0        0 -5.128639e+01

-1.968181e+00 2.696481e+01        0
2.696481e+01 -2.845300e+02        0
       0        0 -4.262691e+01

-1.235230e+00 1.377604e+01        0
1.377604e+01 -1.372793e+02        0
       0        0 -1.391447e+01

-1.304759e+00 2.068440e+01        0
2.068440e+01 -2.091339e+02        0
       0        0 -3.309682e+01

-8.900161e-01 1.241855e+01        0
1.241855e+01 -1.367026e+02        0
       0        0 -5.627164e+00

-8.260777e-01 1.854897e+01        0
1.854897e+01 -2.105643e+02        0
       0        0 -2.443245e+01

-2.659214e+00 3.089094e+01        0
3.089094e+01 -2.827287e+02        0
       0        0 -5.636660e+01

-2.358264e+00 2.910024e+01        0
2.910024e+01 -2.796791e+02        0
       0        0 -5.579547e+01

-1.661431e+00 1.574506e+01        0
1.574506e+01 -1.268346e+02        0
       0        0 -1.005857e+01

-2.270678e+00 2.584307e+01        0
2.584307e+01 -2.059171e+02        0
       0        0 -3.427152e+01

-1.510584e+00 1.496791e+01        0
1.496791e+01 -1.340536e+02        0
       0        0 -1.543025e+01

-1.816354e+00 2.325535e+01        0
2.325535e+01 -2.075656e+02        0
       0        0 -3.636873e+01

6.632493e+02 -1.265175e+02        0
-1.265175e+02 4.974564e+00        0
       0        0 3.285158e+02

8.442780e+02 -4.106893e+01        0
-4.106893e+01 -3.804326e+01        0
       0        0 4.269719e+02

-4.665381e+02 2.337857e+01        0
2.337857e+01 -1.629254e+01        0
       0        0 -2.155691e+02

-9.761305e-02 -1.740734e+02        0
-1.740734e+02 2.202110e+01        0
       0        0 2.582682e+01

-9.887359e+02 2.104722e+02        0
2.104722e+02 -5.344210e+02        0
       0        0 -5.738901e+02

-1.121010e+02 -1.235565e+01        0
-1.235565e+01 -2.439274e+02        0
       0        0 -8.992884e+01

4.299795e+02 -9.319173e+01        0
-9.319173e+01 1.345307e+01        0
       0        0 2.169305e+02

6.747076e+01 -1.548212e+02        0
-1.548212e+02 5.831199e+01        0
       0        0 5.631241e+01

-2.067293e+02 -6.805842e+01        0
-6.805842e+01 6.932239e+01        0
       0        0 -8.442119e+01

1.578389e+02 -3.953318e+01        0
-3.953318e+01 6.077476e+00        0
       0        0 7.951246e+01

2.660180e+02 -6.024066e+01        0
-6.024066e+01 9.063995e+00        0
       0        0 1.350554e+02

-4.185484e+01 -7.727221e+01        0
-7.727221e+01 5.960974e+01        0
       0        0 -1.585329e+01

5.790557e+01 -8.347774e+01        0
-8.347774e+01 3.228890e+01        0
       0        0 3.458982e+01

-9.229770e+01 -8.659000e+01        0
-8.659000e+01 7.035443e+01        0
       0        0 -3.527860e+01

7.644981e+01 -1.163409e+02        0
-1.163409e+02 4.432308e+01        0
       0        0 4.989487e+01

4.069156e+01 -1.662437e+01        0
-1.662437e+01 3.160810e+00        0
       0        0 1.729941e+01

8.675509e+01 -2.592798e+01        0
-2.592798e+01 4.247432e+00        0
       0        0 4.208728e+01

-1.267925e+01 -4.162378e+01        0
-4.162378e+01 3.969047e+01        0
       0        0 -6.538478e+00

1.788435e+01 -3.841588e+01        0
-3.841588e+01 1.862577e+01        0
       0        0 8.859829e+00

-2.131237e+01 -5.958787e+01        0
-5.958787e+01 4.909007e+01        0
       0        0 -8.750951e+00

3.599259e+01 -5.798518e+01        0
-5.798518e+01 2.419578e+01        0
       0        0 2.013246e+01

1.216975e+01 -1.003371e+01        0
-1.003371e+01 2.405797e+00        0
       0        0 1.571372e+00

5.212001e+00 -2.372457e+01        0
-2.372457e+01 1.453565e+01        0
       0        0 9.555770e-01

-9.054316e+00 -2.645572e+01        0
-2.645572e+01 3.188407e+01        0
       0        0 -6.259345e+00

-1.146813e+01 -1.617024e+00        0
-1.617024e+00 1.686165e+00        0
       0        0 -1.163115e+01

-4.011658e+00 -5.297097e+00        0
-5.297097e+00 1.918203e+00        0
       0        0 -7.564062e+00

-6.910302e+00 -4.543602e+00        0
-4.543602e+00 2.360544e+01        0
       0        0 -6.811437e+00

-6.156163e+00 -3.994743e+00        0
-3.994743e+00 1.046591e+01        0
       0        0 -6.193859e+00

-7.520894e+00 -1.438469e+01        0
-1.438469e+01 2.634554e+01        0
       0        0 -6.545903e+00

-2.483890e+00 -1.271015e+01        0
-1.271015e+01 1.179681e+01        0
       0        0 -3.935184e+00

-7.204340e+02 3.273006e+02        0
3.273006e+02 -8.010818e+01        0
       0        0 -4.353860e+02

-1.413153e+03 5.251534e+02        0
5.251534e+02 -3.262508e+02        0
       0        0 -7.080090e+02

8.189814e+01 2.336854e+02        0
2.336854e+02 -7.967575e+01        0
       0        0 2.910301e+02

-2.819289e+02 4.405905e+02        0
4.405905e+02 -1.206616e+02        0
       0        0 -7.355834e+01

6.114681e+02 1.484674e+02        0
1.484674e+02 -5.212509e+01        0
       0        0 4.083822e+02

-2.796082e+02 4.361865e+02        0
4.361865e+02 -2.682154e+02        0
       0        0 -1.405784e+02

-2.672241e+02 2.172309e+02        0
2.172309e+02 -1.114880e+02        0
       0        0 -2.247376e+02

-2.217246e+02 3.522837e+02        0
3.522837e+02 -2.008680e+02        0
       0        0 -1.055005e+01

-3.392802e+02 2.887922e+02        0
2.887922e+02 -1.645058e+02        0
       0        0 1.947102e+02

1.026630e+02 -2.912522e+01        0
-2.912522e+01 -2.874636e+01        0
       0        0 1.939627e+02

-9.879640e+00 8.703091e+01        0
8.703091e+01 -8.809183e+01        0
       0        0 -5.011673e+00

-6.131923e+02 4.492383e+02        0
4.492383e+02 -3.782946e+02        0
       0        0 1.729782e+02

-1.891733e+02 2.000065e+02        0
2.000065e+02 -2.453608e+02        0
       0        0 1.912654e+02

-5.559274e+02 3.750286e+02        0
3.750286e+02 -2.659604e+02        0
       0        0 1.619311e+02

-1.946593e+02 2.651695e+02        0
2.651695e+02 -2.422516e+02        0
       0        0 8.467022e+01

8.653777e+01 -1.236493e+02        0
-1.236493e+02 1.137137e+02        0
       0        0 4.672026e+02

1.195510e+02 -1.006652e+02        0
-1.006652e+02 4.725546e+01        0
       0        0 3.545929e+02

-4.531215e+02 4.665789e+02        0
4.665789e+02 -5.689290e+02        0
       0        0 2.503264e+02

-1.811673e+02 1.368661e+02        0
1.368661e+02 -2.102581e+02        0
       0        0 3.671662e+02

-5.622104e+02 4.822648e+02        0
4.822648e+02 -4.850335e+02        0
       0        0 2.081524e+02

-1.877481e+02 1.586054e+02        0
1.586054e+02 -2.298872e+02        0
       0        0 2.898542e+02

3.874648e+01 -1.063741e+02        0
-1.063741e+02 1.521705e+02        0
       0        0 5.298736e+02

-1.652728e+02 1.279373e+02        0
1.279373e+02 -1.953617e+02        0
       0        0 4.163377e+02

-3.268427e+02 4.090882e+02        0
4.090882e+02 -6.158194e+02        0
       0        0 2.876093e+02

-2.339958e+01 -1.597506e+01        0
-1.597506e+01 1.152075e+02        0
       0        0 5.223705e+02

-1.573478e+00 -6.464232e+01        0
-6.464232e+01 1.529186e+02        0
       0        0 5.459794e+02

-1.215456e+02 2.309512e+02        0
2.309512e+02 -5.738876e+02        0
       0        0 3.250923e+02

-1.071627e+02 1.210190e+02        0
1.210190e+02 -1.859846e+02        0
       0        0 4.288309e+02

-2.111076e+02 3.250050e+02        0
3.250050e+02 -6.186751e+02        0
       0        0 3.131298e+02

-1.399553e+02 1.247369e+02        0
1.247369e+02 -1.884896e+02        0
       0        0 4.358472e+02

-3.038459e+02 2.770004e+02        0
2.770004e+02 -2.772855e+02        0
       0        0 -2.657904e+02

-5.171489e+02 2.498418e+02        0
2.498418e+02 -1.731377e+02        0
       0        0 -3.122652e+02

-2.341704e+02 4.033597e+02        0
4.033597e+02 -7.286601e+02        0
       0        0 -3.777991e+02

-7.338373e+02 6.514718e+02        0
6.514718e+02 -8.587944e+02        0
       0        0 -6.102177e+02

-1.632177e+02 2.138127e+02        0
2.138127e+02 -3.498080e+02        0
       0        0 -1.787796e+02

-2.052856e+02 2.439592e+02        0
2.439592e+02 -3.418976e+02        0
       0        0 -2.275583e+02

-1.386327e+02 2.050580e+02        0
2.050580e+02 -5.689969e+02        0
       0        0 -2.299522e+02

-1.343530e+02 2.790241e+02        0
2.790241e+02 -6.183368e+02        0
       0        0 -2.779831e+02

-1.256018e+02 1.095178e+01        0
1.095178e+01 5.942513e+01        0
       0        0 -6.992025e+01

-1.076551e+02 -3.772303e+01        0
-3.772303e+01 6.901018e+01        0
       0        0 -5.471474e+01

-1.905554e+02 4.902033e+01        0
4.902033e+01 2.343524e+01        0
       0        0 -1.144865e+02

-1.821594e+02 -1.439219e+01        0
-1.439219e+01 5.821855e+01        0
       0        0 -9.458625e+01

-2.675993e+02 1.353540e+02        0
1.353540e+02 -7.281304e+01        0
       0        0 -1.818734e+02

-3.048590e+02 6.204808e+01        0
6.204808e+01 8.928556e+00        0
       0        0 -1.661691e+02

-4.586501e+01 8.373009e+01        0
8.373009e+01 5.024028e+00        0
       0        0 -2.841611e+01

-1.034878e+02 5.379007e+01        0
5.379007e+01 3.686751e+01        0
       0        0 -6.055195e+01

-8.217774e+01 1.272362e+02        0
1.272362e+02 -5.396615e+01        0
       0        0 -6.136425e+01

-1.544927e+02 9.424330e+01        0
9.424330e+01 -1.606200e+01        0
       0        0 -1.023965e+02

-1.262393e+02 1.773382e+02        0
1.773382e+02 -1.664354e+02        0
       0        0 -1.120338e+02

-2.017858e+02 1.592904e+02        0
1.592904e+02 -1.345026e+02        0
       0        0 -1.615797e+02

-4.473321e+01 -6.639340e+00        0
-6.639340e+00 6.187315e+01        0
       0        0 -2.437362e+01

-3.684174e+01 -2.854184e+01        0
-2.854184e+01 5.608667e+01        0
       0        0 -1.995769e+01

-7.729054e+01 -3.215573e+00        0
-3.215573e+00 6.687894e+01        0
       0        0 -4.150146e+01

-6.345365e+01 -3.685860e+01        0
-3.685860e+01 6.511967e+01        0
       0        0 -3.243979e+01

-5.984329e+00 3.015625e+01        0
3.015625e+01 3.960673e+01        0
       0        0 8.322891e-01

-3.398752e+01 1.546889e+01        0
1.546889e+01 5.581703e+01        0
       0        0 -1.720331e+01

-2.103518e+01 5.166736e+01        0
5.166736e+01 3.113618e+01        0
       0        0 -9.250897e+00

-6.233076e+01 2.937868e+01        0
2.937868e+01 5.473449e+01        0
       0        0 -3.340346e+01

-7.412423e+00 -1.227489e+00        0
-1.227489e+00 4.199864e+01        0
       0        0 -7.207091e+00

-8.590592e+00 -3.374404e+00        0
-3.374404e+00 3.538217e+01        0
       0        0 -8.407861e+00

-1.283209e+01 -3.717977e+00        0
-3.717977e+00 4.602057e+01        0
       0        0 -9.398241e+00

-1.257785e+01 -1.062963e+01        0
-1.062963e+01 3.918380e+01        0
       0        0 -9.787793e+00

-2.438909e+01 -5.879465e+00        0
-5.879465e+00 5.338929e+01        0
       0        0 -1.458635e+01

-2.120693e+01 -1.906099e+01        0
-1.906099e+01 4.655061e+01        0
       0        0 -1.321412e+01

8.291656e+00 2.373261e+00        0
2.373261e+00 3.662079e+01        0
       0        0 8.381632e+00

-1.637585e+00 9.881488e-01        0
9.881488e-01 4.214188e+01        0
       0        0 -1.455163e+00

6.526053e+00 8.000681e+00        0
8.000681e+00 3.819940e+01        0
       0        0 7.673994e+00

-6.277940e+00 3.452965e+00        0
3.452965e+00 4.538912e+01        0
       0        0 -3.426411e+00

2.355870e+00 1.649417e+01        0
1.649417e+01 4.014704e+01        0
       0        0 5.645675e+00

-1.624848e+01 7.695677e+00        0
7.695677e+00 5.085218e+01        0
       0        0 -8.116939e+00

POINT_DATA     938
VECTORS DISPLACEMENT_2.800000e+00 double
1.602062e-09    1.340908e-08    0.000000e+00
1.741718e-09    1.264410e-08    0.000000e+00
1.466027e-09    1.419203e-08    0.000000e+00
-5.373151e-10    1.355728e-08    0.000000e+00
-3.215307e-10    1.263970e-08    0.000000e+00
-8.492146e-11    1.175454e-08    0.000000e+00
1.700250e-10    1.091035e-08    0.000000e+00
4.402552e-10    1.011690e-08    0.000000e+00
7.218039e-10    9.385519e-09    0.000000e+00
1.009707e-09    8.729604e-09    0.000000e+00
1.297454e-09    8.164494e-09    0.000000e+00
1.577163e-09    7.709982e-09    0.000000e+00
1.830739e-09    7.396795e-09    0.000000e+00
2.008077e-09    7.231834e-09    0.000000e+00
2.165187e-09    7.168112e-09    0.000000e+00
-8.074353e-12    2.460866e-08    0.000000e+00
-1.611136e-10    2.455647e-08    0.000000e+00
-3.038292e-11    2.417159e-08    0.000000e+00
-3.330511e-10    2.409741e-08    0.000000e+00
-5.605250e-11    2.279847e-08    0.000000e+00
-5.616094e-10    2.270247e-08    0.000000e+00
-4.580127e-11    2.194010e-08    0.000000e+00
-6.183366e-10    2.183319e-08    0.000000e+00
-4.926942e-11    2.355355e-08    0.000000e+00
-4.663227e-10    2.346793e-08    0.000000e+00
3.733338e-11    2.002096e-08    0.000000e+00
-6.184962e-10    1.989365e-08    0.000000e+00
1.131844e-10    1.900088e-08    0.000000e+00
-5.649560e-10    1.886453e-08    0.000000e+00
3.342906e-10    1.691488e-08    0.000000e+00
-3.607815e-10    1.676303e-08    0.000000e+00
4.778567e-10    1.587072e-08    0.000000e+00
-2.147686e-10    1.571275e-08    0.000000e+00
2.123366e-10    1.796148e-08    0.000000e+00
-4.783174e-10    1.781693e-08    0.000000e+00
-1.534579e-11    2.100681e-08    0.000000e+00
-6.368794e-10    2.088938e-08    0.000000e+00
1.182183e-09    1.601299e-08    0.000000e+00
1.042663e-09    1.704652e-08    0.000000e+00
9.182140e-10    1.808147e-08    0.000000e+00
8.086903e-10    1.910795e-08    0.000000e+00
7.129196e-10    2.011321e-08    0.000000e+00
6.284839e-10    2.108205e-08    0.000000e+00
5.515602e-10    2.199624e-08    0.000000e+00
4.766967e-10    2.283352e-08    0.000000e+00
3.963309e-10    2.356692e-08    0.000000e+00
2.993665e-10    2.416338e-08    0.000000e+00
1.684646e-10    2.457612e-08    0.000000e+00
2.073658e-12    2.472842e-08    0.000000e+00
-3.623573e-12    2.480171e-08    0.000000e+00
5.744604e-12    2.484772e-08    0.000000e+00
-1.337991e-10    2.517730e-08    0.000000e+00
-3.674210e-10    2.446211e-08    0.000000e+00
-6.674008e-10    2.396741e-08    0.000000e+00
-9.048297e-10    2.332691e-08    0.000000e+00
-1.083459e-09    2.255568e-08    0.000000e+00
-1.202887e-09    2.168243e-08    0.000000e+00
-1.267367e-09    2.073454e-08    0.000000e+00
-1.281019e-09    1.973471e-08    0.000000e+00
-1.248195e-09    1.870156e-08    0.000000e+00
-1.173043e-09    1.765013e-08    0.000000e+00
-1.059403e-09    1.659268e-08    0.000000e+00
-9.107358e-10    1.553939e-08    0.000000e+00
-7.300555e-10    1.449917e-08    0.000000e+00
-4.530597e-11    1.467354e-08    0.000000e+00
6.387091e-10    1.483688e-08    0.000000e+00
1.335965e-09    1.498924e-08    0.000000e+00
1.882124e-09    1.190121e-08    0.000000e+00
2.019724e-09    1.118504e-08    0.000000e+00
2.150211e-09    1.050079e-08    0.000000e+00
2.268410e-09    9.854427e-09    0.000000e+00
2.368197e-09    9.252697e-09    0.000000e+00
2.442781e-09    8.703427e-09    0.000000e+00
2.483169e-09    8.214262e-09    0.000000e+00
2.498795e-09    7.785759e-09    0.000000e+00
2.410361e-09    7.388752e-09    0.000000e+00
2.347589e-09    7.300015e-09    0.000000e+00
2.251720e-09    7.235589e-09    0.000000e+00
1.646962e-09    1.010180e-08    0.000000e+00
1.178376e-09    9.731688e-09    0.000000e+00
1.115544e-09    1.234315e-08    0.000000e+00
5.124511e-10    1.204740e-08    0.000000e+00
7.833448e-10    1.398571e-08    0.000000e+00
1.207703e-10    1.377474e-08    0.000000e+00
9.449485e-10    1.315351e-08    0.000000e+00
3.091989e-10    1.289754e-08    0.000000e+00
1.291916e-09    1.156027e-08    0.000000e+00
7.274759e-10    1.123101e-08    0.000000e+00
1.470516e-09    1.081085e-08    0.000000e+00
9.508705e-10    1.045613e-08    0.000000e+00
2.104566e-09    8.304785e-09    0.000000e+00
1.824213e-09    7.975149e-09    0.000000e+00
1.815988e-09    9.441086e-09    0.000000e+00
1.404690e-09    9.068060e-09    0.000000e+00
1.970811e-09    8.837525e-09    0.000000e+00
1.623052e-09    8.476906e-09    0.000000e+00
2.206497e-09    7.847743e-09    0.000000e+00
2.001808e-09    7.579988e-09    0.000000e+00
2.294972e-09    7.500614e-09    0.000000e+00
2.147368e-09    7.335146e-09    0.000000e+00
1.785717e-09    6.927449e-09    0.000000e+00
1.823079e-09    7.103638e-09    0.000000e+00
6.508896e-10    6.596433e-09    0.000000e+00
6.497156e-10    6.724735e-09    0.000000e+00
3.709261e-10    6.510611e-09    0.000000e+00
3.650538e-10    6.595578e-09    0.000000e+00
4.966320e-10    6.551307e-09    0.000000e+00
4.921087e-10    6.657633e-09    0.000000e+00
1.970376e-10    6.438863e-09    0.000000e+00
1.931886e-10    6.485684e-09    0.000000e+00
1.436308e-10    6.406384e-09    0.000000e+00
1.424705e-10    6.436805e-09    0.000000e+00
2.719030e-10    6.473395e-09    0.000000e+00
2.663722e-10    6.538405e-09    0.000000e+00
8.343267e-10    6.647071e-09    0.000000e+00
8.386620e-10    6.796641e-09    0.000000e+00
1.504700e-10    6.372444e-09    0.000000e+00
2.069530e-10    6.389157e-09    0.000000e+00
2.838442e-10    6.406196e-09    0.000000e+00
3.834805e-10    6.424197e-09    0.000000e+00
5.079640e-10    6.444207e-09    0.000000e+00
6.587637e-10    6.467736e-09    0.000000e+00
8.362262e-10    6.496813e-09    0.000000e+00
1.038987e-09    6.534009e-09    0.000000e+00
1.263290e-09    6.582458e-09    0.000000e+00
1.502210e-09    6.645800e-09    0.000000e+00
1.744739e-09    6.728263e-09    0.000000e+00
1.975250e-09    6.833702e-09    0.000000e+00
2.171106e-09    6.968594e-09    0.000000e+00
2.321650e-09    7.123257e-09    0.000000e+00
2.272972e-09    7.206738e-09    0.000000e+00
2.246769e-09    7.275110e-09    0.000000e+00
2.084276e-09    7.303171e-09    0.000000e+00
1.850428e-09    7.276881e-09    0.000000e+00
1.588163e-09    7.217475e-09    0.000000e+00
1.323179e-09    7.136895e-09    0.000000e+00
1.072936e-09    7.044971e-09    0.000000e+00
8.482085e-10    6.948859e-09    0.000000e+00
6.546085e-10    6.853615e-09    0.000000e+00
4.939640e-10    6.762530e-09    0.000000e+00
3.655099e-10    6.677457e-09    0.000000e+00
2.668999e-10    6.599145e-09    0.000000e+00
1.950213e-10    6.527524e-09    0.000000e+00
1.466322e-10    6.461946e-09    0.000000e+00
1.188338e-10    6.401407e-09    0.000000e+00
1.114333e-10    6.391048e-09    0.000000e+00
1.091013e-10    6.375353e-09    0.000000e+00
1.121353e-10    6.355773e-09    0.000000e+00
1.301510e-09    6.950877e-09    0.000000e+00
1.280654e-09    6.769524e-09    0.000000e+00
1.057492e-09    6.872541e-09    0.000000e+00
1.045619e-09    6.704374e-09    0.000000e+00
1.561596e-09    7.029098e-09    0.000000e+00
1.531583e-09    6.843500e-09    0.000000e+00
2.253948e-09    7.219534e-09    0.000000e+00
2.222725e-09    7.127408e-09    0.000000e+00
2.063751e-09    7.169237e-09    0.000000e+00
2.024467e-09    7.020650e-09    0.000000e+00
2.334215e-09    7.236892e-09    0.000000e+00
2.353274e-09    7.228133e-09    0.000000e+00
1.600831e-09    5.944083e-09    0.000000e+00
1.628586e-09    5.892267e-09    0.000000e+00
1.633313e-09    5.853612e-09    0.000000e+00
1.626391e-09    5.808346e-09    0.000000e+00
1.521320e-09    5.783779e-09    0.000000e+00
1.355484e-09    5.784573e-09    0.000000e+00
1.160123e-09    5.807558e-09    0.000000e+00
9.604294e-10    5.846329e-09    0.000000e+00
7.729359e-10    5.894998e-09    0.000000e+00
6.066474e-10    5.949182e-09    0.000000e+00
4.656108e-10    6.005784e-09    0.000000e+00
3.505878e-10    6.062831e-09    0.000000e+00
2.604054e-10    6.119281e-09    0.000000e+00
1.930174e-10    6.174858e-09    0.000000e+00
1.463083e-10    6.229896e-09    0.000000e+00
1.186697e-10    6.285199e-09    0.000000e+00
1.093833e-10    6.341915e-09    0.000000e+00
8.758547e-11    6.336121e-09    0.000000e+00
8.335281e-11    6.316891e-09    0.000000e+00
9.822442e-11    6.298709e-09    0.000000e+00
1.321832e-10    6.282270e-09    0.000000e+00
1.863033e-10    6.268153e-09    0.000000e+00
2.624857e-10    6.256594e-09    0.000000e+00
3.630064e-10    6.247234e-09    0.000000e+00
4.898576e-10    6.238820e-09    0.000000e+00
6.438376e-10    6.228867e-09    0.000000e+00
8.233717e-10    6.213311e-09    0.000000e+00
1.023002e-09    6.186074e-09    0.000000e+00
1.231894e-09    6.139093e-09    0.000000e+00
1.433078e-09    6.059744e-09    0.000000e+00
4.262365e-10    6.090544e-09    0.000000e+00
3.919641e-10    6.171045e-09    0.000000e+00
1.116087e-09    5.933900e-09    0.000000e+00
1.070025e-09    6.056249e-09    0.000000e+00
1.504531e-09    5.872424e-09    0.000000e+00
1.476482e-09    5.957095e-09    0.000000e+00
1.321862e-09    5.899536e-09    0.000000e+00
1.279916e-09    6.011936e-09    0.000000e+00
7.259858e-10    6.009977e-09    0.000000e+00
6.828181e-10    6.120032e-09    0.000000e+00
9.128162e-10    5.971118e-09    0.000000e+00
8.669500e-10    6.091098e-09    0.000000e+00
5.628318e-10    6.049933e-09    0.000000e+00
5.238036e-10    6.146015e-09    0.000000e+00
1.682542e-10    6.214380e-09    0.000000e+00
1.479346e-10    6.250465e-09    0.000000e+00
3.161590e-10    6.131535e-09    0.000000e+00
2.867393e-10    6.196390e-09    0.000000e+00
2.309296e-10    6.172793e-09    0.000000e+00
2.061862e-10    6.222757e-09    0.000000e+00
1.025472e-10    6.299627e-09    0.000000e+00
9.071435e-11    6.310124e-09    0.000000e+00
1.259643e-10    6.256526e-09    0.000000e+00
1.098886e-10    6.279596e-09    0.000000e+00
9.748594e-11    6.344237e-09    0.000000e+00
9.014177e-11    6.342022e-09    0.000000e+00
-2.472138e-14    -2.058191e-11    0.000000e+00
-2.767522e-12    -2.212356e-11    0.000000e+00
-6.111737e-12    -2.638275e-11    0.000000e+00
-1.073481e-11    -3.292012e-11    0.000000e+00
-1.754825e-11    -4.039242e-11    0.000000e+00
-2.794556e-11    -4.554800e-11    0.000000e+00
-4.450171e-11    -4.128006e-11    0.000000e+00
-7.193038e-11    -1.408401e-11    0.000000e+00
-1.218020e-10    6.212566e-11    0.000000e+00
-1.986862e-10    2.242452e-10    0.000000e+00
-3.837516e-10    5.575454e-10    0.000000e+00
-1.346348e-10    6.046673e-10    0.000000e+00
2.085757e-10    6.373338e-10    0.000000e+00
5.995783e-10    6.919245e-10    0.000000e+00
3.690972e-10    2.521422e-10    0.000000e+00
2.068069e-10    6.236343e-11    0.000000e+00
1.106214e-10    -1.445130e-11    0.000000e+00
5.514651e-11    -4.259852e-11    0.000000e+00
2.352116e-11    -4.874286e-11    0.000000e+00
6.723431e-12    -4.538080e-11    0.000000e+00
-9.168247e-13    -3.902645e-11    0.000000e+00
-3.068279e-12    -3.303668e-11    0.000000e+00
-2.193720e-12    -2.901250e-11    0.000000e+00
8.295345e-14    -2.766185e-11    0.000000e+00
4.328613e-14    -2.636122e-11    0.000000e+00
1.142185e-14    -2.437871e-11    0.000000e+00
1.418758e-11    -5.501720e-11    0.000000e+00
-6.534974e-12    -5.429127e-11    0.000000e+00
9.481711e-11    3.343507e-11    0.000000e+00
-3.339662e-11    3.645461e-11    0.000000e+00
1.443004e-10    2.047185e-10    0.000000e+00
-7.700613e-11    2.007160e-10    0.000000e+00
5.738639e-11    -3.252124e-11    0.000000e+00
-1.399579e-11    -3.132299e-11    0.000000e+00
3.096715e-11    -5.369873e-11    0.000000e+00
-8.240112e-12    -5.318348e-11    0.000000e+00
-9.914542e-14    -3.994043e-11    0.000000e+00
-4.661467e-12    -3.834626e-11    0.000000e+00
4.547548e-12    -4.840496e-11    0.000000e+00
-5.705460e-12    -4.718647e-11    0.000000e+00
-1.561662e-12    -3.267304e-11    0.000000e+00
-3.295061e-12    -3.085961e-11    0.000000e+00
-1.188114e-12    -2.797238e-11    0.000000e+00
-1.701386e-12    -2.605067e-11    0.000000e+00
-7.342037e-10    1.581154e-09    0.000000e+00
-6.779163e-10    2.641727e-09    0.000000e+00
-4.029265e-10    3.641636e-09    0.000000e+00
2.244508e-11    4.477827e-09    0.000000e+00
4.964364e-10    5.101270e-09    0.000000e+00
9.422263e-10    5.513152e-09    0.000000e+00
1.301801e-09    5.742499e-09    0.000000e+00
1.539506e-09    5.833979e-09    0.000000e+00
1.645241e-09    5.839675e-09    0.000000e+00
1.695709e-09    5.803685e-09    0.000000e+00
1.730753e-09    5.606108e-09    0.000000e+00
1.702222e-09    5.326187e-09    0.000000e+00
1.614563e-09    4.939360e-09    0.000000e+00
1.479769e-09    4.425789e-09    0.000000e+00
1.317495e-09    3.784468e-09    0.000000e+00
1.146862e-09    3.030287e-09    0.000000e+00
9.787718e-10    2.201716e-09    0.000000e+00
8.035465e-10    1.374254e-09    0.000000e+00
8.499566e-10    4.881252e-09    0.000000e+00
1.174761e-09    4.662218e-09    0.000000e+00
-1.025957e-10    2.474284e-09    0.000000e+00
4.212170e-10    2.328364e-09    0.000000e+00
-1.877343e-10    1.485386e-09    0.000000e+00
2.883107e-10    1.399562e-09    0.000000e+00
1.363284e-10    3.428815e-09    0.000000e+00
6.345474e-10    3.232686e-09    0.000000e+00
4.777447e-10    4.246565e-09    0.000000e+00
9.001071e-10    4.024015e-09    0.000000e+00
1.460565e-09    5.608764e-09    0.000000e+00
1.597873e-09    5.469808e-09    0.000000e+00
1.192740e-09    5.327925e-09    0.000000e+00
1.417986e-09    5.139197e-09    0.000000e+00
1.626769e-09    5.761600e-09    0.000000e+00
1.695142e-09    5.682736e-09    0.000000e+00
1.682349e-09    5.829694e-09    0.000000e+00
1.703532e-09    5.812725e-09    0.000000e+00
0.000000e+00    0.000000e+00    0.000000e+00
0.000000e+00    0.000000e+00    0.000000e+00
0.000000e+00    0.000000e+00    0.000000e+00
0.000000e+00    0.000000e+00    0.000000e+00
0.000000e+00    0.000000e+00    0.000000e+00
0.000000e+00    0.000000e+00    0.000000e+00
0.000000e+00    0.000000e+00    0.000000e+00
0.000000e+00    0.000000e+00    0.000000e+00
0.000000e+00    0.000000e+00    0.000000e+00
0.000000e+00    0.000000e+00    0.000000e+00
0.000000e+00    0.000000e+00    0.000000e+00
-4.366053e-11    8.273028e-11    0.000000e+00
-1.050407e-10    1.785169e-10    0.000000e+00
-1.775348e-10    2.886528e-10    0.000000e+00
-4.503380e-14    -1.542129e-11    0.000000e+00
-4.460551e-14    -9.523251e-12    0.000000e+00
-2.340177e-14    -4.035822e-12    0.000000e+00
-3.922708e-11    -3.132693e-11    0.000000e+00
-3.741411e-11    -1.640218e-11    0.000000e+00
-2.318830e-11    -4.838355e-12    0.000000e+00
-1.369957e-10    5.965724e-11    0.000000e+00
-1.112160e-10    4.647028e-11    0.000000e+00
-6.543877e-11    2.388387e-11    0.000000e+00
-1.261416e-10    1.153025e-10    0.000000e+00
-1.733266e-10    1.676254e-10    0.000000e+00
-6.582453e-11    5.237640e-11    0.000000e+00
-5.803825e-11    -1.106101e-11    0.000000e+00
-8.381774e-11    6.432234e-12    0.000000e+00
-6.183705e-11    -2.573988e-11    0.000000e+00
-9.300893e-11    -1.481980e-12    0.000000e+00
-3.595955e-11    -1.469748e-12    0.000000e+00
-5.150466e-11    7.032110e-12    0.000000e+00
-1.412306e-11    -2.398995e-11    0.000000e+00
-1.326359e-11    -1.400608e-11    0.000000e+00
-8.045569e-12    -5.321852e-12    0.000000e+00
-2.291232e-11    -1.614080e-11    0.000000e+00
-2.409579e-11    -2.880794e-11    0.000000e+00
-1.407221e-11    -5.618364e-12    0.000000e+00
-3.038543e-12    -1.017552e-11    0.000000e+00
-7.085959e-12    -1.175541e-11    0.000000e+00
-3.344121e-12    -1.655864e-11    0.000000e+00
-7.674895e-12    -1.953327e-11    0.000000e+00
-1.793778e-12    -4.266882e-12    0.000000e+00
-4.236664e-12    -4.741061e-12    0.000000e+00
9.847915e-10    1.491418e-08    0.000000e+00
1.260167e-09    1.550028e-08    0.000000e+00
1.401843e-09    1.458964e-08    0.000000e+00
2.959427e-10    1.475669e-08    0.000000e+00
5.586033e-10    1.535254e-08    0.000000e+00
7.114176e-10    1.440981e-08    0.000000e+00
-3.868657e-10    1.458818e-08    0.000000e+00
-1.305660e-10    1.519249e-08    0.000000e+00
3.747598e-11    1.422301e-08    0.000000e+00
-8.211125e-10    1.501567e-08    0.000000e+00
-6.340204e-10    1.402451e-08    0.000000e+00
-9.861274e-10    1.606329e-08    0.000000e+00
-5.618910e-10    1.562829e-08    0.000000e+00
-1.117677e-09    1.711954e-08    0.000000e+00
-7.091350e-10    1.668049e-08    0.000000e+00
-1.212542e-09    1.817502e-08    0.000000e+00
-8.245061e-10    1.773666e-08    0.000000e+00
-1.267072e-09    1.921857e-08    0.000000e+00
-9.050768e-10    1.878675e-08    0.000000e+00
-1.277264e-09    2.023657e-08    0.000000e+00
-9.478143e-10    1.981857e-08    0.000000e+00
-1.238853e-09    2.121223e-08    0.000000e+00
-9.495930e-10    2.081714e-08    0.000000e+00
-1.147543e-09    2.212476e-08    0.000000e+00
-9.073604e-10    2.176391e-08    0.000000e+00
-9.991530e-10    2.294895e-08    0.000000e+00
-8.182609e-10    2.263622e-08    0.000000e+00
-7.909178e-10    2.365428e-08    0.000000e+00
-6.804500e-10    2.340586e-08    0.000000e+00
-5.221347e-10    2.421159e-08    0.000000e+00
-4.922441e-10    2.404156e-08    0.000000e+00
-2.163307e-10    2.464940e-08    0.000000e+00
-2.573357e-10    2.452290e-08    0.000000e+00
2.906173e-11    2.501701e-08    0.000000e+00
4.877379e-12    2.482296e-08    0.000000e+00
-7.702947e-11    2.473696e-08    0.000000e+00
-2.451343e-12    2.477489e-08    0.000000e+00
4.990896e-13    2.473780e-08    0.000000e+00
8.883360e-11    2.468526e-08    0.000000e+00
2.402762e-10    2.439701e-08    0.000000e+00
7.312249e-11    2.460528e-08    0.000000e+00
3.525981e-10    2.388513e-08    0.000000e+00
1.264231e-10    2.417842e-08    0.000000e+00
4.398951e-10    2.321549e-08    0.000000e+00
1.662279e-10    2.356922e-08    0.000000e+00
5.166495e-10    2.242645e-08    0.000000e+00
2.037661e-10    2.282337e-08    0.000000e+00
5.919445e-10    2.154769e-08    0.000000e+00
2.470374e-10    2.197421e-08    0.000000e+00
6.721904e-10    2.060371e-08    0.000000e+00
3.013982e-10    2.104935e-08    0.000000e+00
7.619951e-10    1.961468e-08    0.000000e+00
3.705735e-10    2.007108e-08    0.000000e+00
8.644593e-10    1.859720e-08    0.000000e+00
4.569391e-10    1.905764e-08    0.000000e+00
9.813709e-10    1.756517e-08    0.000000e+00
5.617623e-10    1.802406e-08    0.000000e+00
1.113384e-09    1.652984e-08    0.000000e+00
6.853746e-10    1.698274e-08    0.000000e+00
8.272610e-10    1.594343e-08    0.000000e+00
-3.273187e-10    2.095316e-08    0.000000e+00
-6.297689e-10    2.039851e-08    0.000000e+00
-6.300405e-10    2.137102e-08    0.000000e+00
1.068744e-11    2.051937e-08    0.000000e+00
-3.087029e-11    2.148132e-08    0.000000e+00
-1.341023e-10    1.789210e-08    0.000000e+00
-4.206346e-10    1.729160e-08    0.000000e+00
-5.230333e-10    1.834378e-08    0.000000e+00
2.732747e-10    1.743888e-08    0.000000e+00
1.625926e-10    1.848316e-08    0.000000e+00
1.306311e-10    1.579364e-08    0.000000e+00
-2.885686e-10    1.623832e-08    0.000000e+00
4.062016e-10    1.639245e-08    0.000000e+00
-1.426589e-11    1.684132e-08    0.000000e+00
-2.270654e-10    1.893621e-08    0.000000e+00
-5.934567e-10    1.938389e-08    0.000000e+00
7.499929e-11    1.951446e-08    0.000000e+00
-2.917964e-10    1.996153e-08    0.000000e+00
-2.584623e-10    2.351912e-08    0.000000e+00
-5.170337e-10    2.310262e-08    0.000000e+00
-4.032467e-10    2.380533e-08    0.000000e+00
-5.272694e-11    2.319019e-08    0.000000e+00
-3.966170e-11    2.388074e-08    0.000000e+00
-3.332073e-10    2.189268e-08    0.000000e+00
-5.927530e-10    2.228099e-08    0.000000e+00
-5.113301e-11    2.238006e-08    0.000000e+00
-3.098011e-10    2.275763e-08    0.000000e+00
-1.813199e-10    2.414430e-08    0.000000e+00
-2.499272e-10    2.435633e-08    0.000000e+00
-1.843347e-11    2.441409e-08    0.000000e+00
-8.405161e-11    2.459317e-08    0.000000e+00
2.097729e-09    7.192917e-09    0.000000e+00
2.207421e-09    7.203016e-09    0.000000e+00
2.235468e-09    7.182035e-09    0.000000e+00
1.931911e-09    7.301203e-09    0.000000e+00
2.073135e-09    7.279327e-09    0.000000e+00
1.711914e-09    7.533024e-09    0.000000e+00
1.910978e-09    7.477706e-09    0.000000e+00
1.440713e-09    7.921728e-09    0.000000e+00
1.698728e-09    7.835265e-09    0.000000e+00
1.156004e-09    8.434433e-09    0.000000e+00
1.459381e-09    8.316184e-09    0.000000e+00
8.674936e-10    9.046978e-09    0.000000e+00
1.206819e-09    8.895775e-09    0.000000e+00
5.822320e-10    9.742368e-09    0.000000e+00
9.501780e-10    9.556847e-09    0.000000e+00
3.059157e-10    1.050621e-08    0.000000e+00
6.959324e-10    1.028568e-08    0.000000e+00
4.299058e-11    1.132622e-08    0.000000e+00
4.493221e-10    1.107059e-08    0.000000e+00
-2.030675e-10    1.219187e-08    0.000000e+00
2.144566e-10    1.190146e-08    0.000000e+00
-4.295157e-10    1.309405e-08    0.000000e+00
-5.402205e-12    1.276960e-08    0.000000e+00
-2.074575e-10    1.366742e-08    0.000000e+00
1.535096e-09    1.379914e-08    0.000000e+00
1.122112e-09    1.408957e-08    0.000000e+00
1.673220e-09    1.302468e-08    0.000000e+00
1.270737e-09    1.328148e-08    0.000000e+00
1.813595e-09    1.227020e-08    0.000000e+00
1.425546e-09    1.249321e-08    0.000000e+00
1.953023e-09    1.154006e-08    0.000000e+00
1.583465e-09    1.172959e-08    0.000000e+00
2.087575e-09    1.083915e-08    0.000000e+00
1.740931e-09    1.099589e-08    0.000000e+00
2.212534e-09    1.017307e-08    0.000000e+00
1.893586e-09    1.029814e-08    0.000000e+00
2.322208e-09    9.548004e-09    0.000000e+00
2.036164e-09    9.643129e-09    0.000000e+00
2.410242e-09    8.971831e-09    0.000000e+00
2.162362e-09    9.039037e-09    0.000000e+00
2.468636e-09    8.449936e-09    0.000000e+00
2.264787e-09    8.494883e-09    0.000000e+00
2.495849e-09    8.000606e-09    0.000000e+00
2.336892e-09    8.024049e-09    0.000000e+00
2.462920e-09    7.577825e-09    0.000000e+00
2.373501e-09    7.611401e-09    0.000000e+00
2.398008e-09    7.337215e-09    0.000000e+00
2.371411e-09    7.246616e-09    0.000000e+00
2.299133e-09    7.267224e-09    0.000000e+00
2.328704e-09    7.375022e-09    0.000000e+00
2.382492e-09    7.276658e-09    0.000000e+00
2.212242e-09    7.274483e-09    0.000000e+00
2.314995e-09    7.234030e-09    0.000000e+00
1.410309e-09    9.914117e-09    0.000000e+00
1.560874e-09    1.045133e-08    0.000000e+00
1.734216e-09    9.765358e-09    0.000000e+00
1.065963e-09    1.008789e-08    0.000000e+00
1.293489e-09    9.392405e-09    0.000000e+00
8.129354e-10    1.219525e-08    0.000000e+00
1.031136e-09    1.274574e-08    0.000000e+00
1.204951e-09    1.194843e-08    0.000000e+00
4.110243e-10    1.246976e-08    0.000000e+00
6.204552e-10    1.163555e-08    0.000000e+00
4.513004e-10    1.388126e-08    0.000000e+00
8.647701e-10    1.356762e-08    0.000000e+00
2.149510e-10    1.333426e-08    0.000000e+00
6.262083e-10    1.302607e-08    0.000000e+00
1.008330e-09    1.139493e-08    0.000000e+00
1.382845e-09    1.118148e-08    0.000000e+00
8.400399e-10    1.083883e-08    0.000000e+00
1.208896e-09    1.063193e-08    0.000000e+00
1.958310e-09    8.131682e-09    0.000000e+00
2.041943e-09    8.562406e-09    0.000000e+00
2.160546e-09    8.067930e-09    0.000000e+00
1.727407e-09    8.215011e-09    0.000000e+00
1.917568e-09    7.762524e-09    0.000000e+00
1.607172e-09    9.250570e-09    0.000000e+00
1.896923e-09    9.132045e-09    0.000000e+00
1.516568e-09    8.763325e-09    0.000000e+00
1.792994e-09    8.651585e-09    0.000000e+00
2.099162e-09    7.702261e-09    0.000000e+00
2.255211e-09    7.658208e-09    0.000000e+00
2.081667e-09    7.440249e-09    0.000000e+00
2.218042e-09    7.405611e-09    0.000000e+00
1.099423e-10    6.365937e-09    0.000000e+00
1.291657e-10    6.364108e-09    0.000000e+00
9.719902e-11    6.345920e-09    0.000000e+00
1.096112e-10    6.383786e-09    0.000000e+00
1.241578e-10    6.390661e-09    0.000000e+00
9.707406e-11    6.358495e-09    0.000000e+00
1.145326e-10    6.396969e-09    0.000000e+00
1.246523e-10    6.413543e-09    0.000000e+00
1.019950e-10    6.367318e-09    0.000000e+00
1.303176e-10    6.431122e-09    0.000000e+00
1.116973e-10    6.371222e-09    0.000000e+00
1.680849e-10    6.494042e-09    0.000000e+00
1.439190e-10    6.450118e-09    0.000000e+00
2.278261e-10    6.562536e-09    0.000000e+00
1.934178e-10    6.507313e-09    0.000000e+00
3.126604e-10    6.637455e-09    0.000000e+00
2.658916e-10    6.569381e-09    0.000000e+00
4.258344e-10    6.719184e-09    0.000000e+00
3.644915e-10    6.636929e-09    0.000000e+00
5.701683e-10    6.807419e-09    0.000000e+00
4.922280e-10    6.710197e-09    0.000000e+00
7.473312e-10    6.900895e-09    0.000000e+00
6.513844e-10    6.788900e-09    0.000000e+00
9.569303e-10    6.997081e-09    0.000000e+00
8.427632e-10    6.872020e-09    0.000000e+00
1.195407e-09    7.091846e-09    0.000000e+00
1.064762e-09    6.957570e-09    0.000000e+00
1.454738e-09    7.179128e-09    0.000000e+00
1.312263e-09    7.042337e-09    0.000000e+00
1.721086e-09    7.250508e-09    0.000000e+00
1.575409e-09    7.121611e-09    0.000000e+00
1.972788e-09    7.295067e-09    0.000000e+00
1.838161e-09    7.188957e-09    0.000000e+00
2.179515e-09    7.296623e-09    0.000000e+00
2.076785e-09    7.235534e-09    0.000000e+00
2.281091e-09    7.242230e-09    0.000000e+00
2.255523e-09    7.251124e-09    0.000000e+00
2.305620e-09    7.225995e-09    0.000000e+00
2.247898e-09    7.039526e-09    0.000000e+00
2.344549e-09    7.204230e-09    0.000000e+00
2.079910e-09    6.898088e-09    0.000000e+00
2.197046e-09    7.053233e-09    0.000000e+00
1.862470e-09    6.777559e-09    0.000000e+00
2.000747e-09    6.933818e-09    0.000000e+00
1.623944e-09    6.684389e-09    0.000000e+00
1.765011e-09    6.831212e-09    0.000000e+00
1.381494e-09    6.611965e-09    0.000000e+00
1.516432e-09    6.746703e-09    0.000000e+00
1.148801e-09    6.556586e-09    0.000000e+00
1.271236e-09    6.676961e-09    0.000000e+00
9.346170e-10    6.514192e-09    0.000000e+00
1.041453e-09    6.619568e-09    0.000000e+00
7.442021e-10    6.481419e-09    0.000000e+00
8.343692e-10    6.571992e-09    0.000000e+00
5.800216e-10    6.455407e-09    0.000000e+00
6.539108e-10    6.532004e-09    0.000000e+00
4.425057e-10    6.433861e-09    0.000000e+00
5.014007e-10    6.497663e-09    0.000000e+00
3.306791e-10    6.415017e-09    0.000000e+00
3.763414e-10    6.467367e-09    0.000000e+00
2.427008e-10    6.397602e-09    0.000000e+00
2.770560e-10    6.439847e-09    0.000000e+00
1.763076e-10    6.380783e-09    0.000000e+00
2.012250e-10    6.414166e-09    0.000000e+00
1.463256e-10    6.389681e-09    0.000000e+00
8.358042e-10    6.721567e-09    0.000000e+00
7.402991e-10    6.760124e-09    0.000000e+00
9.445483e-10    6.834165e-09    0.000000e+00
7.389897e-10    6.620981e-09    0.000000e+00
9.366737e-10    6.674799e-09    0.000000e+00
2.683686e-10    6.506237e-09    0.000000e+00
2.267834e-10    6.511527e-09    0.000000e+00
3.123360e-10    6.566409e-09    0.000000e+00
2.316205e-10    6.455836e-09    0.000000e+00
3.182278e-10    6.491620e-09    0.000000e+00
1.423609e-10    6.422124e-09    0.000000e+00
1.652023e-10    6.460804e-09    0.000000e+00
1.678221e-10    6.422396e-09    0.000000e+00
1.943834e-10    6.462721e-09    0.000000e+00
4.935666e-10    6.604491e-09    0.000000e+00
4.248741e-10    6.625983e-09    0.000000e+00
5.670021e-10    6.690561e-09    0.000000e+00
4.303055e-10    6.530465e-09    0.000000e+00
5.701164e-10    6.573245e-09    0.000000e+00
3.671925e-10    6.553287e-09    0.000000e+00
6.495283e-10    6.660430e-09    0.000000e+00
1.805258e-09    7.016846e-09    0.000000e+00
1.693338e-09    7.067084e-09    0.000000e+00
1.947653e-09    7.137794e-09    0.000000e+00
1.659248e-09    6.884126e-09    0.000000e+00
1.908538e-09    6.972831e-09    0.000000e+00
1.290835e-09    6.860059e-09    0.000000e+00
1.176807e-09    6.911527e-09    0.000000e+00
1.430321e-09    6.990173e-09    0.000000e+00
1.160562e-09    6.735872e-09    0.000000e+00
1.404806e-09    6.805317e-09    0.000000e+00
1.051029e-09    6.788146e-09    0.000000e+00
1.546779e-09    6.936724e-09    0.000000e+00
2.241872e-09    7.179335e-09    0.000000e+00
2.167949e-09    7.197069e-09    0.000000e+00
2.311596e-09    7.233871e-09    0.000000e+00
2.129816e-09    7.072055e-09    0.000000e+00
2.300827e-09    7.179271e-09    0.000000e+00
2.045875e-09    7.098564e-09    0.000000e+00
2.351971e-09    7.240521e-09    0.000000e+00
1.618711e-09    5.914432e-09    0.000000e+00
1.522172e-09    6.009048e-09    0.000000e+00
1.654395e-09    5.880097e-09    0.000000e+00
1.633052e-09    5.872656e-09    0.000000e+00
1.560117e-09    5.926480e-09    0.000000e+00
1.675737e-09    5.857241e-09    0.000000e+00
1.630824e-09    5.832667e-09    0.000000e+00
1.577638e-09    5.863090e-09    0.000000e+00
1.670337e-09    5.845225e-09    0.000000e+00
1.582896e-09    5.795660e-09    0.000000e+00
1.650858e-09    5.826575e-09    0.000000e+00
1.444319e-09    5.781997e-09    0.000000e+00
1.514168e-09    5.829311e-09    0.000000e+00
1.259826e-09    5.793755e-09    0.000000e+00
1.339437e-09    5.843472e-09    0.000000e+00
1.059570e-09    5.825368e-09    0.000000e+00
1.138226e-09    5.872098e-09    0.000000e+00
8.644584e-10    5.869727e-09    0.000000e+00
9.363297e-10    5.909851e-09    0.000000e+00
6.867936e-10    5.921615e-09    0.000000e+00
7.489356e-10    5.953397e-09    0.000000e+00
5.328659e-10    5.977321e-09    0.000000e+00
5.841072e-10    6.000267e-09    0.000000e+00
4.048898e-10    6.034329e-09    0.000000e+00
4.452680e-10    6.048714e-09    0.000000e+00
3.025096e-10    6.091157e-09    0.000000e+00
3.327427e-10    6.097619e-09    0.000000e+00
2.240004e-10    6.147164e-09    0.000000e+00
2.450821e-10    6.146411e-09    0.000000e+00
1.671959e-10    6.202398e-09    0.000000e+00
1.800954e-10    6.194982e-09    0.000000e+00
1.301743e-10    6.257445e-09    0.000000e+00
1.356251e-10    6.243611e-09    0.000000e+00
1.117358e-10    6.313296e-09    0.000000e+00
1.100998e-10    6.292895e-09    0.000000e+00
1.028970e-10    6.343675e-09    0.000000e+00
8.303427e-11    6.326415e-09    0.000000e+00
8.826751e-11    6.339455e-09    0.000000e+00
8.842992e-11    6.307624e-09    0.000000e+00
8.648064e-11    6.313941e-09    0.000000e+00
1.127750e-10    6.290231e-09    0.000000e+00
1.035111e-10    6.289658e-09    0.000000e+00
1.566206e-10    6.274900e-09    0.000000e+00
1.394898e-10    6.266949e-09    0.000000e+00
2.214982e-10    6.262067e-09    0.000000e+00
1.956304e-10    6.246097e-09    0.000000e+00
3.095652e-10    6.251706e-09    0.000000e+00
2.739460e-10    6.227147e-09    0.000000e+00
4.230527e-10    6.243049e-09    0.000000e+00
3.767806e-10    6.209726e-09    0.000000e+00
5.634869e-10    6.234272e-09    0.000000e+00
5.061294e-10    6.192807e-09    0.000000e+00
7.306419e-10    6.222147e-09    0.000000e+00
6.627058e-10    6.174469e-09    0.000000e+00
9.212253e-10    6.201646e-09    0.000000e+00
8.447407e-10    6.151605e-09    0.000000e+00
1.127174e-09    6.165726e-09    0.000000e+00
1.046457e-09    6.119703e-09    0.000000e+00
1.334581e-09    6.104732e-09    0.000000e+00
1.256461e-09    6.072634e-09    0.000000e+00
1.456762e-09    6.003993e-09    0.000000e+00
4.084577e-10    6.131320e-09    0.000000e+00
4.911657e-10    6.070177e-09    0.000000e+00
3.679624e-10    6.111001e-09    0.000000e+00
4.544757e-10    6.158566e-09    0.000000e+00
3.361253e-10    6.183631e-09    0.000000e+00
1.093262e-09    5.994819e-09    0.000000e+00
1.219955e-09    5.916363e-09    0.000000e+00
1.013110e-09    5.952267e-09    0.000000e+00
1.175148e-09    6.035633e-09    0.000000e+00
9.667221e-10    6.074663e-09    0.000000e+00
1.492292e-09    5.913559e-09    0.000000e+00
1.417836e-09    5.885525e-09    0.000000e+00
1.381625e-09    5.986278e-09    0.000000e+00
1.301806e-09    5.954868e-09    0.000000e+00
7.039251e-10    6.065366e-09    0.000000e+00
8.167794e-10    5.990381e-09    0.000000e+00
6.411845e-10    6.029850e-09    0.000000e+00
7.720159e-10    6.106114e-09    0.000000e+00
5.999637e-10    6.133263e-09    0.000000e+00
8.896612e-10    6.031238e-09    0.000000e+00
5.427155e-10    6.098453e-09    0.000000e+00
1.575289e-10    6.232907e-09    0.000000e+00
1.969179e-10    6.193532e-09    0.000000e+00
1.446753e-10    6.235359e-09    0.000000e+00
1.744160e-10    6.236436e-09    0.000000e+00
1.264907e-10    6.264853e-09    0.000000e+00
3.008169e-10    6.164488e-09    0.000000e+00
2.705768e-10    6.152128e-09    0.000000e+00
2.435251e-10    6.209423e-09    0.000000e+00
2.179587e-10    6.198281e-09    0.000000e+00
9.607869e-11    6.305361e-09    0.000000e+00
1.119545e-10    6.277922e-09    0.000000e+00
9.770904e-11    6.321700e-09    0.000000e+00
9.798593e-11    6.294686e-09    0.000000e+00
8.807286e-11    6.325898e-09    0.000000e+00
1.173802e-10    6.268536e-09    0.000000e+00
9.322569e-11    6.343651e-09    0.000000e+00
-1.346728e-12    -2.099275e-11    0.000000e+00
-7.329855e-15    -2.272114e-11    0.000000e+00
-3.536941e-14    -1.815483e-11    0.000000e+00
-4.319262e-12    -2.392055e-11    0.000000e+00
-2.226345e-12    -2.435236e-11    0.000000e+00
-3.139007e-12    -1.950777e-11    0.000000e+00
-8.201209e-12    -2.941737e-11    0.000000e+00
-4.700462e-12    -2.896503e-11    0.000000e+00
-7.102779e-12    -2.316288e-11    0.000000e+00
-1.377825e-11    -3.668916e-11    0.000000e+00
-7.739772e-12    -3.611261e-11    0.000000e+00
-1.286769e-11    -2.871406e-11    0.000000e+00
-2.213291e-11    -4.361290e-11    0.000000e+00
-1.179064e-11    -4.445205e-11    0.000000e+00
-2.164848e-11    -3.493799e-11    0.000000e+00
-3.517761e-11    -4.535638e-11    0.000000e+00
-1.773005e-11    -5.081912e-11    0.000000e+00
-3.513679e-11    -3.876268e-11    0.000000e+00
-5.612646e-11    -3.200525e-11    0.000000e+00
-2.748274e-11    -4.831982e-11    0.000000e+00
-5.566072e-11    -3.388962e-11    0.000000e+00
-9.329944e-11    1.476022e-11    0.000000e+00
-4.621392e-11    -2.400148e-11    0.000000e+00
-8.745721e-11    -7.020303e-12    0.000000e+00
-1.539357e-10    1.260645e-10    0.000000e+00
-8.276385e-11    4.835130e-11    0.000000e+00
-1.342897e-10    6.064515e-11    0.000000e+00
-2.783770e-10    3.453726e-10    0.000000e+00
-1.600141e-10    2.128903e-10    0.000000e+00
-2.083968e-10    2.049549e-10    0.000000e+00
-2.767842e-10    5.728612e-10    0.000000e+00
-6.049378e-10    1.087893e-09    0.000000e+00
-2.456417e-10    4.090744e-10    0.000000e+00
2.967309e-11    6.215062e-10    0.000000e+00
-1.098446e-10    3.511861e-10    0.000000e+00
-1.486610e-10    9.941657e-10    0.000000e+00
3.972703e-10    6.584578e-10    0.000000e+00
1.779263e-10    3.764909e-10    0.000000e+00
2.502984e-10    9.832230e-10    0.000000e+00
4.816874e-10    4.306380e-10    0.000000e+00
7.135551e-10    1.001221e-09    0.000000e+00
2.786742e-10    1.361714e-10    0.000000e+00
2.638555e-10    2.226717e-10    0.000000e+00
1.521007e-10    1.531568e-11    0.000000e+00
1.571778e-10    4.375964e-11    0.000000e+00
7.904304e-11    -3.232371e-11    0.000000e+00
8.853518e-11    -2.551802e-11    0.000000e+00
3.695481e-11    -4.743914e-11    0.000000e+00
4.610494e-11    -4.929859e-11    0.000000e+00
1.364865e-11    -4.773808e-11    0.000000e+00
2.093710e-11    -5.249464e-11    0.000000e+00
1.994942e-12    -4.231318e-11    0.000000e+00
7.026747e-12    -4.721429e-11    0.000000e+00
-2.522453e-12    -3.585491e-11    0.000000e+00
3.797170e-13    -3.962869e-11    0.000000e+00
-2.906548e-12    -3.071997e-11    0.000000e+00
-1.796499e-12    -3.289759e-11    0.000000e+00
-1.186744e-12    -2.796195e-11    0.000000e+00
-1.451484e-12    -2.848212e-11    0.000000e+00
5.466051e-14    -2.698363e-11    0.000000e+00
2.761844e-14    -2.554752e-11    0.000000e+00
-6.512831e-13    -2.675889e-11    0.000000e+00
-8.617992e-13    -2.479960e-11    0.000000e+00
4.561349e-12    -5.567204e-11    0.000000e+00
2.152580e-11    -5.591172e-11    0.000000e+00
8.600840e-12    -5.222429e-11    0.000000e+00
-7.083624e-12    -5.532888e-11    0.000000e+00
-6.095751e-12    -5.124734e-11    0.000000e+00
2.894649e-11    3.143469e-11    0.000000e+00
1.177204e-10    9.886198e-11    0.000000e+00
7.471122e-11    -8.001392e-12    0.000000e+00
-5.031196e-11    1.018400e-10    0.000000e+00
-2.088052e-11    -4.982481e-12    0.000000e+00
2.759278e-11    1.975087e-10    0.000000e+00
2.179616e-11    -3.439163e-11    0.000000e+00
4.282549e-11    -4.677638e-11    0.000000e+00
-1.007567e-11    -4.595665e-11    0.000000e+00
1.212455e-11    -5.497154e-11    0.000000e+00
-1.949178e-12    -3.957706e-11    0.000000e+00
1.712483e-12    -4.415236e-11    0.000000e+00
-1.146003e-12    -3.603513e-11    0.000000e+00
-5.218094e-12    -4.272564e-11    0.000000e+00
-4.013418e-12    -3.431245e-11    0.000000e+00
2.883697e-14    -4.845925e-11    0.000000e+00
-2.156159e-12    -3.205059e-11    0.000000e+00
-1.544229e-12    -2.994769e-11    0.000000e+00
-2.519541e-12    -2.806765e-11    0.000000e+00
-1.314501e-12    -2.721339e-11    0.000000e+00
-7.213508e-10    2.117628e-09    0.000000e+00
-4.352080e-10    1.523509e-09    0.000000e+00
-5.484854e-10    3.150803e-09    0.000000e+00
-3.851121e-10    2.555791e-09    0.000000e+00
-1.883034e-10    4.078070e-09    0.000000e+00
-1.264680e-10    3.532531e-09    0.000000e+00
2.693100e-10    4.810077e-09    0.000000e+00
2.540340e-10    4.361488e-09    0.000000e+00
7.349758e-10    5.326550e-09    0.000000e+00
6.762410e-10    4.991411e-09    0.000000e+00
1.140752e-09    5.643631e-09    0.000000e+00
1.069734e-09    5.421468e-09    0.000000e+00
1.439878e-09    5.799411e-09    0.000000e+00
1.382963e-09    5.677026e-09    0.000000e+00
1.610226e-09    5.843431e-09    0.000000e+00
1.584635e-09    5.799388e-09    0.000000e+00
1.665060e-09    5.836343e-09    0.000000e+00
1.720689e-09    5.712321e-09    0.000000e+00
1.704435e-09    5.806217e-09    0.000000e+00
1.725090e-09    5.474962e-09    0.000000e+00
1.718323e-09    5.643777e-09    0.000000e+00
1.667786e-09    5.142694e-09    0.000000e+00
1.655206e-09    5.399186e-09    0.000000e+00
1.557107e-09    4.692918e-09    0.000000e+00
1.520186e-09    5.042316e-09    0.000000e+00
1.408877e-09    4.114389e-09    0.000000e+00
1.328692e-09    4.548590e-09    0.000000e+00
1.242996e-09    3.413608e-09    0.000000e+00
1.106558e-09    3.909451e-09    0.000000e+00
1.075531e-09    2.616132e-09    0.000000e+00
8.839794e-10    3.135795e-09    0.000000e+00
9.075043e-10    1.776741e-09    0.000000e+00
6.875709e-10    2.266352e-09    0.000000e+00
5.293465e-10    1.382997e-09    0.000000e+00
1.014280e-09    4.773456e-09    0.000000e+00
6.733418e-10    4.582011e-09    0.000000e+00
1.035203e-09    5.121886e-09    0.000000e+00
1.047484e-09    4.357866e-09    0.000000e+00
1.308724e-09    4.915129e-09    0.000000e+00
1.581286e-10    2.399847e-09    0.000000e+00
-1.551093e-10    1.968051e-09    0.000000e+00
1.251014e-11    2.957674e-09    0.000000e+00
3.548020e-10    1.858371e-09    0.000000e+00
5.307442e-10    2.786845e-09    0.000000e+00
5.245564e-11    1.434996e-09    0.000000e+00
3.857645e-10    3.330470e-09    0.000000e+00
3.102262e-10    3.852900e-09    0.000000e+00
7.741303e-10    3.640713e-09    0.000000e+00
6.898743e-10    4.136615e-09    0.000000e+00
1.532154e-09    5.540534e-09    0.000000e+00
1.342743e-09    5.482690e-09    0.000000e+00
1.560058e-09    5.695699e-09    0.000000e+00
1.521308e-09    5.316955e-09    0.000000e+00
1.659669e-09    5.585963e-09    0.000000e+00
1.307935e-09    5.235244e-09    0.000000e+00
1.663913e-09    5.722837e-09    0.000000e+00
1.669666e-09    5.802302e-09    0.000000e+00
1.711244e-09    5.754645e-09    0.000000e+00
1.695594e-09    5.821331e-09    0.000000e+00
0.000000e+00    0.000000e+00    0.000000e+00
-1.072607e-14    -1.805647e-12    0.000000e+00
0.000000e+00    0.000000e+00    0.000000e+00
-9.195683e-13    -1.885349e-12    0.000000e+00
0.000000e+00    0.000000e+00    0.000000e+00
-2.188953e-12    -2.027517e-12    0.000000e+00
0.000000e+00    0.000000e+00    0.000000e+00
-4.199704e-12    -2.152957e-12    0.000000e+00
0.000000e+00    0.000000e+00    0.000000e+00
-7.414804e-12    -2.065381e-12    0.000000e+00
0.000000e+00    0.000000e+00    0.000000e+00
-1.233714e-11    -1.390412e-12    0.000000e+00
0.000000e+00    0.000000e+00    0.000000e+00
-1.929569e-11    5.387792e-13    0.000000e+00
0.000000e+00    0.000000e+00    0.000000e+00
-2.787951e-11    4.738191e-12    0.000000e+00
0.000000e+00    0.000000e+00    0.000000e+00
-3.568919e-11    1.244597e-11    0.000000e+00
0.000000e+00    0.000000e+00    0.000000e+00
-3.711952e-11    2.409741e-11    0.000000e+00
-1.682750e-11    3.941758e-11    0.000000e+00
-7.254332e-11    1.286174e-10    0.000000e+00
-5.929581e-11    6.863410e-11    0.000000e+00
-1.320151e-10    2.276652e-10    0.000000e+00
-1.173616e-10    1.502098e-10    0.000000e+00
-2.001168e-10    2.555057e-10    0.000000e+00
-4.475760e-14    -1.249614e-11    0.000000e+00
-1.604058e-12    -1.574599e-11    0.000000e+00
-3.384182e-14    -6.659497e-12    0.000000e+00
-1.446820e-12    -9.726984e-12    0.000000e+00
-8.495002e-13    -4.132773e-12    0.000000e+00
-4.000852e-11    -2.367680e-11    0.000000e+00
-4.944246e-11    -3.010394e-11    0.000000e+00
-3.086476e-11    -3.064279e-11    0.000000e+00
-3.169689e-11    -9.967690e-12    0.000000e+00
-4.695071e-11    -1.480150e-11    0.000000e+00
-2.944954e-11    -1.670165e-11    0.000000e+00
-2.911298e-11    -3.577712e-12    0.000000e+00
-1.817274e-11    -5.441711e-12    0.000000e+00
-1.263361e-10    5.426979e-11    0.000000e+00
-1.584386e-10    1.112117e-10    0.000000e+00
-1.138316e-10    2.371067e-11    0.000000e+00
-9.044431e-11    3.594522e-11    0.000000e+00
-1.205093e-10    7.614197e-11    0.000000e+00
-9.815572e-11    2.287169e-11    0.000000e+00
-6.874868e-11    3.711996e-11    0.000000e+00
-5.934866e-11    1.450554e-11    0.000000e+00
-1.525295e-10    1.430462e-10    0.000000e+00
-9.654396e-11    8.290083e-11    0.000000e+00
-7.042602e-11    -4.507005e-12    0.000000e+00
-6.227825e-11    -1.805242e-11    0.000000e+00
-4.900644e-11    -5.430804e-12    0.000000e+00
-9.219444e-11    3.426174e-12    0.000000e+00
-7.041353e-11    7.601929e-12    0.000000e+00
-7.622565e-11    -1.687587e-11    0.000000e+00
-4.355497e-11    2.018742e-12    0.000000e+00
-1.425610e-11    -1.898061e-11    0.000000e+00
-1.854677e-11    -2.648247e-11    0.000000e+00
-1.053733e-11    -2.162730e-11    0.000000e+00
-1.112662e-11    -9.359282e-12    0.000000e+00
-1.754833e-11    -1.518268e-11    0.000000e+00
-9.815051e-12    -1.284015e-11    0.000000e+00
-1.070844e-11    -5.557080e-12    0.000000e+00
-5.907764e-12    -5.053356e-12    0.000000e+00
-2.448259e-11    -2.241025e-11    0.000000e+00
-1.932225e-11    -1.042593e-11    0.000000e+00
-4.857902e-12    -1.086362e-11    0.000000e+00
-3.310079e-12    -1.338981e-11    0.000000e+00
-2.514445e-12    -7.082063e-12    0.000000e+00
-7.665926e-12    -1.565572e-11    0.000000e+00
-5.900114e-12    -8.050064e-12    0.000000e+00
-5.306582e-12    -1.782804e-11    0.000000e+00
-2.883337e-12    -4.494727e-12    0.000000e+00

CELL_DATA      259
TENSORS Element_Stress2.800000e+00 double
-3.368834e+02 -1.457867e+02        0
-1.457867e+02 -6.636817e+01        0
       0        0 6.084103e+01

-3.289357e+02 -1.223083e+02        0
-1.223083e+02 -6.291723e+01        0
       0        0 -1.530207e+02

-3.066889e+02 -1.450575e+02        0
-1.450575e+02 -7.125415e+01        0
       0        0 1.151636e+02

-2.663438e+02 -1.101803e+02        0
-1.101803e+02 -6.219164e+01        0
       0        0 -6.611860e+01

-3.666565e+02 -1.354720e+02        0
-1.354720e+02 -5.003162e+01        0
       0        0 2.859833e+02

-3.693827e+02 -1.447641e+02        0
-1.447641e+02 -5.680094e+01        0
       0        0 3.091869e+02

-3.896427e+02 -1.319831e+02        0
-1.319831e+02 -6.287502e+01        0
       0        0 -2.415276e+02

-3.665670e+02 -1.466036e+02        0
-1.466036e+02 -6.186994e+01        0
       0        0 6.014389e+00

-3.653541e+02 -1.273884e+02        0
-1.273884e+02 -4.429815e+01        0
       0        0 2.620874e+02

-7.019035e+02 -2.225283e+02        0
-2.225283e+02 -9.831286e+01        0
       0        0 -6.360705e+02

3.042457e+02 -1.025383e+02        0
-1.025383e+02 -1.657666e+01        0
       0        0 4.110623e+02

-7.201130e+02 -2.213942e+02        0
-2.213942e+02 -4.173908e+02        0
       0        0 -6.540045e+02

4.866236e+02 -8.086086e+01        0
-8.086086e+01 -6.600027e+01        0
       0        0 5.070258e+02

-1.644814e+03 -1.695267e+02        0
-1.695267e+02 -1.965359e+02        0
       0        0 -1.674085e+03

-2.071794e+03 -4.857057e+02        0
-4.857057e+02 -1.092051e+03        0
       0        0 -1.964227e+03

1.322316e+02 -8.930612e+01        0
-8.930612e+01 -9.948165e+00        0
       0        0 3.123709e+02

-6.611982e+02 -2.031241e+02        0
-2.031241e+02 -4.963811e+01        0
       0        0 -6.077571e+02

-1.429935e+03 -1.661727e+02        0
-1.661727e+02 -1.023966e+02        0
       0        0 -1.502596e+03

-6.054843e+02 -1.816341e+02        0
-1.816341e+02 -4.201986e+01        0
       0        0 -5.128827e+02

-1.107725e+02 -7.901196e+01        0
-7.901196e+01 -1.355179e+01        0
       0        0 1.921656e+02

-6.313592e+02 -1.908413e+02        0
-1.908413e+02 -4.265801e+01        0
       0        0 -5.649763e+02

-4.323191e+00 -8.065506e+01        0
-8.065506e+01 -1.114612e+01        0
       0        0 2.399428e+02

-1.107329e+03 -1.738820e+02        0
-1.738820e+02 -6.737527e+01        0
       0        0 -1.198262e+03

-1.256505e+03 -1.717801e+02        0
-1.717801e+02 -7.802921e+01        0
       0        0 -1.347406e+03

-1.929788e+02 -8.124445e+01        0
-8.124445e+01 -1.622372e+01        0
       0        0 1.642141e+02

-5.790532e+02 -1.740298e+02        0
-1.740298e+02 -4.304706e+01        0
       0        0 -4.541628e+02

-9.774970e+02 -1.733216e+02        0
-1.733216e+02 -6.275159e+01        0
       0        0 -1.055790e+03

-5.225933e+02 -1.621905e+02        0
-1.621905e+02 -4.683542e+01        0
       0        0 -3.249799e+02

-2.988371e+02 -9.157880e+01        0
-9.157880e+01 -2.236542e+01        0
       0        0 1.532621e+02

-5.514216e+02 -1.676217e+02        0
-1.676217e+02 -4.479907e+01        0
       0        0 -3.910072e+02

-2.545714e+02 -8.575410e+01        0
-8.575410e+01 -1.917026e+01        0
       0        0 1.522843e+02

-7.639778e+02 -1.667068e+02        0
-1.667068e+02 -5.994742e+01        0
       0        0 -7.911954e+02

-8.639369e+02 -1.707504e+02        0
-1.707504e+02 -6.067776e+01        0
       0        0 -9.200921e+02

-3.288848e+02 -9.810235e+01        0
-9.810235e+01 -2.583732e+01        0
       0        0 1.644545e+02

-4.926731e+02 -1.576235e+02        0
-1.576235e+02 -4.904021e+01        0
       0        0 -2.573033e+02

-6.752065e+02 -1.615786e+02        0
-1.615786e+02 -5.989151e+01        0
       0        0 -6.688692e+02

-4.300696e+02 -1.507419e+02        0
-1.507419e+02 -5.413541e+01        0
       0        0 -1.206753e+02

-3.582051e+02 -1.120864e+02        0
-1.120864e+02 -3.386789e+01        0
       0        0 2.081374e+02

-4.617779e+02 -1.538309e+02        0
-1.538309e+02 -5.144083e+01        0
       0        0 -1.889327e+02

-3.477174e+02 -1.049783e+02        0
-1.049783e+02 -2.963985e+01        0
       0        0 1.834711e+02

-5.219603e+02 -1.487278e+02        0
-1.487278e+02 -6.062076e+01        0
       0        0 -4.421353e+02

-5.952939e+02 -1.555777e+02        0
-1.555777e+02 -6.017790e+01        0
       0        0 -5.526990e+02

-3.631452e+02 -1.195804e+02        0
-1.195804e+02 -3.868087e+01        0
       0        0 2.361529e+02

-3.976871e+02 -1.482512e+02        0
-1.482512e+02 -5.746402e+01        0
       0        0 -5.378505e+01

-4.530761e+02 -1.408338e+02        0
-1.408338e+02 -6.104280e+01        0
       0        0 -3.367987e+02

-3.745560e+02 -1.557217e+02        0
-1.557217e+02 -6.488529e+01        0
       0        0 3.300646e+02

-2.761136e+02 -1.442571e+02        0
-1.442571e+02 -7.684322e+01        0
       0        0 1.673542e+02

-2.009558e+02 -9.509544e+01        0
-9.509544e+01 -6.044852e+01        0
       0        0 1.890145e+01

-3.955681e+02 -1.844079e+02        0
-1.844079e+02 -8.634167e+01        0
       0        0 3.604058e+02

-3.830190e+02 -1.687857e+02        0
-1.687857e+02 -7.461523e+01        0
       0        0 3.475151e+02

-5.855289e+01 -5.358598e+01        0
-5.358598e+01 -5.221370e+01        0
       0        0 1.836000e+02

-2.142758e+02 -1.421182e+02        0
-1.421182e+02 -9.032094e+01        0
       0        0 2.628278e+02

-1.319149e+02 -7.644787e+01        0
-7.644787e+01 -5.726560e+01        0
       0        0 1.021598e+02

-2.452765e+02 -1.433031e+02        0
-1.433031e+02 -8.319084e+01        0
       0        0 2.167932e+02

-4.128503e+02 -2.031583e+02        0
-2.031583e+02 -1.004849e+02        0
       0        0 3.675437e+02

-1.833251e+02 -1.406310e+02        0
-1.406310e+02 -9.816408e+01        0
       0        0 3.046712e+02

1.980343e+01 -2.596171e+01        0
-2.596171e+01 -4.455127e+01        0
       0        0 2.630882e+02

-4.635441e+02 -2.517527e+02        0
-2.517527e+02 -1.373545e+02        0
       0        0 3.595907e+02

-4.357148e+02 -2.250476e+02        0
-2.250476e+02 -1.169994e+02        0
       0        0 3.677069e+02

1.943002e+02 4.648915e+01        0
4.648915e+01 -1.958608e+01        0
       0        0 4.143193e+02

-1.249469e+02 -1.370213e+02        0
-1.370213e+02 -1.160353e+02        0
       0        0 3.709384e+02

1.038155e+02 7.010508e+00        0
7.010508e+00 -3.438634e+01        0
       0        0 3.400368e+02

-1.526944e+02 -1.391861e+02        0
-1.391861e+02 -1.065817e+02        0
       0        0 3.413889e+02

-5.000282e+02 -2.772147e+02        0
-2.772147e+02 -1.581082e+02        0
       0        0 3.420819e+02

-1.006505e+02 -1.321499e+02        0
-1.321499e+02 -1.416184e+02        0
       0        0 3.877414e+02

2.697725e+02 9.927682e+01        0
9.927682e+01 -1.909409e+00        0
       0        0 4.775372e+02

-5.438857e+02 -3.006263e+02        0
-3.006263e+02 -5.515569e+02        0
       0        0 1.919279e+02

-5.406518e+02 -3.281938e+02        0
-3.281938e+02 -2.511151e+02        0
       0        0 2.949309e+02

6.197297e+01 1.843620e+02        0
1.843620e+02 1.619629e+02        0
       0        0 5.068294e+02

-1.678454e+02 6.724179e+01        0
6.724179e+01 -1.382016e+02        0
       0        0 3.861341e+02

2.229885e+02 1.704885e+02        0
1.704885e+02 4.069189e+01        0
       0        0 5.014882e+02

-9.212601e+01 -4.905147e+01        0
-4.905147e+01 -1.837780e+02        0
       0        0 3.889879e+02

7.639246e+00 -1.309312e+01        0
-1.309312e+01 -3.764674e+02        0
       0        0 3.434495e+02

6.256192e+00 -4.821523e+01        0
-4.821523e+01 1.149220e+01        0
       0        0 4.022699e+02

8.443776e+00 -7.645055e+01        0
-7.645055e+01 1.443049e+02        0
       0        0 4.838184e+02

7.626946e+00 -2.626740e+01        0
-2.626740e+01 -1.606927e+02        0
       0        0 2.537897e+02

5.368451e+00 -8.197034e+00        0
-8.197034e+00 -1.335102e+02        0
       0        0 2.665190e+02

1.102956e+01 -4.467196e+01        0
-4.467196e+01 -1.627155e+02        0
       0        0 3.071917e+02

6.648242e+00 -1.156257e+01        0
-1.156257e+01 -1.918654e+02        0
       0        0 3.020382e+02

1.608464e+00 -7.838363e+00        0
-7.838363e+00 -1.601853e+02        0
       0        0 2.473828e+02

3.834523e+00 -2.574574e+01        0
-2.574574e+01 -8.866820e+01        0
       0        0 3.219286e+02

2.831553e+00 5.974565e-01        0
5.974565e-01 -1.584451e+02        0
       0        0 1.541433e+02

2.783795e+00 -6.407000e-01        0
-6.407000e-01 -6.999868e+01        0
       0        0 1.866548e+02

5.012899e+00 -1.125614e+01        0
-1.125614e+01 -1.593436e+02        0
       0        0 2.020005e+02

4.000950e+00 -4.341030e+00        0
-4.341030e+00 -9.400395e+01        0
       0        0 2.269896e+02

-1.148298e+00 1.525301e+01        0
1.525301e+01 -2.383203e+02        0
       0        0 1.244809e+02

1.376609e-02 5.540441e+00        0
5.540441e+00 -2.085750e+02        0
       0        0 1.811477e+02

-2.016010e-01 1.588994e+01        0
1.588994e+01 -1.578933e+02        0
       0        0 7.517261e+01

7.819987e-01 5.750415e+00        0
5.750415e+00 -5.490185e+01        0
       0        0 1.121385e+02

1.105639e+00 9.530464e+00        0
9.530464e+00 -1.579776e+02        0
       0        0 1.116405e+02

1.698820e+00 2.773622e+00        0
2.773622e+00 -5.799285e+01        0
       0        0 1.478450e+02

-2.448060e+00 2.589206e+01        0
2.589206e+01 -2.588811e+02        0
       0        0 4.018939e+01

-1.951475e+00 2.183757e+01        0
2.183757e+01 -2.537969e+02        0
       0        0 7.763472e+01

-1.726358e+00 2.239072e+01        0
2.239072e+01 -1.586572e+02        0
       0        0 2.055506e+01

-5.318691e-01 1.011956e+01        0
1.011956e+01 -6.500820e+01        0
       0        0 5.348996e+01

-1.129412e+00 2.004955e+01        0
2.004955e+01 -1.581385e+02        0
       0        0 4.488475e+01

3.874337e-02 8.212171e+00        0
8.212171e+00 -5.800833e+01        0
       0        0 8.051364e+01

-2.772526e+00 2.859568e+01        0
2.859568e+01 -2.508406e+02        0
       0        0 -1.024236e+01

-2.703322e+00 2.797509e+01        0
2.797509e+01 -2.569539e+02        0
       0        0 1.126723e+01

-2.128051e+00 2.305331e+01        0
2.305331e+01 -1.602816e+02        0
       0        0 -1.208934e+01

-1.193382e+00 1.227360e+01        0
1.227360e+01 -8.346558e+01        0
       0        0 1.378478e+01

-2.042647e+00 2.327940e+01        0
2.327940e+01 -1.593944e+02        0
       0        0 1.742098e+00

-9.380884e-01 1.146736e+01        0
1.146736e+01 -7.400203e+01        0
       0        0 3.125595e+01

-2.547289e+00 2.716166e+01        0
2.716166e+01 -2.346535e+02        0
       0        0 -3.568757e+01

-2.705354e+00 2.819862e+01        0
2.819862e+01 -2.428205e+02        0
       0        0 -2.551992e+01

-1.308797e+00 1.255722e+01        0
1.255722e+01 -9.210310e+01        0
       0        0 9.647541e-01

-2.030246e+00 2.199636e+01        0
2.199636e+01 -1.609984e+02        0
       0        0 -2.139997e+01

-2.332074e+00 2.579241e+01        0
2.579241e+01 -2.275084e+02        0
       0        0 -4.167696e+01

1.760420e+01 -9.176035e+01        0
-9.176035e+01 -1.759408e+02        0
       0        0 4.003546e+02

8.593329e+00 -1.497811e+01        0
-1.497811e+01 -2.737288e+02        0
       0        0 3.292592e+02

1.448145e+01 -6.576857e+01        0
-6.576857e+01 -1.654256e+02        0
       0        0 3.584352e+02

-4.786412e+01 8.006249e+01        0
8.006249e+01 2.828086e+02        0
       0        0 5.268553e+02

-2.905028e+01 -5.676200e+01        0
-5.676200e+01 2.694192e+02        0
       0        0 5.324132e+02

-2.321365e+02 -1.570381e+02        0
-1.570381e+02 -7.033076e+02        0
       0        0 2.294040e+02

-2.112139e+02 -2.446729e+01        0
-2.446729e+01 -6.876189e+01        0
       0        0 4.022497e+02

-8.121031e+00 -2.996574e+01        0
-2.996574e+01 -5.338557e+02        0
       0        0 3.264450e+02

-4.905413e+01 -1.075992e+02        0
-1.075992e+02 -1.522872e+02        0
       0        0 4.184012e+02

-2.064853e+01 1.936431e+01        0
1.936431e+01 3.168600e+01        0
       0        0 3.679792e+02

-5.386067e+01 9.242058e+01        0
9.242058e+01 -1.549859e+02        0
       0        0 3.127323e+02

-4.296088e+01 1.134473e+02        0
1.134473e+02 -3.773761e+02        0
       0        0 2.566438e+02

-1.371465e+01 3.620231e+01        0
3.620231e+01 -4.441308e+01        0
       0        0 3.099877e+02

-2.593538e+01 8.185721e+01        0
8.185721e+01 -1.660871e+02        0
       0        0 2.745241e+02

-1.466794e+01 6.790306e+01        0
6.790306e+01 -2.826337e+02        0
       0        0 2.451734e+02

-8.795818e+00 3.822792e+01        0
3.822792e+01 -1.202525e+02        0
       0        0 2.433590e+02

-1.199955e+01 6.420665e+01        0
6.420665e+01 -1.684183e+02        0
       0        0 2.282931e+02

-5.219433e+00 4.474162e+01        0
4.474162e+01 -2.023761e+02        0
       0        0 2.193996e+02

-4.853786e+00 3.124139e+01        0
3.124139e+01 -2.124384e+02        0
       0        0 1.240902e+02

-6.498455e+00 3.490701e+01        0
3.490701e+01 -1.771804e+02        0
       0        0 1.794499e+02

-1.381455e+00 2.064116e+01        0
2.064116e+01 -1.190768e+02        0
       0        0 1.456545e+02

-4.375962e+00 3.440770e+01        0
3.440770e+01 -1.685235e+02        0
       0        0 1.334556e+02

-2.816289e+00 3.052113e+01        0
3.052113e+01 -1.503342e+02        0
       0        0 1.837353e+02

-7.211361e+00 4.736402e+01        0
4.736402e+01 -1.684663e+02        0
       0        0 1.794781e+02

-2.692891e+00 2.522607e+01        0
2.522607e+01 -2.385419e+02        0
       0        0 4.174038e+01

-3.605533e+00 2.795296e+01        0
2.795296e+01 -2.312434e+02        0
       0        0 7.828550e+01

-1.520100e-01 1.045641e+01        0
1.045641e+01 -9.699637e+01        0
       0        0 7.585245e+01

-1.182314e+00 1.892871e+01        0
1.892871e+01 -1.683592e+02        0
       0        0 5.827103e+01

-5.524273e-01 1.419780e+01        0
1.419780e+01 -1.028984e+02        0
       0        0 1.089407e+02

-2.413106e+00 2.510877e+01        0
2.510877e+01 -1.685408e+02        0
       0        0 9.271533e+01

-2.078629e+00 2.316971e+01        0
2.316971e+01 -2.384638e+02        0
       0        0 1.352154e+01

-5.257396e-01 1.530412e+01        0
1.530412e+01 -1.679655e+02        0
       0        0 3.028103e+01

-6.548636e-02 8.705043e+00        0
8.705043e+00 -9.733682e+01        0
       0        0 4.761751e+01

-1.551947e+00 2.118453e+01        0
2.118453e+01 -2.287980e+02        0
       0        0 -2.290297e+01

-1.714119e+00 2.182488e+01        0
2.182488e+01 -2.343497e+02        0
       0        0 -7.601571e+00

-4.182643e-01 8.822368e+00        0
8.822368e+00 -1.046935e+02        0
       0        0 7.447293e+00

-3.772231e-01 1.359919e+01        0
1.359919e+01 -1.665550e+02        0
       0        0 -7.889864e+00

-1.833257e-01 8.331150e+00        0
8.331150e+00 -1.007178e+02        0
       0        0 2.477329e+01

-2.999905e-01 1.369243e+01        0
1.369243e+01 -1.673592e+02        0
       0        0 8.413195e+00

-1.660746e+00 2.180573e+01        0
2.180573e+01 -2.205083e+02        0
       0        0 -4.032868e+01

-1.547665e+00 2.120358e+01        0
2.120358e+01 -2.237381e+02        0
       0        0 -3.351936e+01

-9.713137e-01 1.083269e+01        0
1.083269e+01 -1.079486e+02        0
       0        0 -1.094154e+01

-1.025988e+00 1.626503e+01        0
1.626503e+01 -1.644509e+02        0
       0        0 -2.602545e+01

-6.998577e-01 9.765232e+00        0
9.765232e+00 -1.074951e+02        0
       0        0 -4.424879e+00

-6.495802e-01 1.458585e+01        0
1.458585e+01 -1.655757e+02        0
       0        0 -1.921228e+01

-2.091054e+00 2.429086e+01        0
2.429086e+01 -2.223217e+02        0
       0        0 -4.432346e+01

-1.854403e+00 2.288276e+01        0
2.288276e+01 -2.199236e+02        0
       0        0 -4.387436e+01

-1.306454e+00 1.238101e+01        0
1.238101e+01 -9.973548e+01        0
       0        0 -7.909487e+00

-1.785531e+00 2.032151e+01        0
2.032151e+01 -1.619214e+02        0
       0        0 -2.694916e+01

-1.187837e+00 1.176991e+01        0
1.176991e+01 -1.054120e+02        0
       0        0 -1.213346e+01

-1.428277e+00 1.828668e+01        0
1.828668e+01 -1.632177e+02        0
       0        0 -2.859828e+01

5.215412e+02 -9.948613e+01        0
-9.948613e+01 3.911712e+00        0
       0        0 2.583260e+02

6.638918e+02 -3.229425e+01        0
-3.229425e+01 -2.991504e+01        0
       0        0 3.357462e+02

-3.668588e+02 1.838357e+01        0
1.838357e+01 -1.281152e+01        0
       0        0 -1.695112e+02

-7.675730e-02 -1.368813e+02        0
-1.368813e+02 1.731613e+01        0
       0        0 2.030873e+01

-7.774852e+02 1.655033e+02        0
1.655033e+02 -4.202380e+02        0
       0        0 -4.512743e+02

-8.814981e+01 -9.715774e+00        0
-9.715774e+00 -1.918105e+02        0
       0        0 -7.071489e+01

3.381112e+02 -7.328064e+01        0
-7.328064e+01 1.057872e+01        0
       0        0 1.705817e+02

5.305514e+01 -1.217425e+02        0
-1.217425e+02 4.585320e+01        0
       0        0 4.428086e+01

-1.625601e+02 -5.351724e+01        0
-5.351724e+01 5.451116e+01        0
       0        0 -6.638399e+01

1.241155e+02 -3.108663e+01        0
-3.108663e+01 4.778979e+00        0
       0        0 6.252404e+01

2.091813e+02 -4.736980e+01        0
-4.736980e+01 7.127406e+00        0
       0        0 1.061998e+02

-3.291225e+01 -6.076244e+01        0
-6.076244e+01 4.687368e+01        0
       0        0 -1.246612e+01

4.553362e+01 -6.564211e+01        0
-6.564211e+01 2.539014e+01        0
       0        0 2.719945e+01

-7.257762e+01 -6.808941e+01        0
-6.808941e+01 5.532269e+01        0
       0        0 -2.774107e+01

6.011575e+01 -9.148379e+01        0
-9.148379e+01 3.485313e+01        0
       0        0 3.923447e+01

3.199751e+01 -1.307245e+01        0
-1.307245e+01 2.485480e+00        0
       0        0 1.360326e+01

6.821923e+01 -2.038828e+01        0
-2.038828e+01 3.339937e+00        0
       0        0 3.309503e+01

-9.970233e+00 -3.273055e+01        0
-3.273055e+01 3.121031e+01        0
       0        0 -5.141484e+00

1.406322e+01 -3.020804e+01        0
-3.020804e+01 1.464624e+01        0
       0        0 6.966862e+00

-1.675883e+01 -4.685649e+01        0
-4.685649e+01 3.860162e+01        0
       0        0 -6.881247e+00

2.830251e+01 -4.559623e+01        0
-4.559623e+01 1.902617e+01        0
       0        0 1.583101e+01

9.569596e+00 -7.889936e+00        0
-7.889936e+00 1.891781e+00        0
       0        0 1.235637e+00

4.098419e+00 -1.865564e+01        0
-1.865564e+01 1.143001e+01        0
       0        0 7.514110e-01

-7.119796e+00 -2.080326e+01        0
-2.080326e+01 2.507181e+01        0
       0        0 -4.921990e+00

-9.017879e+00 -1.271535e+00        0
-1.271535e+00 1.325903e+00        0
       0        0 -9.146070e+00

-3.154538e+00 -4.165334e+00        0
-4.165334e+00 1.508365e+00        0
       0        0 -5.947945e+00

-5.433866e+00 -3.572828e+00        0
-3.572828e+00 1.856196e+01        0
       0        0 -5.356124e+00

-4.840854e+00 -3.141237e+00        0
-3.141237e+00 8.229795e+00        0
       0        0 -4.870496e+00

-5.914000e+00 -1.131130e+01        0
-1.131130e+01 2.071663e+01        0
       0        0 -5.147323e+00

-1.953189e+00 -9.994535e+00        0
-9.994535e+00 9.276338e+00        0
       0        0 -3.094403e+00

-5.665080e+02 2.573705e+02        0
2.573705e+02 -6.299248e+01        0
       0        0 -3.423626e+02

-1.111223e+03 4.129505e+02        0
4.129505e+02 -2.565449e+02        0
       0        0 -5.567377e+02

6.440000e+01 1.837568e+02        0
1.837568e+02 -6.265244e+01        0
       0        0 2.288494e+02

-2.216927e+02 3.464551e+02        0
3.464551e+02 -9.488134e+01        0
       0        0 -5.784207e+01

4.808235e+02 1.167463e+02        0
1.167463e+02 -4.098819e+01        0
       0        0 3.211283e+02

-2.198678e+02 3.429921e+02        0
3.429921e+02 -2.109092e+02        0
       0        0 -1.105428e+02

-2.101297e+02 1.708179e+02        0
1.708179e+02 -8.766776e+01        0
       0        0 -1.767208e+02

-1.743515e+02 2.770157e+02        0
2.770157e+02 -1.579511e+02        0
       0        0 -8.295954e+00

-2.667905e+02 2.270897e+02        0
2.270897e+02 -1.293579e+02        0
       0        0 1.531089e+02

8.072829e+01 -2.290241e+01        0
-2.290241e+01 -2.260449e+01        0
       0        0 1.525212e+02

-7.768782e+00 6.843612e+01        0
6.843612e+01 -6.927037e+01        0
       0        0 -3.940892e+00

-4.821793e+02 3.532552e+02        0
3.532552e+02 -2.974692e+02        0
       0        0 1.360201e+02

-1.487550e+02 1.572736e+02        0
1.572736e+02 -1.929377e+02        0
       0        0 1.504002e+02

-4.371495e+02 2.949010e+02        0
2.949010e+02 -2.091360e+02        0
       0        0 1.273334e+02

-1.530689e+02 2.085141e+02        0
2.085141e+02 -1.904928e+02        0
       0        0 6.657981e+01

6.804834e+01 -9.723069e+01        0
-9.723069e+01 8.941796e+01        0
       0        0 3.673813e+02

9.400807e+01 -7.915734e+01        0
-7.915734e+01 3.715898e+01        0
       0        0 2.788315e+02

-3.563087e+02 3.668909e+02        0
3.668909e+02 -4.473731e+02        0
       0        0 1.968423e+02

-1.424596e+02 1.076236e+02        0
1.076236e+02 -1.653349e+02        0
       0        0 2.887185e+02

-4.420900e+02 3.792254e+02        0
3.792254e+02 -3.814025e+02        0
       0        0 1.636791e+02

-1.476343e+02 1.247182e+02        0
1.247182e+02 -1.807701e+02        0
       0        0 2.279247e+02

3.046801e+01 -8.364646e+01        0
-8.364646e+01 1.196582e+02        0
       0        0 4.166622e+02

-1.299611e+02 1.006026e+02        0
1.006026e+02 -1.536213e+02        0
       0        0 3.273841e+02

-2.570104e+02 3.216835e+02        0
3.216835e+02 -4.842451e+02        0
       0        0 2.261595e+02

-1.840009e+01 -1.256187e+01        0
-1.256187e+01 9.059260e+01        0
       0        0 4.107622e+02

-1.237293e+00 -5.083102e+01        0
-5.083102e+01 1.202464e+02        0
       0        0 4.293269e+02

-9.557647e+01 1.816068e+02        0
1.816068e+02 -4.512723e+02        0
       0        0 2.556339e+02

-8.426661e+01 9.516243e+01        0
9.516243e+01 -1.462476e+02        0
       0        0 3.372081e+02

-1.660029e+02 2.555653e+02        0
2.555653e+02 -4.864907e+02        0
       0        0 2.462273e+02

-1.100528e+02 9.808598e+01        0
9.808598e+01 -1.482174e+02        0
       0        0 3.427252e+02

-2.389270e+02 2.178172e+02        0
2.178172e+02 -2.180414e+02        0
       0        0 -2.090023e+02

-4.066562e+02 1.964613e+02        0
1.964613e+02 -1.361456e+02        0
       0        0 -2.455474e+02

-1.841382e+02 3.171789e+02        0
3.171789e+02 -5.729765e+02        0
       0        0 -2.970796e+02

-5.770476e+02 5.122801e+02        0
5.122801e+02 -6.753067e+02        0
       0        0 -4.798402e+02

-1.283450e+02 1.681300e+02        0
1.681300e+02 -2.750690e+02        0
       0        0 -1.405820e+02

-1.614249e+02 1.918355e+02        0
1.918355e+02 -2.688487e+02        0
       0        0 -1.789388e+02

-1.090128e+02 1.612459e+02        0
1.612459e+02 -4.474265e+02        0
       0        0 -1.808212e+02

-1.056475e+02 2.194085e+02        0
2.194085e+02 -4.862246e+02        0
       0        0 -2.185900e+02

-9.876602e+01 8.611856e+00        0
8.611856e+00 4.672852e+01        0
       0        0 -5.498127e+01

-8.465384e+01 -2.966323e+01        0
-2.966323e+01 5.426565e+01        0
       0        0 -4.302454e+01

-1.498419e+02 3.854678e+01        0
3.854678e+01 1.842813e+01        0
       0        0 -9.002565e+01

-1.432397e+02 -1.131719e+01        0
-1.131719e+01 4.577973e+01        0
       0        0 -7.437721e+01

-2.104248e+02 1.064346e+02        0
1.064346e+02 -5.725600e+01        0
       0        0 -1.430148e+02

-2.397237e+02 4.879105e+01        0
4.879105e+01 7.020905e+00        0
       0        0 -1.306658e+02

-3.606561e+01 6.584054e+01        0
6.584054e+01 3.950607e+00        0
       0        0 -2.234480e+01

-8.137686e+01 4.229743e+01        0
4.229743e+01 2.899049e+01        0
       0        0 -4.761458e+01

-6.461987e+01 1.000512e+02        0
1.000512e+02 -4.243589e+01        0
       0        0 -4.825333e+01

-1.214842e+02 7.410753e+01        0
7.410753e+01 -1.263023e+01        0
       0        0 -8.051874e+01

-9.926735e+01 1.394486e+02        0
1.394486e+02 -1.308752e+02        0
       0        0 -8.809693e+01

-1.586728e+02 1.252568e+02        0
1.252568e+02 -1.057652e+02        0
       0        0 -1.270570e+02

-3.517563e+01 -5.220797e+00        0
-5.220797e+00 4.865350e+01        0
       0        0 -1.916602e+01

-2.897024e+01 -2.244367e+01        0
-2.244367e+01 4.410334e+01        0
       0        0 -1.569359e+01

-6.077685e+01 -2.528543e+00        0
-2.528543e+00 5.258976e+01        0
       0        0 -3.263437e+01

-4.989631e+01 -2.898349e+01        0
-2.898349e+01 5.120637e+01        0
       0        0 -2.550879e+01

-4.705733e+00 2.371315e+01        0
2.371315e+01 3.114446e+01        0
       0        0 6.544644e-01

-2.672584e+01 1.216385e+01        0
1.216385e+01 4.389131e+01        0
       0        0 -1.352770e+01

-1.654086e+01 4.062825e+01        0
4.062825e+01 2.448370e+01        0
       0        0 -7.274375e+00

-4.901334e+01 2.310171e+01        0
2.310171e+01 4.304007e+01        0
       0        0 -2.626657e+01

-5.828704e+00 -9.652269e-01        0
-9.652269e-01 3.302532e+01        0
       0        0 -5.667244e+00

-6.755150e+00 -2.653438e+00        0
-2.653438e+00 2.782251e+01        0
       0        0 -6.611460e+00

-1.009042e+01 -2.923604e+00        0
-2.923604e+00 3.618794e+01        0
       0        0 -7.390238e+00

-9.890503e+00 -8.358534e+00        0
-8.358534e+00 3.081189e+01        0
       0        0 -7.696559e+00

-1.917818e+01 -4.623274e+00        0
-4.623274e+00 4.198228e+01        0
       0        0 -1.146987e+01

-1.667592e+01 -1.498847e+01        0
-1.498847e+01 3.660473e+01        0
       0        0 -1.039083e+01

6.520083e+00 1.866196e+00        0
1.866196e+00 2.879649e+01        0
       0        0 6.590835e+00

-1.287703e+00 7.770236e-01        0
7.770236e-01 3.313796e+01        0
       0        0 -1.144257e+00

5.131714e+00 6.291277e+00        0
6.291277e+00 3.003782e+01        0
       0        0 6.034389e+00

-4.936613e+00 2.715214e+00        0
2.715214e+00 3.569140e+01        0
       0        0 -2.694333e+00

1.852521e+00 1.297007e+01        0
1.297007e+01 3.156934e+01        0
       0        0 4.439435e+00

-1.277688e+01 6.051439e+00        0
6.051439e+00 3.998724e+01        0
       0        0 -6.382696e+00

POINT_DATA     938
VECTORS DISPLACEMENT_3.000000e+00 double
1.166765e-09    9.765700e-09    0.000000e+00
1.268476e-09    9.208568e-09    0.000000e+00
1.067692e-09    1.033591e-08    0.000000e+00
-3.913211e-10    9.873629e-09    0.000000e+00
-2.341675e-10    9.205368e-09    0.000000e+00
-6.184743e-11    8.560714e-09    0.000000e+00
1.238275e-10    7.945900e-09    0.000000e+00
3.206333e-10    7.368032e-09    0.000000e+00
5.256824e-10    6.835378e-09    0.000000e+00
7.353595e-10    6.357682e-09    0.000000e+00
9.449224e-10    5.946118e-09    0.000000e+00
1.148632e-09    5.615101e-09    0.000000e+00
1.333309e-09    5.387010e-09    0.000000e+00
1.462462e-09    5.266871e-09    0.000000e+00
1.576884e-09    5.220463e-09    0.000000e+00
-5.880469e-12    1.792224e-08    0.000000e+00
-1.173374e-10    1.788423e-08    0.000000e+00
-2.212757e-11    1.760392e-08    0.000000e+00
-2.425578e-10    1.754990e-08    0.000000e+00
-4.082246e-11    1.660389e-08    0.000000e+00
-4.090144e-10    1.653398e-08    0.000000e+00
-3.335660e-11    1.597875e-08    0.000000e+00
-4.503282e-10    1.590089e-08    0.000000e+00
-3.588242e-11    1.715381e-08    0.000000e+00
-3.396181e-10    1.709146e-08    0.000000e+00
2.718952e-11    1.458106e-08    0.000000e+00
-4.504445e-10    1.448834e-08    0.000000e+00
8.243102e-11    1.383815e-08    0.000000e+00
-4.114517e-10    1.373884e-08    0.000000e+00
2.434604e-10    1.231893e-08    0.000000e+00
-2.627535e-10    1.220834e-08    0.000000e+00
3.480182e-10    1.155849e-08    0.000000e+00
-1.564138e-10    1.144344e-08    0.000000e+00
1.546426e-10    1.308116e-08    0.000000e+00
-3.483537e-10    1.297589e-08    0.000000e+00
-1.117619e-11    1.529905e-08    0.000000e+00
-4.638328e-10    1.521352e-08    0.000000e+00
8.609719e-10    1.166210e-08    0.000000e+00
7.593611e-10    1.241480e-08    0.000000e+00
6.687259e-10    1.316855e-08    0.000000e+00
5.889609e-10    1.391613e-08    0.000000e+00
5.192121e-10    1.464825e-08    0.000000e+00
4.577184e-10    1.535384e-08    0.000000e+00
4.016957e-10    1.601964e-08    0.000000e+00
3.471734e-10    1.662942e-08    0.000000e+00
2.886438e-10    1.716355e-08    0.000000e+00
2.180256e-10    1.759795e-08    0.000000e+00
1.226911e-10    1.789854e-08    0.000000e+00
1.510224e-12    1.800946e-08    0.000000e+00
-2.639011e-12    1.806283e-08    0.000000e+00
4.183736e-12    1.809634e-08    0.000000e+00
-9.744453e-11    1.833637e-08    0.000000e+00
-2.675890e-10    1.781551e-08    0.000000e+00
-4.860612e-10    1.745522e-08    0.000000e+00
-6.589783e-10    1.698875e-08    0.000000e+00
-7.890724e-10    1.642707e-08    0.000000e+00
-8.760501e-10    1.579109e-08    0.000000e+00
-9.230104e-10    1.510075e-08    0.000000e+00
-9.329528e-10    1.437259e-08    0.000000e+00
-9.090474e-10    1.362015e-08    0.000000e+00
-8.543153e-10    1.285441e-08    0.000000e+00
-7.715524e-10    1.208428e-08    0.000000e+00
-6.632796e-10    1.131718e-08    0.000000e+00
-5.316920e-10    1.055959e-08    0.000000e+00
-3.299588e-11    1.068659e-08    0.000000e+00
4.651653e-10    1.080555e-08    0.000000e+00
9.729696e-10    1.091651e-08    0.000000e+00
1.370731e-09    8.667531e-09    0.000000e+00
1.470945e-09    8.145950e-09    0.000000e+00
1.565977e-09    7.647621e-09    0.000000e+00
1.652060e-09    7.176879e-09    0.000000e+00
1.724734e-09    6.738645e-09    0.000000e+00
1.779052e-09    6.338618e-09    0.000000e+00
1.808467e-09    5.982364e-09    0.000000e+00
1.819847e-09    5.670289e-09    0.000000e+00
1.755441e-09    5.381153e-09    0.000000e+00
1.709725e-09    5.316527e-09    0.000000e+00
1.639905e-09    5.269606e-09    0.000000e+00
1.199466e-09    7.357037e-09    0.000000e+00
8.581994e-10    7.087489e-09    0.000000e+00
8.124395e-10    8.989392e-09    0.000000e+00
3.732129e-10    8.774000e-09    0.000000e+00
5.705020e-10    1.018565e-08    0.000000e+00
8.795582e-11    1.003200e-08    0.000000e+00
6.881964e-10    9.579565e-09    0.000000e+00
2.251864e-10    9.393146e-09    0.000000e+00
9.408889e-10    8.419224e-09    0.000000e+00
5.298133e-10    8.179434e-09    0.000000e+00
1.070962e-09    7.873433e-09    0.000000e+00
6.925093e-10    7.615093e-09    0.000000e+00
1.532734e-09    6.048291e-09    0.000000e+00
1.328555e-09    5.808220e-09    0.000000e+00
1.322565e-09    6.875847e-09    0.000000e+00
1.023021e-09    6.604176e-09    0.000000e+00
1.435321e-09    6.436280e-09    0.000000e+00
1.182052e-09    6.173645e-09    0.000000e+00
1.606969e-09    5.715432e-09    0.000000e+00
1.457896e-09    5.520428e-09    0.000000e+00
1.671404e-09    5.462621e-09    0.000000e+00
1.563906e-09    5.342112e-09    0.000000e+00
1.300519e-09    5.045191e-09    0.000000e+00
1.327730e-09    5.173507e-09    0.000000e+00
4.740363e-10    4.804115e-09    0.000000e+00
4.731813e-10    4.897556e-09    0.000000e+00
2.701417e-10    4.741612e-09    0.000000e+00
2.658649e-10    4.803492e-09    0.000000e+00
3.616920e-10    4.771250e-09    0.000000e+00
3.583978e-10    4.848686e-09    0.000000e+00
1.435005e-10    4.689358e-09    0.000000e+00
1.406973e-10    4.723458e-09    0.000000e+00
1.046048e-10    4.665704e-09    0.000000e+00
1.037598e-10    4.687859e-09    0.000000e+00
1.980242e-10    4.714507e-09    0.000000e+00
1.939961e-10    4.761854e-09    0.000000e+00
6.076316e-10    4.840994e-09    0.000000e+00
6.107890e-10    4.949924e-09    0.000000e+00
1.095857e-10    4.640986e-09    0.000000e+00
1.507218e-10    4.653158e-09    0.000000e+00
2.067208e-10    4.665567e-09    0.000000e+00
2.792850e-10    4.678678e-09    0.000000e+00
3.699450e-10    4.693250e-09    0.000000e+00
4.797709e-10    4.710387e-09    0.000000e+00
6.090151e-10    4.731563e-09    0.000000e+00
7.566839e-10    4.758652e-09    0.000000e+00
9.200410e-10    4.793937e-09    0.000000e+00
1.094044e-09    4.840068e-09    0.000000e+00
1.270676e-09    4.900126e-09    0.000000e+00
1.438554e-09    4.976916e-09    0.000000e+00
1.581195e-09    5.075156e-09    0.000000e+00
1.690834e-09    5.187795e-09    0.000000e+00
1.655382e-09    5.248594e-09    0.000000e+00
1.636299e-09    5.298389e-09    0.000000e+00
1.517957e-09    5.318825e-09    0.000000e+00
1.347648e-09    5.299678e-09    0.000000e+00
1.156643e-09    5.256414e-09    0.000000e+00
9.636581e-10    5.197728e-09    0.000000e+00
7.814084e-10    5.130780e-09    0.000000e+00
6.177416e-10    5.060783e-09    0.000000e+00
4.767447e-10    4.991418e-09    0.000000e+00
3.597489e-10    4.925082e-09    0.000000e+00
2.661971e-10    4.863124e-09    0.000000e+00
1.943805e-10    4.806090e-09    0.000000e+00
1.420320e-10    4.753929e-09    0.000000e+00
1.067907e-10    4.706170e-09    0.000000e+00
8.654543e-11    4.662080e-09    0.000000e+00
8.115575e-11    4.654536e-09    0.000000e+00
7.945738e-11    4.643104e-09    0.000000e+00
8.166703e-11    4.628845e-09    0.000000e+00
9.478768e-10    5.062253e-09    0.000000e+00
9.326875e-10    4.930175e-09    0.000000e+00
7.701608e-10    5.005201e-09    0.000000e+00
7.615133e-10    4.882727e-09    0.000000e+00
1.137294e-09    5.119221e-09    0.000000e+00
1.115436e-09    4.984051e-09    0.000000e+00
1.641528e-09    5.257914e-09    0.000000e+00
1.618788e-09    5.190819e-09    0.000000e+00
1.503009e-09    5.221283e-09    0.000000e+00
1.474399e-09    5.113068e-09    0.000000e+00
1.699985e-09    5.270555e-09    0.000000e+00
1.713865e-09    5.264176e-09    0.000000e+00
1.165869e-09    4.329015e-09    0.000000e+00
1.186083e-09    4.291278e-09    0.000000e+00
1.189525e-09    4.263126e-09    0.000000e+00
1.184484e-09    4.230159e-09    0.000000e+00
1.107962e-09    4.212267e-09    0.000000e+00
9.871854e-10    4.212846e-09    0.000000e+00
8.449059e-10    4.229586e-09    0.000000e+00
6.994710e-10    4.257822e-09    0.000000e+00
5.629214e-10    4.293267e-09    0.000000e+00
4.418151e-10    4.332729e-09    0.000000e+00
3.390996e-10    4.373952e-09    0.000000e+00
2.553296e-10    4.415498e-09    0.000000e+00
1.896506e-10    4.456610e-09    0.000000e+00
1.405726e-10    4.497086e-09    0.000000e+00
1.065549e-10    4.537170e-09    0.000000e+00
8.642591e-11    4.577447e-09    0.000000e+00
7.966276e-11    4.618752e-09    0.000000e+00
6.378761e-11    4.614532e-09    0.000000e+00
6.070500e-11    4.600527e-09    0.000000e+00
7.153584e-11    4.587285e-09    0.000000e+00
9.626766e-11    4.575313e-09    0.000000e+00
1.356828e-10    4.565032e-09    0.000000e+00
1.911656e-10    4.556614e-09    0.000000e+00
2.643739e-10    4.549797e-09    0.000000e+00
3.567583e-10    4.543669e-09    0.000000e+00
4.689004e-10    4.536420e-09    0.000000e+00
5.996532e-10    4.525092e-09    0.000000e+00
7.450418e-10    4.505255e-09    0.000000e+00
8.971755e-10    4.471039e-09    0.000000e+00
1.043696e-09    4.413250e-09    0.000000e+00
3.104237e-10    4.435682e-09    0.000000e+00
2.854634e-10    4.494309e-09    0.000000e+00
8.128351e-10    4.321599e-09    0.000000e+00
7.792884e-10    4.410705e-09    0.000000e+00
1.095734e-09    4.276827e-09    0.000000e+00
1.075307e-09    4.338491e-09    0.000000e+00
9.626987e-10    4.296572e-09    0.000000e+00
9.321498e-10    4.378432e-09    0.000000e+00
5.287281e-10    4.377005e-09    0.000000e+00
4.972895e-10    4.457157e-09    0.000000e+00
6.647947e-10    4.348705e-09    0.000000e+00
6.313908e-10    4.436085e-09    0.000000e+00
4.099047e-10    4.406105e-09    0.000000e+00
3.814808e-10    4.476080e-09    0.000000e+00
1.225378e-10    4.525870e-09    0.000000e+00
1.077392e-10    4.552150e-09    0.000000e+00
2.302554e-10    4.465534e-09    0.000000e+00
2.088293e-10    4.512768e-09    0.000000e+00
1.681837e-10    4.495582e-09    0.000000e+00
1.501633e-10    4.531970e-09    0.000000e+00
7.468407e-11    4.587954e-09    0.000000e+00
6.606634e-11    4.595599e-09    0.000000e+00
9.173854e-11    4.556564e-09    0.000000e+00
8.003072e-11    4.573366e-09    0.000000e+00
7.099802e-11    4.620443e-09    0.000000e+00
6.564933e-11    4.618830e-09    0.000000e+00
-1.800433e-14    -1.498960e-11    0.000000e+00
-2.015558e-12    -1.611237e-11    0.000000e+00
-4.451116e-12    -1.921429e-11    0.000000e+00
-7.818056e-12    -2.397539e-11    0.000000e+00
-1.278021e-11    -2.941739e-11    0.000000e+00
-2.035246e-11    -3.317215e-11    0.000000e+00
-3.241014e-11    -3.006385e-11    0.000000e+00
-5.238616e-11    -1.025724e-11    0.000000e+00
-8.870713e-11    4.524549e-11    0.000000e+00
-1.447012e-10    1.633155e-10    0.000000e+00
-2.794824e-10    4.060546e-10    0.000000e+00
-9.805317e-11    4.403731e-10    0.000000e+00
1.519036e-10    4.641637e-10    0.000000e+00
4.366668e-10    5.039216e-10    0.000000e+00
2.688098e-10    1.836326e-10    0.000000e+00
1.506154e-10    4.541865e-11    0.000000e+00
8.056444e-11    -1.052474e-11    0.000000e+00
4.016264e-11    -3.102407e-11    0.000000e+00
1.713022e-11    -3.549893e-11    0.000000e+00
4.896607e-12    -3.305037e-11    0.000000e+00
-6.677141e-13    -2.842256e-11    0.000000e+00
-2.234596e-12    -2.406027e-11    0.000000e+00
-1.597664e-12    -2.112951e-11    0.000000e+00
6.041416e-14    -2.014584e-11    0.000000e+00
3.152485e-14    -1.919861e-11    0.000000e+00
8.318414e-15    -1.775477e-11    0.000000e+00
1.033267e-11    -4.006847e-11    0.000000e+00
-4.759355e-12    -3.953978e-11    0.000000e+00
6.905434e-11    2.435042e-11    0.000000e+00
-2.432242e-11    2.654952e-11    0.000000e+00
1.050925e-10    1.490944e-10    0.000000e+00
-5.608278e-11    1.461795e-10    0.000000e+00
4.179392e-11    -2.368489e-11    0.000000e+00
-1.019299e-11    -2.281222e-11    0.000000e+00
2.255306e-11    -3.910824e-11    0.000000e+00
-6.001190e-12    -3.873299e-11    0.000000e+00
-7.220660e-14    -2.908821e-11    0.000000e+00
-3.394899e-12    -2.792719e-11    0.000000e+00
3.311933e-12    -3.525284e-11    0.000000e+00
-4.155228e-12    -3.436542e-11    0.000000e+00
-1.137343e-12    -2.379544e-11    0.000000e+00
-2.399759e-12    -2.247474e-11    0.000000e+00
-8.652916e-13    -2.037200e-11    0.000000e+00
-1.239102e-12    -1.897244e-11    0.000000e+00
-5.347131e-10    1.151539e-09    0.000000e+00
-4.937196e-10    1.923943e-09    0.000000e+00
-2.934473e-10    2.652167e-09    0.000000e+00
1.634652e-11    3.261156e-09    0.000000e+00
3.615496e-10    3.715203e-09    0.000000e+00
6.862139e-10    4.015173e-09    0.000000e+00
9.480888e-10    4.182203e-09    0.000000e+00
1.121206e-09    4.248828e-09    0.000000e+00
1.198212e-09    4.252976e-09    0.000000e+00
1.234968e-09    4.226765e-09    0.000000e+00
1.260490e-09    4.082871e-09    0.000000e+00
1.239711e-09    3.879008e-09    0.000000e+00
1.175870e-09    3.597285e-09    0.000000e+00
1.077701e-09    3.223257e-09    0.000000e+00
9.595179e-10    2.756190e-09    0.000000e+00
8.352480e-10    2.206927e-09    0.000000e+00
7.128295e-10    1.603487e-09    0.000000e+00
5.852147e-10    1.000855e-09    0.000000e+00
6.190148e-10    3.554966e-09    0.000000e+00
8.555662e-10    3.395446e-09    0.000000e+00
-7.471944e-11    1.801996e-09    0.000000e+00
3.067680e-10    1.695724e-09    0.000000e+00
-1.367249e-10    1.081792e-09    0.000000e+00
2.099738e-10    1.019287e-09    0.000000e+00
9.928657e-11    2.497171e-09    0.000000e+00
4.621344e-10    2.354333e-09    0.000000e+00
3.479366e-10    3.092730e-09    0.000000e+00
6.555388e-10    2.930649e-09    0.000000e+00
1.063715e-09    4.084806e-09    0.000000e+00
1.163715e-09    3.983606e-09    0.000000e+00
8.686607e-10    3.880273e-09    0.000000e+00
1.032705e-09    3.742825e-09    0.000000e+00
1.184759e-09    4.196115e-09    0.000000e+00
1.234554e-09    4.138679e-09    0.000000e+00
1.225238e-09    4.245707e-09    0.000000e+00
1.240665e-09    4.233348e-09    0.000000e+00
0.000000e+00    0.000000e+00    0.000000e+00
0.000000e+00    0.000000e+00    0.000000e+00
0.000000e+00    0.000000e+00    0.000000e+00
0.000000e+00    0.000000e+00    0.000000e+00
0.000000e+00    0.000000e+00    0.000000e+00
0.000000e+00    0.000000e+00    0.000000e+00
0.000000e+00    0.000000e+00    0.000000e+00
0.000000e+00    0.000000e+00    0.000000e+00
0.000000e+00    0.000000e+00    0.000000e+00
0.000000e+00    0.000000e+00    0.000000e+00
0.000000e+00    0.000000e+00    0.000000e+00
-3.179752e-11    6.025162e-11    0.000000e+00
-7.650004e-11    1.300120e-10    0.000000e+00
-1.292968e-10    2.102229e-10    0.000000e+00
-3.279766e-14    -1.123117e-11    0.000000e+00
-3.248574e-14    -6.935687e-12    0.000000e+00
-1.704327e-14    -2.939248e-12    0.000000e+00
-2.856869e-11    -2.281509e-11    0.000000e+00
-2.724832e-11    -1.194554e-11    0.000000e+00
-1.688780e-11    -3.523725e-12    0.000000e+00
-9.977259e-11    4.344776e-11    0.000000e+00
-8.099752e-11    3.384383e-11    0.000000e+00
-4.765839e-11    1.739438e-11    0.000000e+00
-9.186762e-11    8.397363e-11    0.000000e+00
-1.262320e-10    1.220798e-10    0.000000e+00
-4.793933e-11    3.814520e-11    0.000000e+00
-4.226867e-11    -8.055624e-12    0.000000e+00
-6.104360e-11    4.684530e-12    0.000000e+00
-4.503530e-11    -1.874610e-11    0.000000e+00
-6.773746e-11    -1.079311e-12    0.000000e+00
-2.618898e-11    -1.070403e-12    0.000000e+00
-3.751032e-11    5.121414e-12    0.000000e+00
-1.028568e-11    -1.747163e-11    0.000000e+00
-9.659740e-12    -1.020049e-11    0.000000e+00
-5.859506e-12    -3.875851e-12    0.000000e+00
-1.668681e-11    -1.175518e-11    0.000000e+00
-1.754872e-11    -2.098053e-11    0.000000e+00
-1.024865e-11    -4.091797e-12    0.000000e+00
-2.212940e-12    -7.410731e-12    0.000000e+00
-5.160632e-12    -8.561345e-12    0.000000e+00
-2.435489e-12    -1.205949e-11    0.000000e+00
-5.589548e-12    -1.422589e-11    0.000000e+00
-1.306390e-12    -3.107527e-12    0.000000e+00
-3.085519e-12    -3.452867e-12    0.000000e+00
7.172136e-10    1.086184e-08    0.000000e+00
9.177667e-10    1.128869e-08    0.000000e+00
1.020948e-09    1.062549e-08    0.000000e+00
2.155320e-10    1.074715e-08    0.000000e+00
4.068251e-10    1.118110e-08    0.000000e+00
5.181182e-10    1.049452e-08    0.000000e+00
-2.817503e-10    1.062442e-08    0.000000e+00
-9.508990e-11    1.106454e-08    0.000000e+00
2.729337e-11    1.035847e-08    0.000000e+00
-5.980079e-10    1.093576e-08    0.000000e+00
-4.617506e-10    1.021391e-08    0.000000e+00
-7.181866e-10    1.169873e-08    0.000000e+00
-4.092195e-10    1.138192e-08    0.000000e+00
-8.139925e-10    1.246799e-08    0.000000e+00
-5.164558e-10    1.214823e-08    0.000000e+00
-8.830821e-10    1.323668e-08    0.000000e+00
-6.004794e-10    1.291743e-08    0.000000e+00
-9.227958e-10    1.399669e-08    0.000000e+00
-6.591582e-10    1.368220e-08    0.000000e+00
-9.302183e-10    1.473809e-08    0.000000e+00
-6.902835e-10    1.443366e-08    0.000000e+00
-9.022443e-10    1.544865e-08    0.000000e+00
-6.915789e-10    1.516091e-08    0.000000e+00
-8.357440e-10    1.611324e-08    0.000000e+00
-6.608213e-10    1.585043e-08    0.000000e+00
-7.276730e-10    1.671349e-08    0.000000e+00
-5.959311e-10    1.648573e-08    0.000000e+00
-5.760174e-10    1.722717e-08    0.000000e+00
-4.955648e-10    1.704625e-08    0.000000e+00
-3.802654e-10    1.763305e-08    0.000000e+00
-3.584963e-10    1.750922e-08    0.000000e+00
-1.575514e-10    1.795191e-08    0.000000e+00
-1.874150e-10    1.785978e-08    0.000000e+00
2.116536e-11    1.821963e-08    0.000000e+00
3.552146e-12    1.807831e-08    0.000000e+00
-5.609978e-11    1.801568e-08    0.000000e+00
-1.785288e-12    1.804330e-08    0.000000e+00
3.634819e-13    1.801629e-08    0.000000e+00
6.469661e-11    1.797802e-08    0.000000e+00
1.749907e-10    1.776809e-08    0.000000e+00
5.325437e-11    1.791978e-08    0.000000e+00
2.567936e-10    1.739530e-08    0.000000e+00
9.207269e-11    1.760890e-08    0.000000e+00
3.203712e-10    1.690761e-08    0.000000e+00
1.210621e-10    1.716522e-08    0.000000e+00
3.762706e-10    1.633296e-08    0.000000e+00
1.484008e-10    1.662203e-08    0.000000e+00
4.311071e-10    1.569296e-08    0.000000e+00
1.799148e-10    1.600359e-08    0.000000e+00
4.895495e-10    1.500547e-08    0.000000e+00
2.195052e-10    1.533003e-08    0.000000e+00
5.549533e-10    1.428517e-08    0.000000e+00
2.698849e-10    1.461756e-08    0.000000e+00
6.295769e-10    1.354415e-08    0.000000e+00
3.327841e-10    1.387949e-08    0.000000e+00
7.147224e-10    1.279254e-08    0.000000e+00
4.091258e-10    1.312674e-08    0.000000e+00
8.108665e-10    1.203851e-08    0.000000e+00
4.991514e-10    1.236836e-08    0.000000e+00
6.024858e-10    1.161144e-08    0.000000e+00
-2.383829e-10    1.525997e-08    0.000000e+00
-4.586543e-10    1.485603e-08    0.000000e+00
-4.588521e-10    1.556429e-08    0.000000e+00
7.783556e-12    1.494405e-08    0.000000e+00
-2.248252e-11    1.564463e-08    0.000000e+00
-9.766531e-11    1.303063e-08    0.000000e+00
-3.063439e-10    1.259330e-08    0.000000e+00
-3.809198e-10    1.335959e-08    0.000000e+00
1.990232e-10    1.270056e-08    0.000000e+00
1.184145e-10    1.346109e-08    0.000000e+00
9.513730e-11    1.150235e-08    0.000000e+00
-2.101615e-10    1.182620e-08    0.000000e+00
2.958325e-10    1.193845e-08    0.000000e+00
-1.038970e-11    1.226536e-08    0.000000e+00
-1.653694e-10    1.379105e-08    0.000000e+00
-4.322085e-10    1.411709e-08    0.000000e+00
5.462122e-11    1.421218e-08    0.000000e+00
-2.125124e-10    1.453778e-08    0.000000e+00
-1.882354e-10    1.712874e-08    0.000000e+00
-3.765504e-10    1.682540e-08    0.000000e+00
-2.936805e-10    1.733718e-08    0.000000e+00
-3.840049e-11    1.688918e-08    0.000000e+00
-2.888521e-11    1.739210e-08    0.000000e+00
-2.426715e-10    1.594421e-08    0.000000e+00
-4.316960e-10    1.622702e-08    0.000000e+00
-3.723965e-11    1.629917e-08    0.000000e+00
-2.256250e-10    1.657415e-08    0.000000e+00
-1.320535e-10    1.758405e-08    0.000000e+00
-1.820195e-10    1.773847e-08    0.000000e+00
-1.342491e-11    1.778054e-08    0.000000e+00
-6.121394e-11    1.791096e-08    0.000000e+00
1.527755e-09    5.238528e-09    0.000000e+00
1.607643e-09    5.245884e-09    0.000000e+00
1.628068e-09    5.230603e-09    0.000000e+00
1.406991e-09    5.317392e-09    0.000000e+00
1.509843e-09    5.301460e-09    0.000000e+00
1.246769e-09    5.486225e-09    0.000000e+00
1.391746e-09    5.445937e-09    0.000000e+00
1.049257e-09    5.769314e-09    0.000000e+00
1.237166e-09    5.706344e-09    0.000000e+00
8.419062e-10    6.142712e-09    0.000000e+00
1.062852e-09    6.056592e-09    0.000000e+00
6.317868e-10    6.588822e-09    0.000000e+00
8.789136e-10    6.478702e-09    0.000000e+00
4.240336e-10    7.095267e-09    0.000000e+00
6.920050e-10    6.960155e-09    0.000000e+00
2.227953e-10    7.651563e-09    0.000000e+00
5.068405e-10    7.490955e-09    0.000000e+00
3.130960e-11    8.248771e-09    0.000000e+00
3.272367e-10    8.062600e-09    0.000000e+00
-1.478920e-10    8.879217e-09    0.000000e+00
1.561865e-10    8.667716e-09    0.000000e+00
-3.128119e-10    9.536265e-09    0.000000e+00
-3.934371e-12    9.299970e-09    0.000000e+00
-1.510892e-10    9.953840e-09    0.000000e+00
1.117995e-09    1.004977e-08    0.000000e+00
8.172228e-10    1.026129e-08    0.000000e+00
1.218589e-09    9.485742e-09    0.000000e+00
9.254645e-10    9.672769e-09    0.000000e+00
1.320823e-09    8.936264e-09    0.000000e+00
1.038211e-09    9.098677e-09    0.000000e+00
1.422366e-09    8.404512e-09    0.000000e+00
1.153222e-09    8.542542e-09    0.000000e+00
1.520359e-09    7.894046e-09    0.000000e+00
1.267902e-09    8.008197e-09    0.000000e+00
1.611366e-09    7.408941e-09    0.000000e+00
1.379079e-09    7.500029e-09    0.000000e+00
1.691241e-09    6.953714e-09    0.000000e+00
1.482917e-09    7.022993e-09    0.000000e+00
1.755355e-09    6.534093e-09    0.000000e+00
1.574827e-09    6.583039e-09    0.000000e+00
1.797883e-09    6.154002e-09    0.000000e+00
1.649421e-09    6.186737e-09    0.000000e+00
1.817702e-09    5.826760e-09    0.000000e+00
1.701935e-09    5.843833e-09    0.000000e+00
1.793720e-09    5.518853e-09    0.000000e+00
1.728596e-09    5.543306e-09    0.000000e+00
1.746445e-09    5.343619e-09    0.000000e+00
1.727074e-09    5.277637e-09    0.000000e+00
1.674435e-09    5.292646e-09    0.000000e+00
1.695971e-09    5.371153e-09    0.000000e+00
1.735145e-09    5.299516e-09    0.000000e+00
1.611153e-09    5.297932e-09    0.000000e+00
1.685988e-09    5.268471e-09    0.000000e+00
1.027114e-09    7.220351e-09    0.000000e+00
1.136768e-09    7.611596e-09    0.000000e+00
1.263012e-09    7.112011e-09    0.000000e+00
7.763297e-10    7.346911e-09    0.000000e+00
9.420346e-10    6.840393e-09    0.000000e+00
5.920526e-10    8.881678e-09    0.000000e+00
7.509661e-10    9.282592e-09    0.000000e+00
8.775534e-10    8.701921e-09    0.000000e+00
2.993448e-10    9.081598e-09    0.000000e+00
4.518712e-10    8.474054e-09    0.000000e+00
3.286775e-10    1.010958e-08    0.000000e+00
6.298032e-10    9.881159e-09    0.000000e+00
1.565466e-10    9.711203e-09    0.000000e+00
4.560611e-10    9.486751e-09    0.000000e+00
7.343565e-10    8.298811e-09    0.000000e+00
1.007112e-09    8.143360e-09    0.000000e+00
6.117925e-10    7.893806e-09    0.000000e+00
8.804263e-10    7.743126e-09    0.000000e+00
1.426217e-09    5.922221e-09    0.000000e+00
1.487127e-09    6.235913e-09    0.000000e+00
1.573504e-09    5.875791e-09    0.000000e+00
1.258053e-09    5.982909e-09    0.000000e+00
1.396545e-09    5.653367e-09    0.000000e+00
1.170487e-09    6.737096e-09    0.000000e+00
1.381510e-09    6.650775e-09    0.000000e+00
1.104501e-09    6.382240e-09    0.000000e+00
1.305819e-09    6.300862e-09    0.000000e+00
1.528799e-09    5.609478e-09    0.000000e+00
1.642447e-09    5.577395e-09    0.000000e+00
1.516057e-09    5.418658e-09    0.000000e+00
1.615377e-09    5.393431e-09    0.000000e+00
8.006985e-11    4.636247e-09    0.000000e+00
9.407008e-11    4.634915e-09    0.000000e+00
7.078906e-11    4.621669e-09    0.000000e+00
7.982874e-11    4.649246e-09    0.000000e+00
9.042290e-11    4.654253e-09    0.000000e+00
7.069805e-11    4.630827e-09    0.000000e+00
8.341292e-11    4.658848e-09    0.000000e+00
9.078299e-11    4.670918e-09    0.000000e+00
7.428191e-11    4.637253e-09    0.000000e+00
9.490902e-11    4.683721e-09    0.000000e+00
8.134804e-11    4.640096e-09    0.000000e+00
1.224145e-10    4.729544e-09    0.000000e+00
1.048147e-10    4.697555e-09    0.000000e+00
1.659234e-10    4.779428e-09    0.000000e+00
1.408642e-10    4.739210e-09    0.000000e+00
2.277074e-10    4.833991e-09    0.000000e+00
1.936461e-10    4.784414e-09    0.000000e+00
3.101308e-10    4.893513e-09    0.000000e+00
2.654555e-10    4.833608e-09    0.000000e+00
4.152478e-10    4.957774e-09    0.000000e+00
3.584846e-10    4.886968e-09    0.000000e+00
5.442737e-10    5.025851e-09    0.000000e+00
4.743966e-10    4.944287e-09    0.000000e+00
6.969226e-10    5.095903e-09    0.000000e+00
6.137759e-10    5.004822e-09    0.000000e+00
8.706028e-10    5.164920e-09    0.000000e+00
7.754552e-10    5.067127e-09    0.000000e+00
1.059471e-09    5.228486e-09    0.000000e+00
9.557075e-10    5.128863e-09    0.000000e+00
1.253450e-09    5.280471e-09    0.000000e+00
1.147354e-09    5.186597e-09    0.000000e+00
1.436761e-09    5.312923e-09    0.000000e+00
1.338714e-09    5.235645e-09    0.000000e+00
1.587319e-09    5.314057e-09    0.000000e+00
1.512501e-09    5.269566e-09    0.000000e+00
1.661295e-09    5.274442e-09    0.000000e+00
1.642675e-09    5.280920e-09    0.000000e+00
1.679160e-09    5.262618e-09    0.000000e+00
1.637121e-09    5.126815e-09    0.000000e+00
1.707511e-09    5.246768e-09    0.000000e+00
1.514777e-09    5.023807e-09    0.000000e+00
1.600086e-09    5.136798e-09    0.000000e+00
1.356418e-09    4.936027e-09    0.000000e+00
1.457124e-09    5.049829e-09    0.000000e+00
1.182702e-09    4.868172e-09    0.000000e+00
1.285439e-09    4.975102e-09    0.000000e+00
1.006128e-09    4.815427e-09    0.000000e+00
1.104402e-09    4.913555e-09    0.000000e+00
8.366604e-10    4.775095e-09    0.000000e+00
9.258281e-10    4.862763e-09    0.000000e+00
6.806721e-10    4.744219e-09    0.000000e+00
7.584793e-10    4.820964e-09    0.000000e+00
5.419949e-10    4.720351e-09    0.000000e+00
6.076626e-10    4.786315e-09    0.000000e+00
4.224238e-10    4.701407e-09    0.000000e+00
4.762366e-10    4.757192e-09    0.000000e+00
3.222724e-10    4.685716e-09    0.000000e+00
3.651650e-10    4.732182e-09    0.000000e+00
2.408302e-10    4.671992e-09    0.000000e+00
2.740856e-10    4.710117e-09    0.000000e+00
1.767565e-10    4.659308e-09    0.000000e+00
2.017771e-10    4.690075e-09    0.000000e+00
1.284030e-10    4.647059e-09    0.000000e+00
1.465501e-10    4.671372e-09    0.000000e+00
1.065675e-10    4.653540e-09    0.000000e+00
6.087077e-10    4.895249e-09    0.000000e+00
5.391523e-10    4.923329e-09    0.000000e+00
6.879049e-10    4.977253e-09    0.000000e+00
5.381987e-10    4.821993e-09    0.000000e+00
6.821699e-10    4.861188e-09    0.000000e+00
1.954501e-10    4.738426e-09    0.000000e+00
1.651641e-10    4.742279e-09    0.000000e+00
2.274712e-10    4.782249e-09    0.000000e+00
1.686869e-10    4.701719e-09    0.000000e+00
2.317621e-10    4.727781e-09    0.000000e+00
1.036800e-10    4.677168e-09    0.000000e+00
1.203151e-10    4.705338e-09    0.000000e+00
1.222231e-10    4.677366e-09    0.000000e+00
1.415675e-10    4.706734e-09    0.000000e+00
3.594596e-10    4.809983e-09    0.000000e+00
3.094315e-10    4.825636e-09    0.000000e+00
4.129418e-10    4.872668e-09    0.000000e+00
3.133871e-10    4.756071e-09    0.000000e+00
4.152100e-10    4.787227e-09    0.000000e+00
2.674226e-10    4.772692e-09    0.000000e+00
4.730449e-10    4.850723e-09    0.000000e+00
1.314751e-09    5.110297e-09    0.000000e+00
1.233241e-09    5.146885e-09    0.000000e+00
1.418456e-09    5.198383e-09    0.000000e+00
1.208414e-09    5.013639e-09    0.000000e+00
1.389969e-09    5.078242e-09    0.000000e+00
9.401019e-10    4.996111e-09    0.000000e+00
8.570562e-10    5.033595e-09    0.000000e+00
1.041689e-09    5.090872e-09    0.000000e+00
8.452255e-10    4.905667e-09    0.000000e+00
1.023106e-09    4.956243e-09    0.000000e+00
7.654538e-10    4.943737e-09    0.000000e+00
1.126503e-09    5.051946e-09    0.000000e+00
1.632733e-09    5.228637e-09    0.000000e+00
1.578895e-09    5.241552e-09    0.000000e+00
1.683512e-09    5.268354e-09    0.000000e+00
1.551123e-09    5.150506e-09    0.000000e+00
1.675669e-09    5.228590e-09    0.000000e+00
1.489990e-09    5.169812e-09    0.000000e+00
1.712917e-09    5.273198e-09    0.000000e+00
1.178891e-09    4.307421e-09    0.000000e+00
1.108582e-09    4.376328e-09    0.000000e+00
1.204879e-09    4.282415e-09    0.000000e+00
1.189335e-09    4.276996e-09    0.000000e+00
1.136218e-09    4.316195e-09    0.000000e+00
1.220422e-09    4.265769e-09    0.000000e+00
1.187712e-09    4.247872e-09    0.000000e+00
1.148978e-09    4.270028e-09    0.000000e+00
1.216489e-09    4.257018e-09    0.000000e+00
1.152807e-09    4.220920e-09    0.000000e+00
1.202303e-09    4.243435e-09    0.000000e+00
1.051883e-09    4.210969e-09    0.000000e+00
1.102753e-09    4.245428e-09    0.000000e+00
9.175188e-10    4.219533e-09    0.000000e+00
9.754985e-10    4.255741e-09    0.000000e+00
7.716738e-10    4.242556e-09    0.000000e+00
8.289585e-10    4.276589e-09    0.000000e+00
6.295762e-10    4.274862e-09    0.000000e+00
6.819194e-10    4.304084e-09    0.000000e+00
5.001848e-10    4.312652e-09    0.000000e+00
5.454422e-10    4.335799e-09    0.000000e+00
3.880808e-10    4.353222e-09    0.000000e+00
4.253993e-10    4.369934e-09    0.000000e+00
2.948771e-10    4.394741e-09    0.000000e+00
3.242841e-10    4.405217e-09    0.000000e+00
2.203146e-10    4.436127e-09    0.000000e+00
2.423331e-10    4.440834e-09    0.000000e+00
1.631372e-10    4.476917e-09    0.000000e+00
1.784908e-10    4.476369e-09    0.000000e+00
1.217670e-10    4.517143e-09    0.000000e+00
1.311617e-10    4.511742e-09    0.000000e+00
9.480465e-11    4.557234e-09    0.000000e+00
9.877435e-11    4.547159e-09    0.000000e+00
8.137605e-11    4.597909e-09    0.000000e+00
8.018460e-11    4.583051e-09    0.000000e+00
7.493881e-11    4.620034e-09    0.000000e+00
6.047302e-11    4.607464e-09    0.000000e+00
6.428433e-11    4.616961e-09    0.000000e+00
6.440261e-11    4.593778e-09    0.000000e+00
6.298297e-11    4.598379e-09    0.000000e+00
8.213291e-11    4.581112e-09    0.000000e+00
7.538607e-11    4.580694e-09    0.000000e+00
1.140652e-10    4.569946e-09    0.000000e+00
1.015890e-10    4.564156e-09    0.000000e+00
1.613149e-10    4.560600e-09    0.000000e+00
1.424757e-10    4.548969e-09    0.000000e+00
2.254532e-10    4.553054e-09    0.000000e+00
1.995121e-10    4.535168e-09    0.000000e+00
3.081050e-10    4.546749e-09    0.000000e+00
2.744055e-10    4.522480e-09    0.000000e+00
4.103818e-10    4.540357e-09    0.000000e+00
3.686089e-10    4.510158e-09    0.000000e+00
5.321191e-10    4.531527e-09    0.000000e+00
4.826419e-10    4.496803e-09    0.000000e+00
6.709190e-10    4.516596e-09    0.000000e+00
6.152161e-10    4.480151e-09    0.000000e+00
8.209092e-10    4.490436e-09    0.000000e+00
7.621237e-10    4.456917e-09    0.000000e+00
9.719617e-10    4.446015e-09    0.000000e+00
9.150677e-10    4.422638e-09    0.000000e+00
1.060945e-09    4.372647e-09    0.000000e+00
2.974756e-10    4.465378e-09    0.000000e+00
3.577110e-10    4.420848e-09    0.000000e+00
2.679833e-10    4.450580e-09    0.000000e+00
3.309901e-10    4.485221e-09    0.000000e+00
2.447967e-10    4.503475e-09    0.000000e+00
7.962115e-10    4.365966e-09    0.000000e+00
8.884807e-10    4.308827e-09    0.000000e+00
7.378378e-10    4.334976e-09    0.000000e+00
8.558481e-10    4.395690e-09    0.000000e+00
7.040539e-10    4.424116e-09    0.000000e+00
1.086821e-09    4.306785e-09    0.000000e+00
1.032595e-09    4.286368e-09    0.000000e+00
1.006223e-09    4.359746e-09    0.000000e+00
9.480923e-10    4.336870e-09    0.000000e+00
5.126615e-10    4.417344e-09    0.000000e+00
5.948521e-10    4.362733e-09    0.000000e+00
4.669681e-10    4.391478e-09    0.000000e+00
5.622513e-10    4.447021e-09    0.000000e+00
4.369475e-10    4.466793e-09    0.000000e+00
6.479312e-10    4.392489e-09    0.000000e+00
3.952542e-10    4.441441e-09    0.000000e+00
1.147267e-10    4.539363e-09    0.000000e+00
1.434133e-10    4.510686e-09    0.000000e+00
1.053656e-10    4.541148e-09    0.000000e+00
1.270254e-10    4.541933e-09    0.000000e+00
9.212187e-11    4.562628e-09    0.000000e+00
2.190819e-10    4.489534e-09    0.000000e+00
1.970583e-10    4.480532e-09    0.000000e+00
1.773569e-10    4.522260e-09    0.000000e+00
1.587371e-10    4.514145e-09    0.000000e+00
6.997313e-11    4.592130e-09    0.000000e+00
8.153534e-11    4.572147e-09    0.000000e+00
7.116050e-11    4.604030e-09    0.000000e+00
7.136216e-11    4.584356e-09    0.000000e+00
6.414257e-11    4.607087e-09    0.000000e+00
8.548679e-11    4.565311e-09    0.000000e+00
6.789532e-11    4.620017e-09    0.000000e+00
-9.808086e-13    -1.528881e-11    0.000000e+00
-5.338259e-15    -1.654758e-11    0.000000e+00
-2.575918e-14    -1.322198e-11    0.000000e+00
-3.145674e-12    -1.742109e-11    0.000000e+00
-1.621424e-12    -1.773558e-11    0.000000e+00
-2.286107e-12    -1.420731e-11    0.000000e+00
-5.972857e-12    -2.142437e-11    0.000000e+00
-3.423299e-12    -2.109494e-11    0.000000e+00
-5.172882e-12    -1.686929e-11    0.000000e+00
-1.003456e-11    -2.672034e-11    0.000000e+00
-5.636797e-12    -2.630045e-11    0.000000e+00
-9.371411e-12    -2.091215e-11    0.000000e+00
-1.611917e-11    -3.176283e-11    0.000000e+00
-8.587006e-12    -3.237398e-11    0.000000e+00
-1.576637e-11    -2.544498e-11    0.000000e+00
-2.561949e-11    -3.303259e-11    0.000000e+00
-1.291261e-11    -3.701105e-11    0.000000e+00
-2.558977e-11    -2.823046e-11    0.000000e+00
-4.087633e-11    -2.330910e-11    0.000000e+00
-2.001540e-11    -3.519083e-11    0.000000e+00
-4.053714e-11    -2.468147e-11    0.000000e+00
-6.794903e-11    1.074971e-11    0.000000e+00
-3.365713e-11    -1.748003e-11    0.000000e+00
-6.369420e-11    -5.112816e-12    0.000000e+00
-1.121098e-10    9.181149e-11    0.000000e+00
-6.027607e-11    3.521376e-11    0.000000e+00
-9.780183e-11    4.416725e-11    0.000000e+00
-2.027391e-10    2.515314e-10    0.000000e+00
-1.165366e-10    1.550459e-10    0.000000e+00
-1.517733e-10    1.492666e-10    0.000000e+00
-2.015791e-10    4.172090e-10    0.000000e+00
-4.405701e-10    7.923014e-10    0.000000e+00
-1.788983e-10    2.979247e-10    0.000000e+00
2.161061e-11    4.526366e-10    0.000000e+00
-7.999867e-11    2.557653e-10    0.000000e+00
-1.082683e-10    7.240407e-10    0.000000e+00
2.893279e-10    4.795481e-10    0.000000e+00
1.295819e-10    2.741945e-10    0.000000e+00
1.822897e-10    7.160713e-10    0.000000e+00
3.508081e-10    3.136292e-10    0.000000e+00
5.196749e-10    7.291787e-10    0.000000e+00
2.029556e-10    9.917221e-11    0.000000e+00
1.921633e-10    1.621695e-10    0.000000e+00
1.107734e-10    1.115426e-11    0.000000e+00
1.144710e-10    3.186970e-11    0.000000e+00
5.756624e-11    -2.354103e-11    0.000000e+00
6.447927e-11    -1.858451e-11    0.000000e+00
2.691381e-11    -3.454944e-11    0.000000e+00
3.357776e-11    -3.590366e-11    0.000000e+00
9.940175e-12    -3.476716e-11    0.000000e+00
1.524828e-11    -3.823131e-11    0.000000e+00
1.452896e-12    -3.081626e-11    0.000000e+00
5.117509e-12    -3.438569e-11    0.000000e+00
-1.837077e-12    -2.611277e-11    0.000000e+00
2.765441e-13    -2.886117e-11    0.000000e+00
-2.116810e-12    -2.237304e-11    0.000000e+00
-1.308372e-12    -2.395898e-11    0.000000e+00
-8.642933e-13    -2.036440e-11    0.000000e+00
-1.057101e-12    -2.074324e-11    0.000000e+00
3.980869e-14    -1.965191e-11    0.000000e+00
2.011423e-14    -1.860600e-11    0.000000e+00
-4.743228e-13    -1.948822e-11    0.000000e+00
-6.276396e-13    -1.806129e-11    0.000000e+00
3.321984e-12    -4.054538e-11    0.000000e+00
1.567702e-11    -4.071994e-11    0.000000e+00
6.263904e-12    -3.803442e-11    0.000000e+00
-5.158932e-12    -4.029546e-11    0.000000e+00
-4.439474e-12    -3.732292e-11    0.000000e+00
2.108144e-11    2.289357e-11    0.000000e+00
8.573460e-11    7.200018e-11    0.000000e+00
5.441143e-11    -5.827332e-12    0.000000e+00
-3.664169e-11    7.416904e-11    0.000000e+00
-1.520707e-11    -3.628690e-12    0.000000e+00
2.009554e-11    1.438436e-10    0.000000e+00
1.587392e-11    -2.504708e-11    0.000000e+00
3.118937e-11    -3.406676e-11    0.000000e+00
-7.338007e-12    -3.346976e-11    0.000000e+00
8.830186e-12    -4.003521e-11    0.000000e+00
-1.419567e-12    -2.882357e-11    0.000000e+00
1.247184e-12    -3.215571e-11    0.000000e+00
-8.346224e-13    -2.624402e-11    0.000000e+00
-3.800285e-12    -3.111665e-11    0.000000e+00
-2.922931e-12    -2.498941e-11    0.000000e+00
2.100168e-14    -3.529238e-11    0.000000e+00
-1.570308e-12    -2.334212e-11    0.000000e+00
-1.124646e-12    -2.181060e-11    0.000000e+00
-1.834956e-12    -2.044139e-11    0.000000e+00
-9.573380e-13    -1.981923e-11    0.000000e+00
-5.253525e-10    1.542247e-09    0.000000e+00
-3.169575e-10    1.109556e-09    0.000000e+00
-3.994563e-10    2.294698e-09    0.000000e+00
-2.804732e-10    1.861357e-09    0.000000e+00
-1.371394e-10    2.970017e-09    0.000000e+00
-9.210539e-11    2.572706e-09    0.000000e+00
1.961357e-10    3.503131e-09    0.000000e+00
1.850103e-10    3.176427e-09    0.000000e+00
5.352754e-10    3.879272e-09    0.000000e+00
4.924995e-10    3.635194e-09    0.000000e+00
8.307980e-10    4.110199e-09    0.000000e+00
7.790764e-10    3.948400e-09    0.000000e+00
1.048649e-09    4.223652e-09    0.000000e+00
1.007198e-09    4.134521e-09    0.000000e+00
1.172711e-09    4.255711e-09    0.000000e+00
1.154073e-09    4.223635e-09    0.000000e+00
1.212646e-09    4.250549e-09    0.000000e+00
1.253160e-09    4.160225e-09    0.000000e+00
1.241323e-09    4.228609e-09    0.000000e+00
1.256365e-09    3.987359e-09    0.000000e+00
1.251437e-09    4.110306e-09    0.000000e+00
1.214631e-09    3.745372e-09    0.000000e+00
1.205469e-09    3.932172e-09    0.000000e+00
1.134025e-09    3.417804e-09    0.000000e+00
1.107136e-09    3.672268e-09    0.000000e+00
1.026071e-09    2.996468e-09    0.000000e+00
9.676727e-10    3.312692e-09    0.000000e+00
9.052612e-10    2.486096e-09    0.000000e+00
8.058949e-10    2.847213e-09    0.000000e+00
7.832985e-10    1.905302e-09    0.000000e+00
6.437932e-10    2.283767e-09    0.000000e+00
6.609262e-10    1.293983e-09    0.000000e+00
5.007509e-10    1.650561e-09    0.000000e+00
3.855176e-10    1.007223e-09    0.000000e+00
7.386899e-10    3.476460e-09    0.000000e+00
4.903880e-10    3.337032e-09    0.000000e+00
7.539279e-10    3.730218e-09    0.000000e+00
7.628720e-10    3.173789e-09    0.000000e+00
9.531307e-10    3.579638e-09    0.000000e+00
1.151634e-10    1.747784e-09    0.000000e+00
-1.129645e-10    1.433312e-09    0.000000e+00
9.111007e-12    2.154044e-09    0.000000e+00
2.583987e-10    1.353432e-09    0.000000e+00
3.865356e-10    2.029631e-09    0.000000e+00
3.820291e-11    1.045093e-09    0.000000e+00
2.809483e-10    2.425547e-09    0.000000e+00
2.259346e-10    2.806028e-09    0.000000e+00
5.637913e-10    2.651494e-09    0.000000e+00
5.024284e-10    3.012655e-09    0.000000e+00
1.115852e-09    4.035115e-09    0.000000e+00
9.779060e-10    3.992988e-09    0.000000e+00
1.136175e-09    4.148120e-09    0.000000e+00
1.107953e-09    3.872284e-09    0.000000e+00
1.208720e-09    4.068200e-09    0.000000e+00
9.525556e-10    3.812775e-09    0.000000e+00
1.211811e-09    4.167884e-09    0.000000e+00
1.216001e-09    4.225757e-09    0.000000e+00
1.246281e-09    4.191049e-09    0.000000e+00
1.234884e-09    4.239616e-09    0.000000e+00
0.000000e+00    0.000000e+00    0.000000e+00
-7.811690e-15    -1.315034e-12    0.000000e+00
0.000000e+00    0.000000e+00    0.000000e+00
-6.697123e-13    -1.373081e-12    0.000000e+00
0.000000e+00    0.000000e+00    0.000000e+00
-1.594192e-12    -1.476620e-12    0.000000e+00
0.000000e+00    0.000000e+00    0.000000e+00
-3.058602e-12    -1.567977e-12    0.000000e+00
0.000000e+00    0.000000e+00    0.000000e+00
-5.400127e-12    -1.504196e-12    0.000000e+00
0.000000e+00    0.000000e+00    0.000000e+00
-8.985013e-12    -1.012623e-12    0.000000e+00
0.000000e+00    0.000000e+00    0.000000e+00
-1.405286e-11    3.923874e-13    0.000000e+00
0.000000e+00    0.000000e+00    0.000000e+00
-2.030436e-11    3.450776e-12    0.000000e+00
0.000000e+00    0.000000e+00    0.000000e+00
-2.599207e-11    9.064271e-12    0.000000e+00
0.000000e+00    0.000000e+00    0.000000e+00
-2.703377e-11    1.754990e-11    0.000000e+00
-1.225530e-11    2.870742e-11    0.000000e+00
-5.283256e-11    9.367074e-11    0.000000e+00
-4.318454e-11    4.998552e-11    0.000000e+00
-9.614527e-11    1.658062e-10    0.000000e+00
-8.547327e-11    1.093962e-10    0.000000e+00
-1.457430e-10    1.860822e-10    0.000000e+00
-3.259651e-14    -9.100812e-12    0.000000e+00
-1.168219e-12    -1.146765e-11    0.000000e+00
-2.464665e-14    -4.850044e-12    0.000000e+00
-1.053705e-12    -7.084064e-12    0.000000e+00
-6.186824e-13    -3.009857e-12    0.000000e+00
-2.913780e-11    -1.724357e-11    0.000000e+00
-3.600844e-11    -2.192439e-11    0.000000e+00
-2.247849e-11    -2.231683e-11    0.000000e+00
-2.308452e-11    -7.259367e-12    0.000000e+00
-3.419373e-11    -1.077978e-11    0.000000e+00
-2.144780e-11    -1.216365e-11    0.000000e+00
-2.120269e-11    -2.605612e-12    0.000000e+00
-1.323502e-11    -3.963143e-12    0.000000e+00
-9.200927e-11    3.952414e-11    0.000000e+00
-1.153893e-10    8.099435e-11    0.000000e+00
-8.290239e-11    1.726824e-11    0.000000e+00
-6.586967e-11    2.617854e-11    0.000000e+00
-8.776573e-11    5.545342e-11    0.000000e+00
-7.148581e-11    1.665722e-11    0.000000e+00
-5.006896e-11    2.703409e-11    0.000000e+00
-4.322302e-11    1.056424e-11    0.000000e+00
-1.110857e-10    1.041791e-10    0.000000e+00
-7.031199e-11    6.037583e-11    0.000000e+00
-5.129055e-11    -3.282406e-12    0.000000e+00
-4.535662e-11    -1.314739e-11    0.000000e+00
-3.569089e-11    -3.955199e-12    0.000000e+00
-6.714427e-11    2.495247e-12    0.000000e+00
-5.128145e-11    5.536407e-12    0.000000e+00
-5.551436e-11    -1.229053e-11    0.000000e+00
-3.172064e-11    1.470229e-12    0.000000e+00
-1.038258e-11    -1.382339e-11    0.000000e+00
-1.350743e-11    -1.928691e-11    0.000000e+00
-7.674230e-12    -1.575094e-11    0.000000e+00
-8.103403e-12    -6.816270e-12    0.000000e+00
-1.278027e-11    -1.105739e-11    0.000000e+00
-7.148202e-12    -9.351350e-12    0.000000e+00
-7.798850e-12    -4.047164e-12    0.000000e+00
-4.302564e-12    -3.680307e-12    0.000000e+00
-1.783042e-11    -1.632116e-11    0.000000e+00
-1.407220e-11    -7.593099e-12    0.000000e+00
-3.537961e-12    -7.911866e-12    0.000000e+00
-2.410697e-12    -9.751664e-12    0.000000e+00
-1.831245e-12    -5.157794e-12    0.000000e+00
-5.583016e-12    -1.140190e-11    0.000000e+00
-4.296993e-12    -5.862780e-12    0.000000e+00
-3.864730e-12    -1.298398e-11    0.000000e+00
-2.099905e-12    -3.273464e-12    0.000000e+00

CELL_DATA      259
TENSORS Element_Stress3.000000e+00 double
-2.453488e+02 -1.061749e+02        0
-1.061749e+02 -4.833526e+01        0
       0        0 4.430990e+01

-2.395605e+02 -8.907591e+01        0
-8.907591e+01 -4.582198e+01        0
       0        0 -1.114434e+02

-2.233584e+02 -1.056439e+02        0
-1.056439e+02 -5.189367e+01        0
       0        0 8.387251e+01

-1.939755e+02 -8.024316e+01        0
-8.024316e+01 -4.529354e+01        0
       0        0 -4.815351e+01

-2.670322e+02 -9.866290e+01        0
-9.866290e+01 -3.643752e+01        0
       0        0 2.082787e+02

-2.690176e+02 -1.054302e+02        0
-1.054302e+02 -4.136755e+01        0
       0        0 2.251776e+02

-2.837728e+02 -9.612194e+01        0
-9.612194e+01 -4.579124e+01        0
       0        0 -1.759021e+02

-2.669670e+02 -1.067699e+02        0
-1.067699e+02 -4.505925e+01        0
       0        0 4.380218e+00

-2.660837e+02 -9.277567e+01        0
-9.277567e+01 -3.226189e+01        0
       0        0 1.908756e+02

-5.111892e+02 -1.620651e+02        0
-1.620651e+02 -7.160025e+01        0
       0        0 -4.632437e+02

2.215790e+02 -7.467757e+01        0
-7.467757e+01 -1.207261e+01        0
       0        0 2.993725e+02

-5.244510e+02 -1.612391e+02        0
-1.612391e+02 -3.039815e+02        0
       0        0 -4.763048e+02

3.544030e+02 -5.889014e+01        0
-5.889014e+01 -4.806733e+01        0
       0        0 3.692618e+02

-1.197901e+03 -1.234646e+02        0
-1.234646e+02 -1.431351e+02        0
       0        0 -1.219219e+03

-1.508867e+03 -3.537345e+02        0
-3.537345e+02 -7.953294e+02        0
       0        0 -1.430526e+03

9.630290e+01 -6.504074e+01        0
-6.504074e+01 -7.245147e+00        0
       0        0 2.274965e+02

-4.815439e+02 -1.479332e+02        0
-1.479332e+02 -3.615093e+01        0
       0        0 -4.426233e+02

-1.041407e+03 -1.210219e+02        0
-1.210219e+02 -7.457441e+01        0
       0        0 -1.094325e+03

-4.409681e+02 -1.322822e+02        0
-1.322822e+02 -3.060263e+01        0
       0        0 -3.735272e+02

-8.067447e+01 -5.754361e+01        0
-5.754361e+01 -9.869632e+00        0
       0        0 1.399523e+02

-4.598125e+02 -1.389878e+02        0
-1.389878e+02 -3.106740e+01        0
       0        0 -4.114665e+02

-3.148536e+00 -5.874026e+01        0
-5.874026e+01 -8.117607e+00        0
       0        0 1.747479e+02

-8.064562e+02 -1.266365e+02        0
-1.266365e+02 -4.906872e+01        0
       0        0 -8.726819e+02

-9.150999e+02 -1.251057e+02        0
-1.251057e+02 -5.682788e+01        0
       0        0 -9.813022e+02

-1.405445e+02 -5.916951e+01        0
-5.916951e+01 -1.181557e+01        0
       0        0 1.195954e+02

-4.217186e+02 -1.267441e+02        0
-1.267441e+02 -3.135073e+01        0
       0        0 -3.307621e+02

-7.119011e+02 -1.262283e+02        0
-1.262283e+02 -4.570135e+01        0
       0        0 -7.689213e+02

-3.805994e+02 -1.181217e+02        0
-1.181217e+02 -3.410976e+01        0
       0        0 -2.366796e+02

-2.176400e+02 -6.669591e+01        0
-6.669591e+01 -1.628851e+01        0
       0        0 1.116192e+02

-4.015947e+02 -1.220772e+02        0
-1.220772e+02 -3.262671e+01        0
       0        0 -2.847665e+02

-1.854017e+02 -6.245384e+01        0
-6.245384e+01 -1.396150e+01        0
       0        0 1.109071e+02

-5.563973e+02 -1.214108e+02        0
-1.214108e+02 -4.365910e+01        0
       0        0 -5.762196e+02

-6.291965e+02 -1.243558e+02        0
-1.243558e+02 -4.419100e+01        0
       0        0 -6.700937e+02

-2.395234e+02 -7.144695e+01        0
-7.144695e+01 -1.881706e+01        0
       0        0 1.197705e+02

-3.588088e+02 -1.147956e+02        0
-1.147956e+02 -3.571549e+01        0
       0        0 -1.873914e+02

-4.917460e+02 -1.176760e+02        0
-1.176760e+02 -4.361837e+01        0
       0        0 -4.871306e+02

-3.132153e+02 -1.097838e+02        0
-1.097838e+02 -3.942627e+01        0
       0        0 -8.788662e+01

-2.608771e+02 -8.163140e+01        0
-8.163140e+01 -2.466564e+01        0
       0        0 1.515843e+02

-3.363082e+02 -1.120335e+02        0
-1.120335e+02 -3.746383e+01        0
       0        0 -1.375977e+02

-2.532390e+02 -7.645460e+01        0
-7.645460e+01 -2.158640e+01        0
       0        0 1.336201e+02

-3.801383e+02 -1.083169e+02        0
-1.083169e+02 -4.414948e+01        0
       0        0 -3.220027e+02

-4.335465e+02 -1.133056e+02        0
-1.133056e+02 -4.382695e+01        0
       0        0 -4.025250e+02

-2.644750e+02 -8.708916e+01        0
-8.708916e+01 -2.817089e+01        0
       0        0 1.719878e+02

-2.896314e+02 -1.079698e+02        0
-1.079698e+02 -4.185046e+01        0
       0        0 -3.917110e+01

-3.299707e+02 -1.025678e+02        0
-1.025678e+02 -4.445685e+01        0
       0        0 -2.452870e+02

-2.727853e+02 -1.134106e+02        0
-1.134106e+02 -4.725529e+01        0
       0        0 2.403827e+02

-2.010907e+02 -1.050610e+02        0
-1.050610e+02 -5.596414e+01        0
       0        0 1.218824e+02

-1.463541e+02 -6.925704e+01        0
-6.925704e+01 -4.402404e+01        0
       0        0 1.376573e+01

-2.880882e+02 -1.343024e+02        0
-1.343024e+02 -6.288176e+01        0
       0        0 2.624799e+02

-2.789488e+02 -1.229249e+02        0
-1.229249e+02 -5.434151e+01        0
       0        0 2.530917e+02

-4.264347e+01 -3.902613e+01        0
-3.902613e+01 -3.802670e+01        0
       0        0 1.337140e+02

-1.560549e+02 -1.035033e+02        0
-1.035033e+02 -6.577982e+01        0
       0        0 1.914148e+02

-9.607225e+01 -5.567620e+01        0
-5.567620e+01 -4.170595e+01        0
       0        0 7.440195e+01

-1.786324e+02 -1.043662e+02        0
-1.043662e+02 -6.058704e+01        0
       0        0 1.578883e+02

-3.006747e+02 -1.479581e+02        0
-1.479581e+02 -7.318215e+01        0
       0        0 2.676783e+02

-1.335138e+02 -1.024201e+02        0
-1.024201e+02 -7.149190e+01        0
       0        0 2.218889e+02

1.442264e+01 -1.890765e+01        0
-1.890765e+01 -3.244623e+01        0
       0        0 1.916045e+02

-3.375944e+02 -1.833489e+02        0
-1.833489e+02 -1.000339e+02        0
       0        0 2.618863e+02

-3.173266e+02 -1.638999e+02        0
-1.638999e+02 -8.520948e+01        0
       0        0 2.677972e+02

1.415069e+02 3.385757e+01        0
3.385757e+01 -1.426434e+01        0
       0        0 3.017445e+02

-9.099756e+01 -9.979120e+01        0
-9.979120e+01 -8.450732e+01        0
       0        0 2.701507e+02

7.560781e+01 5.105682e+00        0
5.105682e+00 -2.504322e+01        0
       0        0 2.476454e+02

-1.112058e+02 -1.013678e+02        0
-1.013678e+02 -7.762235e+01        0
       0        0 2.486301e+02

-3.641655e+02 -2.018927e+02        0
-2.018927e+02 -1.151486e+02        0
       0        0 2.491348e+02

-7.330272e+01 -9.624342e+01        0
-9.624342e+01 -1.031393e+02        0
       0        0 2.823881e+02

1.964726e+02 7.230230e+01        0
7.230230e+01 -1.390603e+00        0
       0        0 3.477855e+02

-3.961064e+02 -2.189431e+02        0
-2.189431e+02 -4.016933e+02        0
       0        0 1.397791e+02

-3.937512e+02 -2.390202e+02        0
-2.390202e+02 -1.828846e+02        0
       0        0 2.147951e+02

4.513429e+01 1.342690e+02        0
1.342690e+02 1.179559e+02        0
       0        0 3.691187e+02

-1.222401e+02 4.897151e+01        0
4.897151e+01 -1.006508e+02        0
       0        0 2.812175e+02

1.624003e+02 1.241650e+02        0
1.241650e+02 2.963549e+01        0
       0        0 3.652287e+02

-6.709444e+01 -3.572369e+01        0
-3.572369e+01 -1.338437e+02        0
       0        0 2.832960e+02

5.563585e+00 -9.535584e+00        0
-9.535584e+00 -2.741774e+02        0
       0        0 2.501307e+02

4.556321e+00 -3.511466e+01        0
-3.511466e+01 8.369656e+00        0
       0        0 2.929691e+02

6.149516e+00 -5.567816e+01        0
-5.567816e+01 1.050958e+02        0
       0        0 3.523600e+02

5.554627e+00 -1.913028e+01        0
-1.913028e+01 -1.170309e+02        0
       0        0 1.848325e+02

3.909788e+00 -5.969816e+00        0
-5.969816e+00 -9.723411e+01        0
       0        0 1.941031e+02

8.032715e+00 -3.253413e+01        0
-3.253413e+01 -1.185040e+02        0
       0        0 2.237246e+02

4.841847e+00 -8.420906e+00        0
-8.420906e+00 -1.397336e+02        0
       0        0 2.199714e+02

1.171428e+00 -5.708600e+00        0
-5.708600e+00 -1.166614e+02        0
       0        0 1.801664e+02

2.792644e+00 -1.875036e+01        0
-1.875036e+01 -6.457615e+01        0
       0        0 2.344574e+02

2.062191e+00 4.351215e-01        0
4.351215e-01 -1.153940e+02        0
       0        0 1.122610e+02

2.027410e+00 -4.666153e-01        0
-4.666153e-01 -5.097932e+01        0
       0        0 1.359388e+02

3.650843e+00 -8.197730e+00        0
-8.197730e+00 -1.160483e+02        0
       0        0 1.471149e+02

2.913851e+00 -3.161528e+00        0
-3.161528e+00 -6.846212e+01        0
       0        0 1.653142e+02

-8.362936e-01 1.110861e+01        0
1.110861e+01 -1.735662e+02        0
       0        0 9.065817e+01

1.002570e-02 4.035047e+00        0
4.035047e+00 -1.519030e+02        0
       0        0 1.319281e+02

-1.468240e-01 1.157248e+01        0
1.157248e+01 -1.149921e+02        0
       0        0 5.474744e+01

5.695217e-01 4.187969e+00        0
4.187969e+00 -3.998446e+01        0
       0        0 8.166931e+01

8.052256e-01 6.940940e+00        0
6.940940e+00 -1.150535e+02        0
       0        0 8.130661e+01

1.237233e+00 2.020001e+00        0
2.020001e+00 -4.223560e+01        0
       0        0 1.076740e+02

-1.782897e+00 1.885693e+01        0
1.885693e+01 -1.885404e+02        0
       0        0 2.926952e+01

-1.421239e+00 1.590408e+01        0
1.590408e+01 -1.848377e+02        0
       0        0 5.654058e+01

-1.257289e+00 1.630693e+01        0
1.630693e+01 -1.155484e+02        0
       0        0 1.497004e+01

-3.873549e-01 7.369972e+00        0
7.369972e+00 -4.734481e+01        0
       0        0 3.895620e+01

-8.225391e-01 1.460189e+01        0
1.460189e+01 -1.151707e+02        0
       0        0 3.268911e+01

2.821641e-02 5.980841e+00        0
5.980841e+00 -4.224688e+01        0
       0        0 5.863726e+01

-2.019202e+00 2.082594e+01        0
2.082594e+01 -1.826846e+02        0
       0        0 -7.459403e+00

-1.968802e+00 2.037397e+01        0
2.037397e+01 -1.871369e+02        0
       0        0 8.205807e+00

-1.549838e+00 1.678949e+01        0
1.678949e+01 -1.167315e+02        0
       0        0 -8.804542e+00

-8.691278e-01 8.938739e+00        0
8.938739e+00 -6.078713e+01        0
       0        0 1.003931e+01

-1.487639e+00 1.695415e+01        0
1.695415e+01 -1.160853e+02        0
       0        0 1.268752e+00

-6.832002e-01 8.351558e+00        0
8.351558e+00 -5.389493e+01        0
       0        0 2.276339e+01

-1.855165e+00 1.978156e+01        0
1.978156e+01 -1.708957e+02        0
       0        0 -2.599089e+01

-1.970282e+00 2.053677e+01        0
2.053677e+01 -1.768437e+02        0
       0        0 -1.858589e+01

-9.531839e-01 9.145297e+00        0
9.145297e+00 -6.707775e+01        0
       0        0 7.026206e-01

-1.478607e+00 1.601973e+01        0
1.601973e+01 -1.172535e+02        0
       0        0 -1.558538e+01

-1.698426e+00 1.878435e+01        0
1.878435e+01 -1.656921e+02        0
       0        0 -3.035290e+01

1.282096e+01 -6.682813e+01        0
-6.682813e+01 -1.281359e+02        0
       0        0 2.915742e+02

6.258434e+00 -1.090841e+01        0
-1.090841e+01 -1.993539e+02        0
       0        0 2.397961e+02

1.054670e+01 -4.789858e+01        0
-4.789858e+01 -1.204778e+02        0
       0        0 2.610447e+02

-3.485895e+01 5.830870e+01        0
5.830870e+01 2.059667e+02        0
       0        0 3.837033e+02

-2.115702e+01 -4.133919e+01        0
-4.133919e+01 1.962152e+02        0
       0        0 3.877511e+02

-1.690627e+02 -1.143692e+02        0
-1.143692e+02 -5.122118e+02        0
       0        0 1.670726e+02

-1.538249e+02 -1.781928e+01        0
-1.781928e+01 -5.007858e+01        0
       0        0 2.929544e+02

-5.914464e+00 -2.182374e+01        0
-2.182374e+01 -3.888017e+02        0
       0        0 2.377466e+02

-3.572563e+01 -7.836337e+01        0
-7.836337e+01 -1.109092e+02        0
       0        0 3.047173e+02

-1.503812e+01 1.410283e+01        0
1.410283e+01 2.307659e+01        0
       0        0 2.679955e+02

-3.922618e+01 6.730897e+01        0
6.730897e+01 -1.128747e+02        0
       0        0 2.277598e+02

-3.128797e+01 8.262254e+01        0
8.262254e+01 -2.748392e+02        0
       0        0 1.869111e+02

-9.988240e+00 2.636577e+01        0
2.636577e+01 -3.234559e+01        0
       0        0 2.257609e+02

-1.888847e+01 5.961577e+01        0
5.961577e+01 -1.209595e+02        0
       0        0 1.999331e+02

-1.068251e+01 4.945311e+01        0
4.945311e+01 -2.058392e+02        0
       0        0 1.785573e+02

-6.405905e+00 2.784100e+01        0
2.784100e+01 -8.757871e+01        0
       0        0 1.772359e+02

-8.739150e+00 4.676105e+01        0
4.676105e+01 -1.226573e+02        0
       0        0 1.662635e+02

-3.801260e+00 3.258487e+01        0
3.258487e+01 -1.473884e+02        0
       0        0 1.597865e+02

-3.534963e+00 2.275279e+01        0
2.275279e+01 -1.547167e+02        0
       0        0 9.037365e+01

-4.732759e+00 2.542242e+01        0
2.542242e+01 -1.290387e+02        0
       0        0 1.306915e+02

-1.006100e+00 1.503275e+01        0
1.503275e+01 -8.672242e+01        0
       0        0 1.060787e+02

-3.186969e+00 2.505878e+01        0
2.505878e+01 -1.227339e+02        0
       0        0 9.719436e+01

-2.051075e+00 2.222823e+01        0
2.222823e+01 -1.094869e+02        0
       0        0 1.338125e+02

-5.251961e+00 3.449473e+01        0
3.449473e+01 -1.226923e+02        0
       0        0 1.307120e+02

-1.961205e+00 1.837189e+01        0
1.837189e+01 -1.737276e+02        0
       0        0 3.039910e+01

-2.625873e+00 2.035786e+01        0
2.035786e+01 -1.684122e+02        0
       0        0 5.701453e+01

-1.107073e-01 7.615297e+00        0
7.615297e+00 -7.064147e+01        0
       0        0 5.524257e+01

-8.610674e-01 1.378559e+01        0
1.378559e+01 -1.226143e+02        0
       0        0 4.243820e+01

-4.023271e-01 1.034011e+01        0
1.034011e+01 -7.493986e+01        0
       0        0 7.934042e+01

-1.757441e+00 1.828646e+01        0
1.828646e+01 -1.227466e+02        0
       0        0 6.752363e+01

-1.513845e+00 1.687427e+01        0
1.687427e+01 -1.736707e+02        0
       0        0 9.847599e+00

-3.828908e-01 1.114583e+01        0
1.114583e+01 -1.223276e+02        0
       0        0 2.205337e+01

-4.769305e-02 6.339794e+00        0
6.339794e+00 -7.088942e+01        0
       0        0 3.467934e+01

-1.130268e+00 1.542848e+01        0
1.542848e+01 -1.666313e+02        0
       0        0 -1.668000e+01

-1.248376e+00 1.589484e+01        0
1.589484e+01 -1.706745e+02        0
       0        0 -5.536147e+00

-3.046177e-01 6.425241e+00        0
6.425241e+00 -7.624718e+01        0
       0        0 5.423787e+00

-2.747277e-01 9.904155e+00        0
9.904155e+00 -1.213003e+02        0
       0        0 -5.746108e+00

-1.335143e-01 6.067492e+00        0
6.067492e+00 -7.335171e+01        0
       0        0 1.804213e+01

-2.184801e-01 9.972057e+00        0
9.972057e+00 -1.218860e+02        0
       0        0 6.127245e+00

-1.209504e+00 1.588089e+01        0
1.588089e+01 -1.605940e+02        0
       0        0 -2.937096e+01

-1.127149e+00 1.544235e+01        0
1.544235e+01 -1.629462e+02        0
       0        0 -2.441181e+01

-7.073979e-01 7.889338e+00        0
7.889338e+00 -7.861786e+01        0
       0        0 -7.968614e+00

-7.472164e-01 1.184566e+01        0
1.184566e+01 -1.197679e+02        0
       0        0 -1.895407e+01

-5.096992e-01 7.111919e+00        0
7.111919e+00 -7.828756e+01        0
       0        0 -3.222594e+00

-4.730826e-01 1.062272e+01        0
1.062272e+01 -1.205871e+02        0
       0        0 -1.399211e+01

-1.522893e+00 1.769079e+01        0
1.769079e+01 -1.619146e+02        0
       0        0 -3.228033e+01

-1.350543e+00 1.666528e+01        0
1.666528e+01 -1.601681e+02        0
       0        0 -3.195325e+01

-9.514770e-01 9.016964e+00        0
9.016964e+00 -7.263634e+01        0
       0        0 -5.760399e+00

-1.300384e+00 1.479995e+01        0
1.479995e+01 -1.179257e+02        0
       0        0 -1.962680e+01

-8.650896e-01 8.571903e+00        0
8.571903e+00 -7.677052e+01        0
       0        0 -8.836676e+00

-1.040199e+00 1.331800e+01        0
1.331800e+01 -1.188698e+02        0
       0        0 -2.082784e+01

3.798332e+02 -7.245474e+01        0
-7.245474e+01 2.848860e+00        0
       0        0 1.881362e+02

4.835057e+02 -2.351958e+01        0
-2.351958e+01 -2.178682e+01        0
       0        0 2.445206e+02

-2.671795e+02 1.338856e+01        0
1.338856e+01 -9.330501e+00        0
       0        0 -1.234532e+02

-5.590154e-02 -9.968928e+01        0
-9.968928e+01 1.261116e+01        0
       0        0 1.479064e+01

-5.662346e+02 1.205344e+02        0
1.205344e+02 -3.060551e+02        0
       0        0 -3.286584e+02

-6.419861e+01 -7.075900e+00        0
-7.075900e+00 -1.396937e+02        0
       0        0 -5.150093e+01

2.462429e+02 -5.336954e+01        0
-5.336954e+01 7.704377e+00        0
       0        0 1.242329e+02

3.863952e+01 -8.866382e+01        0
-8.866382e+01 3.339442e+01        0
       0        0 3.224930e+01

-1.183909e+02 -3.897606e+01        0
-3.897606e+01 3.969992e+01        0
       0        0 -4.834678e+01

9.039205e+01 -2.264008e+01        0
-2.264008e+01 3.480482e+00        0
       0        0 4.553563e+01

1.523446e+02 -3.449895e+01        0
-3.449895e+01 5.190818e+00        0
       0        0 7.734424e+01

-2.396965e+01 -4.425266e+01        0
-4.425266e+01 3.413763e+01        0
       0        0 -9.078948e+00

3.316167e+01 -4.780648e+01        0
-4.780648e+01 1.849138e+01        0
       0        0 1.980909e+01

-5.285754e+01 -4.958882e+01        0
-4.958882e+01 4.029095e+01        0
       0        0 -2.020354e+01

4.378169e+01 -6.662671e+01        0
-6.662671e+01 2.538318e+01        0
       0        0 2.857406e+01

2.330346e+01 -9.520535e+00        0
-9.520535e+00 1.810150e+00        0
       0        0 9.907118e+00

4.968337e+01 -1.484857e+01        0
-1.484857e+01 2.432442e+00        0
       0        0 2.410277e+01

-7.261219e+00 -2.383733e+01        0
-2.383733e+01 2.273015e+01        0
       0        0 -3.744491e+00

1.024210e+01 -2.200021e+01        0
-2.200021e+01 1.066671e+01        0
       0        0 5.073895e+00

-1.220528e+01 -3.412510e+01        0
-3.412510e+01 2.811317e+01        0
       0        0 -5.011542e+00

2.061243e+01 -3.320727e+01        0
-3.320727e+01 1.385657e+01        0
       0        0 1.152957e+01

6.969439e+00 -5.746160e+00        0
-5.746160e+00 1.377765e+00        0
       0        0 8.999018e-01

2.984837e+00 -1.358672e+01        0
-1.358672e+01 8.324357e+00        0
       0        0 5.472450e-01

-5.185275e+00 -1.515080e+01        0
-1.515080e+01 1.825954e+01        0
       0        0 -3.584635e+00

-6.567629e+00 -9.260459e-01        0
-9.260459e-01 9.656419e-01        0
       0        0 -6.660990e+00

-2.297418e+00 -3.033570e+00        0
-3.033570e+00 1.098527e+00        0
       0        0 -4.331828e+00

-3.957429e+00 -2.602055e+00        0
-2.602055e+00 1.351849e+01        0
       0        0 -3.900811e+00

-3.525545e+00 -2.287731e+00        0
-2.287731e+00 5.993676e+00        0
       0        0 -3.547133e+00

-4.307106e+00 -8.237902e+00        0
-8.237902e+00 1.508771e+01        0
       0        0 -3.748743e+00

-1.422487e+00 -7.278918e+00        0
-7.278918e+00 6.755863e+00        0
       0        0 -2.253623e+00

-4.125820e+02 1.874403e+02        0
1.874403e+02 -4.587678e+01        0
       0        0 -2.493392e+02

-8.092922e+02 3.007477e+02        0
3.007477e+02 -1.868391e+02        0
       0        0 -4.054664e+02

4.690187e+01 1.338282e+02        0
1.338282e+02 -4.562914e+01        0
       0        0 1.666687e+02

-1.614565e+02 2.523198e+02        0
2.523198e+02 -6.910111e+01        0
       0        0 -4.212579e+01

3.501789e+02 8.502511e+01        0
8.502511e+01 -2.985128e+01        0
       0        0 2.338745e+02

-1.601275e+02 2.497977e+02        0
2.497977e+02 -1.536031e+02        0
       0        0 -8.050720e+01

-1.530353e+02 1.244050e+02        0
1.244050e+02 -6.384754e+01        0
       0        0 -1.287040e+02

-1.269785e+02 2.017477e+02        0
2.017477e+02 -1.150341e+02        0
       0        0 -6.041859e+00

-1.943008e+02 1.653871e+02        0
1.653871e+02 -9.421006e+01        0
       0        0 1.115077e+02

5.879359e+01 -1.667959e+01        0
-1.667959e+01 -1.646262e+01        0
       0        0 1.110796e+02

-5.657925e+00 4.984133e+01        0
4.984133e+01 -5.044891e+01        0
       0        0 -2.870112e+00

-3.511663e+02 2.572722e+02        0
2.572722e+02 -2.166438e+02        0
       0        0 9.906207e+01

-1.083368e+02 1.145408e+02        0
1.145408e+02 -1.405145e+02        0
       0        0 1.095349e+02

-3.183715e+02 2.147734e+02        0
2.147734e+02 -1.523117e+02        0
       0        0 9.273559e+01

-1.114786e+02 1.518587e+02        0
1.518587e+02 -1.387340e+02        0
       0        0 4.848940e+01

4.955892e+01 -7.081212e+01        0
-7.081212e+01 6.512219e+01        0
       0        0 2.675601e+02

6.846512e+01 -5.764948e+01        0
-5.764948e+01 2.706251e+01        0
       0        0 2.030701e+02

-2.594960e+02 2.672029e+02        0
2.672029e+02 -3.258173e+02        0
       0        0 1.433583e+02

-1.037519e+02 7.838119e+01        0
7.838119e+01 -1.204117e+02        0
       0        0 2.102707e+02

-3.219697e+02 2.761860e+02        0
2.761860e+02 -2.777716e+02        0
       0        0 1.192058e+02

-1.075206e+02 9.083099e+01        0
9.083099e+01 -1.316530e+02        0
       0        0 1.659953e+02

2.218954e+01 -6.091887e+01        0
-6.091887e+01 8.714582e+01        0
       0        0 3.034509e+02

-9.464934e+01 7.326783e+01        0
7.326783e+01 -1.118808e+02        0
       0        0 2.384305e+02

-1.871780e+02 2.342788e+02        0
2.342788e+02 -3.526708e+02        0
       0        0 1.647097e+02

-1.340060e+01 -9.148685e+00        0
-9.148685e+00 6.597767e+01        0
       0        0 2.991539e+02

-9.011078e-01 -3.701971e+01        0
-3.701971e+01 8.757425e+01        0
       0        0 3.126744e+02

-6.960737e+01 1.322624e+02        0
1.322624e+02 -3.286570e+02        0
       0        0 1.861756e+02

-6.137052e+01 6.930583e+01        0
6.930583e+01 -1.065107e+02        0
       0        0 2.455852e+02

-1.208982e+02 1.861256e+02        0
1.861256e+02 -3.543062e+02        0
       0        0 1.793249e+02

-8.015036e+01 7.143502e+01        0
7.143502e+01 -1.079452e+02        0
       0        0 2.496033e+02

-1.740081e+02 1.586341e+02        0
1.586341e+02 -1.587974e+02        0
       0        0 -1.522143e+02

-2.961636e+02 1.430808e+02        0
1.430808e+02 -9.915344e+01        0
       0        0 -1.788297e+02

-1.341060e+02 2.309982e+02        0
2.309982e+02 -4.172930e+02        0
       0        0 -2.163600e+02

-4.202579e+02 3.730884e+02        0
3.730884e+02 -4.918190e+02        0
       0        0 -3.494628e+02

-9.347238e+01 1.224474e+02        0
1.224474e+02 -2.003299e+02        0
       0        0 -1.023845e+02

-1.175641e+02 1.397119e+02        0
1.397119e+02 -1.957998e+02        0
       0        0 -1.303193e+02

-7.939292e+01 1.174337e+02        0
1.174337e+02 -3.258562e+02        0
       0        0 -1.316903e+02

-7.694202e+01 1.597930e+02        0
1.597930e+02 -3.541124e+02        0
       0        0 -1.591969e+02

-7.193029e+01 6.271927e+00        0
6.271927e+00 3.403190e+01        0
       0        0 -4.004230e+01

-6.165253e+01 -2.160343e+01        0
-2.160343e+01 3.952112e+01        0
       0        0 -3.133433e+01

-1.091283e+02 2.807323e+01        0
2.807323e+01 1.342102e+01        0
       0        0 -6.556476e+01

-1.043200e+02 -8.242194e+00        0
-8.242194e+00 3.334091e+01        0
       0        0 -5.416817e+01

-1.532502e+02 7.751526e+01        0
7.751526e+01 -4.169896e+01        0
       0        0 -1.041563e+02

-1.745883e+02 3.553403e+01        0
3.553403e+01 5.113254e+00        0
       0        0 -9.516260e+01

-2.626622e+01 4.795100e+01        0
4.795100e+01 2.877187e+00        0
       0        0 -1.627349e+01

-5.926594e+01 3.080478e+01        0
3.080478e+01 2.111348e+01        0
       0        0 -3.467722e+01

-4.706199e+01 7.286631e+01        0
7.286631e+01 -3.090563e+01        0
       0        0 -3.514241e+01

-8.847574e+01 5.397176e+01        0
5.397176e+01 -9.198471e+00        0
       0        0 -5.864098e+01

-7.229540e+01 1.015590e+02        0
1.015590e+02 -9.531511e+01        0
       0        0 -6.416010e+01

-1.155598e+02 9.122327e+01        0
9.122327e+01 -7.702769e+01        0
       0        0 -9.253431e+01

-2.561806e+01 -3.802253e+00        0
-3.802253e+00 3.543385e+01        0
       0        0 -1.395842e+01

-2.109873e+01 -1.634549e+01        0
-1.634549e+01 3.212002e+01        0
       0        0 -1.142948e+01

-4.426316e+01 -1.841512e+00        0
-1.841512e+00 3.830059e+01        0
       0        0 -2.376728e+01

-3.633898e+01 -2.110838e+01        0
-2.110838e+01 3.729308e+01        0
       0        0 -1.857779e+01

-3.427138e+00 1.727004e+01        0
1.727004e+01 2.268219e+01        0
       0        0 4.766398e-01

-1.946416e+01 8.858809e+00        0
8.858809e+00 3.196560e+01        0
       0        0 -9.852084e+00

-1.204654e+01 2.958914e+01        0
2.958914e+01 1.783123e+01        0
       0        0 -5.297853e+00

-3.569592e+01 1.682474e+01        0
1.682474e+01 3.134564e+01        0
       0        0 -1.912967e+01

-4.244986e+00 -7.029649e-01        0
-7.029649e-01 2.405201e+01        0
       0        0 -4.127396e+00

-4.919707e+00 -1.932472e+00        0
-1.932472e+00 2.026285e+01        0
       0        0 -4.815059e+00

-7.348753e+00 -2.129231e+00        0
-2.129231e+00 2.635531e+01        0
       0        0 -5.382235e+00

-7.203152e+00 -6.087436e+00        0
-6.087436e+00 2.243999e+01        0
       0        0 -5.605326e+00

-1.396728e+01 -3.367084e+00        0
-3.367084e+00 3.057527e+01        0
       0        0 -8.353387e+00

-1.214490e+01 -1.091595e+01        0
-1.091595e+01 2.665885e+01        0
       0        0 -7.567533e+00

4.748510e+00 1.359132e+00        0
1.359132e+00 2.097219e+01        0
       0        0 4.800038e+00

-9.378212e-01 5.658984e-01        0
5.658984e-01 2.413404e+01        0
       0        0 -8.333507e-01

3.737375e+00 4.581873e+00        0
4.581873e+00 2.187624e+01        0
       0        0 4.394784e+00

-3.595285e+00 1.977462e+00        0
1.977462e+00 2.599369e+01        0
       0        0 -1.962256e+00

1.349172e+00 9.445970e+00        0
9.445970e+00 2.299163e+01        0
       0        0 3.233195e+00

-9.305269e+00 4.407202e+00        0
4.407202e+00 2.912230e+01        0
       0        0 -4.648452e+00

