# vtk DataFile Version 3.0
"** Job name: dyn Model name: CAX8R_dyn
** Generated by: Abaqus/CAE 2016"
ASCII
DATASET UNSTRUCTURED_GRID

POINTS       8 double
0.000000e+00 0.000000e+00 0.000000e+00
1.000000e+02 0.000000e+00 0.000000e+00
1.000000e+02 1.000000e+02 0.000000e+00
0.000000e+00 1.000000e+02 0.000000e+00
5.000000e+01 0.000000e+00 0.000000e+00
1.000000e+02 5.000000e+01 0.000000e+00
5.000000e+01 1.000000e+02 0.000000e+00
0.000000e+00 5.000000e+01 0.000000e+00
CELLS       1       9
8       0       1       2       3       4       5       6       7
CELL_TYPES       1
23
POINT_DATA       8
VECTORS DISPLACEMENT_2.000000e-01 double
0.000000e+00    0.000000e+00    0.000000e+00
0.000000e+00    0.000000e+00    0.000000e+00
-4.627195e-14    9.945922e-14    0.000000e+00
5.559854e-14    2.849446e-13    0.000000e+00
0.000000e+00    0.000000e+00    0.000000e+00
-1.805272e-14    4.905313e-14    0.000000e+00
-1.116998e-14    7.965776e-14    0.000000e+00
-1.330502e-14    1.287967e-13    0.000000e+00

CELL_DATA        1
TENSORS Element_Stress2.000000e-01 double
