# vtk DataFile Version 3.0
"problem plate_strain1"
ASCII
DATASET UNSTRUCTURED_GRID

POINTS       9 double
0.000000e+00 0.000000e+00 0.000000e+00
0.000000e+00 1.500000e+00 0.000000e+00
0.000000e+00 3.000000e+00 0.000000e+00
2.500000e+00 0.000000e+00 0.000000e+00
2.500000e+00 1.150000e+00 0.000000e+00
2.500000e+00 2.300000e+00 0.000000e+00
5.000000e+00 0.000000e+00 0.000000e+00
5.000000e+00 8.000000e-01 0.000000e+00
5.000000e+00 1.600000e+00 0.000000e+00
CELLS       4      20
4       0       3       4       1
4       1       4       5       2
4       3       6       7       4
4       4       7       8       5
CELL_TYPES       4
9
9
9
9
POINT_DATA       9
VECTORS DISPLACEMENT double
0.000000e+00    0.000000e+00    0.000000e+00
0.000000e+00    0.000000e+00    0.000000e+00
0.000000e+00    0.000000e+00    0.000000e+00
-2.471745e-06    -3.276276e-06    0.000000e+00
-1.568961e-07    -3.112713e-06    0.000000e+00
1.760602e-06    -3.326438e-06    0.000000e+00
-3.739356e-06    -1.112842e-05    0.000000e+00
-1.131404e-06    -1.074118e-05    0.000000e+00
1.265025e-06    -1.061803e-05    0.000000e+00

CELL_DATA        4
TENSORS Element_Stress double
-4.671021e+03 -1.095205e+03        0
-1.095205e+03 -1.432056e+03        0
       0        0        0
