# vtk DataFile Version 3.0
"2D Beam with 400 elements"
ASCII
DATASET UNSTRUCTURED_GRID

POINTS     451 double
0.000000e+00 0.000000e+00 0.000000e+00
0.000000e+00 5.000000e-02 0.000000e+00
0.000000e+00 1.000000e-01 0.000000e+00
0.000000e+00 1.500000e-01 0.000000e+00
0.000000e+00 2.000000e-01 0.000000e+00
0.000000e+00 2.500000e-01 0.000000e+00
0.000000e+00 3.000000e-01 0.000000e+00
0.000000e+00 3.500000e-01 0.000000e+00
0.000000e+00 4.000000e-01 0.000000e+00
0.000000e+00 4.500000e-01 0.000000e+00
0.000000e+00 5.000000e-01 0.000000e+00
5.000000e-02 0.000000e+00 0.000000e+00
5.000000e-02 5.000000e-02 0.000000e+00
5.000000e-02 1.000000e-01 0.000000e+00
5.000000e-02 1.500000e-01 0.000000e+00
5.000000e-02 2.000000e-01 0.000000e+00
5.000000e-02 2.500000e-01 0.000000e+00
5.000000e-02 3.000000e-01 0.000000e+00
5.000000e-02 3.500000e-01 0.000000e+00
5.000000e-02 4.000000e-01 0.000000e+00
5.000000e-02 4.500000e-01 0.000000e+00
5.000000e-02 5.000000e-01 0.000000e+00
1.000000e-01 0.000000e+00 0.000000e+00
1.000000e-01 5.000000e-02 0.000000e+00
1.000000e-01 1.000000e-01 0.000000e+00
1.000000e-01 1.500000e-01 0.000000e+00
1.000000e-01 2.000000e-01 0.000000e+00
1.000000e-01 2.500000e-01 0.000000e+00
1.000000e-01 3.000000e-01 0.000000e+00
1.000000e-01 3.500000e-01 0.000000e+00
1.000000e-01 4.000000e-01 0.000000e+00
1.000000e-01 4.500000e-01 0.000000e+00
1.000000e-01 5.000000e-01 0.000000e+00
1.500000e-01 0.000000e+00 0.000000e+00
1.500000e-01 5.000000e-02 0.000000e+00
1.500000e-01 1.000000e-01 0.000000e+00
1.500000e-01 1.500000e-01 0.000000e+00
1.500000e-01 2.000000e-01 0.000000e+00
1.500000e-01 2.500000e-01 0.000000e+00
1.500000e-01 3.000000e-01 0.000000e+00
1.500000e-01 3.500000e-01 0.000000e+00
1.500000e-01 4.000000e-01 0.000000e+00
1.500000e-01 4.500000e-01 0.000000e+00
1.500000e-01 5.000000e-01 0.000000e+00
2.000000e-01 0.000000e+00 0.000000e+00
2.000000e-01 5.000000e-02 0.000000e+00
2.000000e-01 1.000000e-01 0.000000e+00
2.000000e-01 1.500000e-01 0.000000e+00
2.000000e-01 2.000000e-01 0.000000e+00
2.000000e-01 2.500000e-01 0.000000e+00
2.000000e-01 3.000000e-01 0.000000e+00
2.000000e-01 3.500000e-01 0.000000e+00
2.000000e-01 4.000000e-01 0.000000e+00
2.000000e-01 4.500000e-01 0.000000e+00
2.000000e-01 5.000000e-01 0.000000e+00
2.500000e-01 0.000000e+00 0.000000e+00
2.500000e-01 5.000000e-02 0.000000e+00
2.500000e-01 1.000000e-01 0.000000e+00
2.500000e-01 1.500000e-01 0.000000e+00
2.500000e-01 2.000000e-01 0.000000e+00
2.500000e-01 2.500000e-01 0.000000e+00
2.500000e-01 3.000000e-01 0.000000e+00
2.500000e-01 3.500000e-01 0.000000e+00
2.500000e-01 4.000000e-01 0.000000e+00
2.500000e-01 4.500000e-01 0.000000e+00
2.500000e-01 5.000000e-01 0.000000e+00
3.000000e-01 0.000000e+00 0.000000e+00
3.000000e-01 5.000000e-02 0.000000e+00
3.000000e-01 1.000000e-01 0.000000e+00
3.000000e-01 1.500000e-01 0.000000e+00
3.000000e-01 2.000000e-01 0.000000e+00
3.000000e-01 2.500000e-01 0.000000e+00
3.000000e-01 3.000000e-01 0.000000e+00
3.000000e-01 3.500000e-01 0.000000e+00
3.000000e-01 4.000000e-01 0.000000e+00
3.000000e-01 4.500000e-01 0.000000e+00
3.000000e-01 5.000000e-01 0.000000e+00
3.500000e-01 0.000000e+00 0.000000e+00
3.500000e-01 5.000000e-02 0.000000e+00
3.500000e-01 1.000000e-01 0.000000e+00
3.500000e-01 1.500000e-01 0.000000e+00
3.500000e-01 2.000000e-01 0.000000e+00
3.500000e-01 2.500000e-01 0.000000e+00
3.500000e-01 3.000000e-01 0.000000e+00
3.500000e-01 3.500000e-01 0.000000e+00
3.500000e-01 4.000000e-01 0.000000e+00
3.500000e-01 4.500000e-01 0.000000e+00
3.500000e-01 5.000000e-01 0.000000e+00
4.000000e-01 0.000000e+00 0.000000e+00
4.000000e-01 5.000000e-02 0.000000e+00
4.000000e-01 1.000000e-01 0.000000e+00
4.000000e-01 1.500000e-01 0.000000e+00
4.000000e-01 2.000000e-01 0.000000e+00
4.000000e-01 2.500000e-01 0.000000e+00
4.000000e-01 3.000000e-01 0.000000e+00
4.000000e-01 3.500000e-01 0.000000e+00
4.000000e-01 4.000000e-01 0.000000e+00
4.000000e-01 4.500000e-01 0.000000e+00
4.000000e-01 5.000000e-01 0.000000e+00
4.500000e-01 0.000000e+00 0.000000e+00
4.500000e-01 5.000000e-02 0.000000e+00
4.500000e-01 1.000000e-01 0.000000e+00
4.500000e-01 1.500000e-01 0.000000e+00
4.500000e-01 2.000000e-01 0.000000e+00
4.500000e-01 2.500000e-01 0.000000e+00
4.500000e-01 3.000000e-01 0.000000e+00
4.500000e-01 3.500000e-01 0.000000e+00
4.500000e-01 4.000000e-01 0.000000e+00
4.500000e-01 4.500000e-01 0.000000e+00
4.500000e-01 5.000000e-01 0.000000e+00
5.000000e-01 0.000000e+00 0.000000e+00
5.000000e-01 5.000000e-02 0.000000e+00
5.000000e-01 1.000000e-01 0.000000e+00
5.000000e-01 1.500000e-01 0.000000e+00
5.000000e-01 2.000000e-01 0.000000e+00
5.000000e-01 2.500000e-01 0.000000e+00
5.000000e-01 3.000000e-01 0.000000e+00
5.000000e-01 3.500000e-01 0.000000e+00
5.000000e-01 4.000000e-01 0.000000e+00
5.000000e-01 4.500000e-01 0.000000e+00
5.000000e-01 5.000000e-01 0.000000e+00
5.500000e-01 0.000000e+00 0.000000e+00
5.500000e-01 5.000000e-02 0.000000e+00
5.500000e-01 1.000000e-01 0.000000e+00
5.500000e-01 1.500000e-01 0.000000e+00
5.500000e-01 2.000000e-01 0.000000e+00
5.500000e-01 2.500000e-01 0.000000e+00
5.500000e-01 3.000000e-01 0.000000e+00
5.500000e-01 3.500000e-01 0.000000e+00
5.500000e-01 4.000000e-01 0.000000e+00
5.500000e-01 4.500000e-01 0.000000e+00
5.500000e-01 5.000000e-01 0.000000e+00
6.000000e-01 0.000000e+00 0.000000e+00
6.000000e-01 5.000000e-02 0.000000e+00
6.000000e-01 1.000000e-01 0.000000e+00
6.000000e-01 1.500000e-01 0.000000e+00
6.000000e-01 2.000000e-01 0.000000e+00
6.000000e-01 2.500000e-01 0.000000e+00
6.000000e-01 3.000000e-01 0.000000e+00
6.000000e-01 3.500000e-01 0.000000e+00
6.000000e-01 4.000000e-01 0.000000e+00
6.000000e-01 4.500000e-01 0.000000e+00
6.000000e-01 5.000000e-01 0.000000e+00
6.500000e-01 0.000000e+00 0.000000e+00
6.500000e-01 5.000000e-02 0.000000e+00
6.500000e-01 1.000000e-01 0.000000e+00
6.500000e-01 1.500000e-01 0.000000e+00
6.500000e-01 2.000000e-01 0.000000e+00
6.500000e-01 2.500000e-01 0.000000e+00
6.500000e-01 3.000000e-01 0.000000e+00
6.500000e-01 3.500000e-01 0.000000e+00
6.500000e-01 4.000000e-01 0.000000e+00
6.500000e-01 4.500000e-01 0.000000e+00
6.500000e-01 5.000000e-01 0.000000e+00
7.000000e-01 0.000000e+00 0.000000e+00
7.000000e-01 5.000000e-02 0.000000e+00
7.000000e-01 1.000000e-01 0.000000e+00
7.000000e-01 1.500000e-01 0.000000e+00
7.000000e-01 2.000000e-01 0.000000e+00
7.000000e-01 2.500000e-01 0.000000e+00
7.000000e-01 3.000000e-01 0.000000e+00
7.000000e-01 3.500000e-01 0.000000e+00
7.000000e-01 4.000000e-01 0.000000e+00
7.000000e-01 4.500000e-01 0.000000e+00
7.000000e-01 5.000000e-01 0.000000e+00
7.500000e-01 0.000000e+00 0.000000e+00
7.500000e-01 5.000000e-02 0.000000e+00
7.500000e-01 1.000000e-01 0.000000e+00
7.500000e-01 1.500000e-01 0.000000e+00
7.500000e-01 2.000000e-01 0.000000e+00
7.500000e-01 2.500000e-01 0.000000e+00
7.500000e-01 3.000000e-01 0.000000e+00
7.500000e-01 3.500000e-01 0.000000e+00
7.500000e-01 4.000000e-01 0.000000e+00
7.500000e-01 4.500000e-01 0.000000e+00
7.500000e-01 5.000000e-01 0.000000e+00
8.000000e-01 0.000000e+00 0.000000e+00
8.000000e-01 5.000000e-02 0.000000e+00
8.000000e-01 1.000000e-01 0.000000e+00
8.000000e-01 1.500000e-01 0.000000e+00
8.000000e-01 2.000000e-01 0.000000e+00
8.000000e-01 2.500000e-01 0.000000e+00
8.000000e-01 3.000000e-01 0.000000e+00
8.000000e-01 3.500000e-01 0.000000e+00
8.000000e-01 4.000000e-01 0.000000e+00
8.000000e-01 4.500000e-01 0.000000e+00
8.000000e-01 5.000000e-01 0.000000e+00
8.500000e-01 0.000000e+00 0.000000e+00
8.500000e-01 5.000000e-02 0.000000e+00
8.500000e-01 1.000000e-01 0.000000e+00
8.500000e-01 1.500000e-01 0.000000e+00
8.500000e-01 2.000000e-01 0.000000e+00
8.500000e-01 2.500000e-01 0.000000e+00
8.500000e-01 3.000000e-01 0.000000e+00
8.500000e-01 3.500000e-01 0.000000e+00
8.500000e-01 4.000000e-01 0.000000e+00
8.500000e-01 4.500000e-01 0.000000e+00
8.500000e-01 5.000000e-01 0.000000e+00
9.000000e-01 0.000000e+00 0.000000e+00
9.000000e-01 5.000000e-02 0.000000e+00
9.000000e-01 1.000000e-01 0.000000e+00
9.000000e-01 1.500000e-01 0.000000e+00
9.000000e-01 2.000000e-01 0.000000e+00
9.000000e-01 2.500000e-01 0.000000e+00
9.000000e-01 3.000000e-01 0.000000e+00
9.000000e-01 3.500000e-01 0.000000e+00
9.000000e-01 4.000000e-01 0.000000e+00
9.000000e-01 4.500000e-01 0.000000e+00
9.000000e-01 5.000000e-01 0.000000e+00
9.500000e-01 0.000000e+00 0.000000e+00
9.500000e-01 5.000000e-02 0.000000e+00
9.500000e-01 1.000000e-01 0.000000e+00
9.500000e-01 1.500000e-01 0.000000e+00
9.500000e-01 2.000000e-01 0.000000e+00
9.500000e-01 2.500000e-01 0.000000e+00
9.500000e-01 3.000000e-01 0.000000e+00
9.500000e-01 3.500000e-01 0.000000e+00
9.500000e-01 4.000000e-01 0.000000e+00
9.500000e-01 4.500000e-01 0.000000e+00
9.500000e-01 5.000000e-01 0.000000e+00
1.000000e+00 0.000000e+00 0.000000e+00
1.000000e+00 5.000000e-02 0.000000e+00
1.000000e+00 1.000000e-01 0.000000e+00
1.000000e+00 1.500000e-01 0.000000e+00
1.000000e+00 2.000000e-01 0.000000e+00
1.000000e+00 2.500000e-01 0.000000e+00
1.000000e+00 3.000000e-01 0.000000e+00
1.000000e+00 3.500000e-01 0.000000e+00
1.000000e+00 4.000000e-01 0.000000e+00
1.000000e+00 4.500000e-01 0.000000e+00
1.000000e+00 5.000000e-01 0.000000e+00
1.050000e+00 0.000000e+00 0.000000e+00
1.050000e+00 5.000000e-02 0.000000e+00
1.050000e+00 1.000000e-01 0.000000e+00
1.050000e+00 1.500000e-01 0.000000e+00
1.050000e+00 2.000000e-01 0.000000e+00
1.050000e+00 2.500000e-01 0.000000e+00
1.050000e+00 3.000000e-01 0.000000e+00
1.050000e+00 3.500000e-01 0.000000e+00
1.050000e+00 4.000000e-01 0.000000e+00
1.050000e+00 4.500000e-01 0.000000e+00
1.050000e+00 5.000000e-01 0.000000e+00
1.100000e+00 0.000000e+00 0.000000e+00
1.100000e+00 5.000000e-02 0.000000e+00
1.100000e+00 1.000000e-01 0.000000e+00
1.100000e+00 1.500000e-01 0.000000e+00
1.100000e+00 2.000000e-01 0.000000e+00
1.100000e+00 2.500000e-01 0.000000e+00
1.100000e+00 3.000000e-01 0.000000e+00
1.100000e+00 3.500000e-01 0.000000e+00
1.100000e+00 4.000000e-01 0.000000e+00
1.100000e+00 4.500000e-01 0.000000e+00
1.100000e+00 5.000000e-01 0.000000e+00
1.150000e+00 0.000000e+00 0.000000e+00
1.150000e+00 5.000000e-02 0.000000e+00
1.150000e+00 1.000000e-01 0.000000e+00
1.150000e+00 1.500000e-01 0.000000e+00
1.150000e+00 2.000000e-01 0.000000e+00
1.150000e+00 2.500000e-01 0.000000e+00
1.150000e+00 3.000000e-01 0.000000e+00
1.150000e+00 3.500000e-01 0.000000e+00
1.150000e+00 4.000000e-01 0.000000e+00
1.150000e+00 4.500000e-01 0.000000e+00
1.150000e+00 5.000000e-01 0.000000e+00
1.200000e+00 0.000000e+00 0.000000e+00
1.200000e+00 5.000000e-02 0.000000e+00
1.200000e+00 1.000000e-01 0.000000e+00
1.200000e+00 1.500000e-01 0.000000e+00
1.200000e+00 2.000000e-01 0.000000e+00
1.200000e+00 2.500000e-01 0.000000e+00
1.200000e+00 3.000000e-01 0.000000e+00
1.200000e+00 3.500000e-01 0.000000e+00
1.200000e+00 4.000000e-01 0.000000e+00
1.200000e+00 4.500000e-01 0.000000e+00
1.200000e+00 5.000000e-01 0.000000e+00
1.250000e+00 0.000000e+00 0.000000e+00
1.250000e+00 5.000000e-02 0.000000e+00
1.250000e+00 1.000000e-01 0.000000e+00
1.250000e+00 1.500000e-01 0.000000e+00
1.250000e+00 2.000000e-01 0.000000e+00
1.250000e+00 2.500000e-01 0.000000e+00
1.250000e+00 3.000000e-01 0.000000e+00
1.250000e+00 3.500000e-01 0.000000e+00
1.250000e+00 4.000000e-01 0.000000e+00
1.250000e+00 4.500000e-01 0.000000e+00
1.250000e+00 5.000000e-01 0.000000e+00
1.300000e+00 0.000000e+00 0.000000e+00
1.300000e+00 5.000000e-02 0.000000e+00
1.300000e+00 1.000000e-01 0.000000e+00
1.300000e+00 1.500000e-01 0.000000e+00
1.300000e+00 2.000000e-01 0.000000e+00
1.300000e+00 2.500000e-01 0.000000e+00
1.300000e+00 3.000000e-01 0.000000e+00
1.300000e+00 3.500000e-01 0.000000e+00
1.300000e+00 4.000000e-01 0.000000e+00
1.300000e+00 4.500000e-01 0.000000e+00
1.300000e+00 5.000000e-01 0.000000e+00
1.350000e+00 0.000000e+00 0.000000e+00
1.350000e+00 5.000000e-02 0.000000e+00
1.350000e+00 1.000000e-01 0.000000e+00
1.350000e+00 1.500000e-01 0.000000e+00
1.350000e+00 2.000000e-01 0.000000e+00
1.350000e+00 2.500000e-01 0.000000e+00
1.350000e+00 3.000000e-01 0.000000e+00
1.350000e+00 3.500000e-01 0.000000e+00
1.350000e+00 4.000000e-01 0.000000e+00
1.350000e+00 4.500000e-01 0.000000e+00
1.350000e+00 5.000000e-01 0.000000e+00
1.400000e+00 0.000000e+00 0.000000e+00
1.400000e+00 5.000000e-02 0.000000e+00
1.400000e+00 1.000000e-01 0.000000e+00
1.400000e+00 1.500000e-01 0.000000e+00
1.400000e+00 2.000000e-01 0.000000e+00
1.400000e+00 2.500000e-01 0.000000e+00
1.400000e+00 3.000000e-01 0.000000e+00
1.400000e+00 3.500000e-01 0.000000e+00
1.400000e+00 4.000000e-01 0.000000e+00
1.400000e+00 4.500000e-01 0.000000e+00
1.400000e+00 5.000000e-01 0.000000e+00
1.450000e+00 0.000000e+00 0.000000e+00
1.450000e+00 5.000000e-02 0.000000e+00
1.450000e+00 1.000000e-01 0.000000e+00
1.450000e+00 1.500000e-01 0.000000e+00
1.450000e+00 2.000000e-01 0.000000e+00
1.450000e+00 2.500000e-01 0.000000e+00
1.450000e+00 3.000000e-01 0.000000e+00
1.450000e+00 3.500000e-01 0.000000e+00
1.450000e+00 4.000000e-01 0.000000e+00
1.450000e+00 4.500000e-01 0.000000e+00
1.450000e+00 5.000000e-01 0.000000e+00
1.500000e+00 0.000000e+00 0.000000e+00
1.500000e+00 5.000000e-02 0.000000e+00
1.500000e+00 1.000000e-01 0.000000e+00
1.500000e+00 1.500000e-01 0.000000e+00
1.500000e+00 2.000000e-01 0.000000e+00
1.500000e+00 2.500000e-01 0.000000e+00
1.500000e+00 3.000000e-01 0.000000e+00
1.500000e+00 3.500000e-01 0.000000e+00
1.500000e+00 4.000000e-01 0.000000e+00
1.500000e+00 4.500000e-01 0.000000e+00
1.500000e+00 5.000000e-01 0.000000e+00
1.550000e+00 0.000000e+00 0.000000e+00
1.550000e+00 5.000000e-02 0.000000e+00
1.550000e+00 1.000000e-01 0.000000e+00
1.550000e+00 1.500000e-01 0.000000e+00
1.550000e+00 2.000000e-01 0.000000e+00
1.550000e+00 2.500000e-01 0.000000e+00
1.550000e+00 3.000000e-01 0.000000e+00
1.550000e+00 3.500000e-01 0.000000e+00
1.550000e+00 4.000000e-01 0.000000e+00
1.550000e+00 4.500000e-01 0.000000e+00
1.550000e+00 5.000000e-01 0.000000e+00
1.600000e+00 0.000000e+00 0.000000e+00
1.600000e+00 5.000000e-02 0.000000e+00
1.600000e+00 1.000000e-01 0.000000e+00
1.600000e+00 1.500000e-01 0.000000e+00
1.600000e+00 2.000000e-01 0.000000e+00
1.600000e+00 2.500000e-01 0.000000e+00
1.600000e+00 3.000000e-01 0.000000e+00
1.600000e+00 3.500000e-01 0.000000e+00
1.600000e+00 4.000000e-01 0.000000e+00
1.600000e+00 4.500000e-01 0.000000e+00
1.600000e+00 5.000000e-01 0.000000e+00
1.650000e+00 0.000000e+00 0.000000e+00
1.650000e+00 5.000000e-02 0.000000e+00
1.650000e+00 1.000000e-01 0.000000e+00
1.650000e+00 1.500000e-01 0.000000e+00
1.650000e+00 2.000000e-01 0.000000e+00
1.650000e+00 2.500000e-01 0.000000e+00
1.650000e+00 3.000000e-01 0.000000e+00
1.650000e+00 3.500000e-01 0.000000e+00
1.650000e+00 4.000000e-01 0.000000e+00
1.650000e+00 4.500000e-01 0.000000e+00
1.650000e+00 5.000000e-01 0.000000e+00
1.700000e+00 0.000000e+00 0.000000e+00
1.700000e+00 5.000000e-02 0.000000e+00
1.700000e+00 1.000000e-01 0.000000e+00
1.700000e+00 1.500000e-01 0.000000e+00
1.700000e+00 2.000000e-01 0.000000e+00
1.700000e+00 2.500000e-01 0.000000e+00
1.700000e+00 3.000000e-01 0.000000e+00
1.700000e+00 3.500000e-01 0.000000e+00
1.700000e+00 4.000000e-01 0.000000e+00
1.700000e+00 4.500000e-01 0.000000e+00
1.700000e+00 5.000000e-01 0.000000e+00
1.750000e+00 0.000000e+00 0.000000e+00
1.750000e+00 5.000000e-02 0.000000e+00
1.750000e+00 1.000000e-01 0.000000e+00
1.750000e+00 1.500000e-01 0.000000e+00
1.750000e+00 2.000000e-01 0.000000e+00
1.750000e+00 2.500000e-01 0.000000e+00
1.750000e+00 3.000000e-01 0.000000e+00
1.750000e+00 3.500000e-01 0.000000e+00
1.750000e+00 4.000000e-01 0.000000e+00
1.750000e+00 4.500000e-01 0.000000e+00
1.750000e+00 5.000000e-01 0.000000e+00
1.800000e+00 0.000000e+00 0.000000e+00
1.800000e+00 5.000000e-02 0.000000e+00
1.800000e+00 1.000000e-01 0.000000e+00
1.800000e+00 1.500000e-01 0.000000e+00
1.800000e+00 2.000000e-01 0.000000e+00
1.800000e+00 2.500000e-01 0.000000e+00
1.800000e+00 3.000000e-01 0.000000e+00
1.800000e+00 3.500000e-01 0.000000e+00
1.800000e+00 4.000000e-01 0.000000e+00
1.800000e+00 4.500000e-01 0.000000e+00
1.800000e+00 5.000000e-01 0.000000e+00
1.850000e+00 0.000000e+00 0.000000e+00
1.850000e+00 5.000000e-02 0.000000e+00
1.850000e+00 1.000000e-01 0.000000e+00
1.850000e+00 1.500000e-01 0.000000e+00
1.850000e+00 2.000000e-01 0.000000e+00
1.850000e+00 2.500000e-01 0.000000e+00
1.850000e+00 3.000000e-01 0.000000e+00
1.850000e+00 3.500000e-01 0.000000e+00
1.850000e+00 4.000000e-01 0.000000e+00
1.850000e+00 4.500000e-01 0.000000e+00
1.850000e+00 5.000000e-01 0.000000e+00
1.900000e+00 0.000000e+00 0.000000e+00
1.900000e+00 5.000000e-02 0.000000e+00
1.900000e+00 1.000000e-01 0.000000e+00
1.900000e+00 1.500000e-01 0.000000e+00
1.900000e+00 2.000000e-01 0.000000e+00
1.900000e+00 2.500000e-01 0.000000e+00
1.900000e+00 3.000000e-01 0.000000e+00
1.900000e+00 3.500000e-01 0.000000e+00
1.900000e+00 4.000000e-01 0.000000e+00
1.900000e+00 4.500000e-01 0.000000e+00
1.900000e+00 5.000000e-01 0.000000e+00
1.950000e+00 0.000000e+00 0.000000e+00
1.950000e+00 5.000000e-02 0.000000e+00
1.950000e+00 1.000000e-01 0.000000e+00
1.950000e+00 1.500000e-01 0.000000e+00
1.950000e+00 2.000000e-01 0.000000e+00
1.950000e+00 2.500000e-01 0.000000e+00
1.950000e+00 3.000000e-01 0.000000e+00
1.950000e+00 3.500000e-01 0.000000e+00
1.950000e+00 4.000000e-01 0.000000e+00
1.950000e+00 4.500000e-01 0.000000e+00
1.950000e+00 5.000000e-01 0.000000e+00
2.000000e+00 0.000000e+00 0.000000e+00
2.000000e+00 5.000000e-02 0.000000e+00
2.000000e+00 1.000000e-01 0.000000e+00
2.000000e+00 1.500000e-01 0.000000e+00
2.000000e+00 2.000000e-01 0.000000e+00
2.000000e+00 2.500000e-01 0.000000e+00
2.000000e+00 3.000000e-01 0.000000e+00
2.000000e+00 3.500000e-01 0.000000e+00
2.000000e+00 4.000000e-01 0.000000e+00
2.000000e+00 4.500000e-01 0.000000e+00
2.000000e+00 5.000000e-01 0.000000e+00
CELLS     400    2000
4       0       1      12      11
4       1       2      13      12
4       2       3      14      13
4       3       4      15      14
4       4       5      16      15
4       5       6      17      16
4       6       7      18      17
4       7       8      19      18
4       8       9      20      19
4       9      10      21      20
4      11      12      23      22
4      12      13      24      23
4      13      14      25      24
4      14      15      26      25
4      15      16      27      26
4      16      17      28      27
4      17      18      29      28
4      18      19      30      29
4      19      20      31      30
4      20      21      32      31
4      22      23      34      33
4      23      24      35      34
4      24      25      36      35
4      25      26      37      36
4      26      27      38      37
4      27      28      39      38
4      28      29      40      39
4      29      30      41      40
4      30      31      42      41
4      31      32      43      42
4      33      34      45      44
4      34      35      46      45
4      35      36      47      46
4      36      37      48      47
4      37      38      49      48
4      38      39      50      49
4      39      40      51      50
4      40      41      52      51
4      41      42      53      52
4      42      43      54      53
4      44      45      56      55
4      45      46      57      56
4      46      47      58      57
4      47      48      59      58
4      48      49      60      59
4      49      50      61      60
4      50      51      62      61
4      51      52      63      62
4      52      53      64      63
4      53      54      65      64
4      55      56      67      66
4      56      57      68      67
4      57      58      69      68
4      58      59      70      69
4      59      60      71      70
4      60      61      72      71
4      61      62      73      72
4      62      63      74      73
4      63      64      75      74
4      64      65      76      75
4      66      67      78      77
4      67      68      79      78
4      68      69      80      79
4      69      70      81      80
4      70      71      82      81
4      71      72      83      82
4      72      73      84      83
4      73      74      85      84
4      74      75      86      85
4      75      76      87      86
4      77      78      89      88
4      78      79      90      89
4      79      80      91      90
4      80      81      92      91
4      81      82      93      92
4      82      83      94      93
4      83      84      95      94
4      84      85      96      95
4      85      86      97      96
4      86      87      98      97
4      88      89     100      99
4      89      90     101     100
4      90      91     102     101
4      91      92     103     102
4      92      93     104     103
4      93      94     105     104
4      94      95     106     105
4      95      96     107     106
4      96      97     108     107
4      97      98     109     108
4      99     100     111     110
4     100     101     112     111
4     101     102     113     112
4     102     103     114     113
4     103     104     115     114
4     104     105     116     115
4     105     106     117     116
4     106     107     118     117
4     107     108     119     118
4     108     109     120     119
4     110     111     122     121
4     111     112     123     122
4     112     113     124     123
4     113     114     125     124
4     114     115     126     125
4     115     116     127     126
4     116     117     128     127
4     117     118     129     128
4     118     119     130     129
4     119     120     131     130
4     121     122     133     132
4     122     123     134     133
4     123     124     135     134
4     124     125     136     135
4     125     126     137     136
4     126     127     138     137
4     127     128     139     138
4     128     129     140     139
4     129     130     141     140
4     130     131     142     141
4     132     133     144     143
4     133     134     145     144
4     134     135     146     145
4     135     136     147     146
4     136     137     148     147
4     137     138     149     148
4     138     139     150     149
4     139     140     151     150
4     140     141     152     151
4     141     142     153     152
4     143     144     155     154
4     144     145     156     155
4     145     146     157     156
4     146     147     158     157
4     147     148     159     158
4     148     149     160     159
4     149     150     161     160
4     150     151     162     161
4     151     152     163     162
4     152     153     164     163
4     154     155     166     165
4     155     156     167     166
4     156     157     168     167
4     157     158     169     168
4     158     159     170     169
4     159     160     171     170
4     160     161     172     171
4     161     162     173     172
4     162     163     174     173
4     163     164     175     174
4     165     166     177     176
4     166     167     178     177
4     167     168     179     178
4     168     169     180     179
4     169     170     181     180
4     170     171     182     181
4     171     172     183     182
4     172     173     184     183
4     173     174     185     184
4     174     175     186     185
4     176     177     188     187
4     177     178     189     188
4     178     179     190     189
4     179     180     191     190
4     180     181     192     191
4     181     182     193     192
4     182     183     194     193
4     183     184     195     194
4     184     185     196     195
4     185     186     197     196
4     187     188     199     198
4     188     189     200     199
4     189     190     201     200
4     190     191     202     201
4     191     192     203     202
4     192     193     204     203
4     193     194     205     204
4     194     195     206     205
4     195     196     207     206
4     196     197     208     207
4     198     199     210     209
4     199     200     211     210
4     200     201     212     211
4     201     202     213     212
4     202     203     214     213
4     203     204     215     214
4     204     205     216     215
4     205     206     217     216
4     206     207     218     217
4     207     208     219     218
4     209     210     221     220
4     210     211     222     221
4     211     212     223     222
4     212     213     224     223
4     213     214     225     224
4     214     215     226     225
4     215     216     227     226
4     216     217     228     227
4     217     218     229     228
4     218     219     230     229
4     220     221     232     231
4     221     222     233     232
4     222     223     234     233
4     223     224     235     234
4     224     225     236     235
4     225     226     237     236
4     226     227     238     237
4     227     228     239     238
4     228     229     240     239
4     229     230     241     240
4     231     232     243     242
4     232     233     244     243
4     233     234     245     244
4     234     235     246     245
4     235     236     247     246
4     236     237     248     247
4     237     238     249     248
4     238     239     250     249
4     239     240     251     250
4     240     241     252     251
4     242     243     254     253
4     243     244     255     254
4     244     245     256     255
4     245     246     257     256
4     246     247     258     257
4     247     248     259     258
4     248     249     260     259
4     249     250     261     260
4     250     251     262     261
4     251     252     263     262
4     253     254     265     264
4     254     255     266     265
4     255     256     267     266
4     256     257     268     267
4     257     258     269     268
4     258     259     270     269
4     259     260     271     270
4     260     261     272     271
4     261     262     273     272
4     262     263     274     273
4     264     265     276     275
4     265     266     277     276
4     266     267     278     277
4     267     268     279     278
4     268     269     280     279
4     269     270     281     280
4     270     271     282     281
4     271     272     283     282
4     272     273     284     283
4     273     274     285     284
4     275     276     287     286
4     276     277     288     287
4     277     278     289     288
4     278     279     290     289
4     279     280     291     290
4     280     281     292     291
4     281     282     293     292
4     282     283     294     293
4     283     284     295     294
4     284     285     296     295
4     286     287     298     297
4     287     288     299     298
4     288     289     300     299
4     289     290     301     300
4     290     291     302     301
4     291     292     303     302
4     292     293     304     303
4     293     294     305     304
4     294     295     306     305
4     295     296     307     306
4     297     298     309     308
4     298     299     310     309
4     299     300     311     310
4     300     301     312     311
4     301     302     313     312
4     302     303     314     313
4     303     304     315     314
4     304     305     316     315
4     305     306     317     316
4     306     307     318     317
4     308     309     320     319
4     309     310     321     320
4     310     311     322     321
4     311     312     323     322
4     312     313     324     323
4     313     314     325     324
4     314     315     326     325
4     315     316     327     326
4     316     317     328     327
4     317     318     329     328
4     319     320     331     330
4     320     321     332     331
4     321     322     333     332
4     322     323     334     333
4     323     324     335     334
4     324     325     336     335
4     325     326     337     336
4     326     327     338     337
4     327     328     339     338
4     328     329     340     339
4     330     331     342     341
4     331     332     343     342
4     332     333     344     343
4     333     334     345     344
4     334     335     346     345
4     335     336     347     346
4     336     337     348     347
4     337     338     349     348
4     338     339     350     349
4     339     340     351     350
4     341     342     353     352
4     342     343     354     353
4     343     344     355     354
4     344     345     356     355
4     345     346     357     356
4     346     347     358     357
4     347     348     359     358
4     348     349     360     359
4     349     350     361     360
4     350     351     362     361
4     352     353     364     363
4     353     354     365     364
4     354     355     366     365
4     355     356     367     366
4     356     357     368     367
4     357     358     369     368
4     358     359     370     369
4     359     360     371     370
4     360     361     372     371
4     361     362     373     372
4     363     364     375     374
4     364     365     376     375
4     365     366     377     376
4     366     367     378     377
4     367     368     379     378
4     368     369     380     379
4     369     370     381     380
4     370     371     382     381
4     371     372     383     382
4     372     373     384     383
4     374     375     386     385
4     375     376     387     386
4     376     377     388     387
4     377     378     389     388
4     378     379     390     389
4     379     380     391     390
4     380     381     392     391
4     381     382     393     392
4     382     383     394     393
4     383     384     395     394
4     385     386     397     396
4     386     387     398     397
4     387     388     399     398
4     388     389     400     399
4     389     390     401     400
4     390     391     402     401
4     391     392     403     402
4     392     393     404     403
4     393     394     405     404
4     394     395     406     405
4     396     397     408     407
4     397     398     409     408
4     398     399     410     409
4     399     400     411     410
4     400     401     412     411
4     401     402     413     412
4     402     403     414     413
4     403     404     415     414
4     404     405     416     415
4     405     406     417     416
4     407     408     419     418
4     408     409     420     419
4     409     410     421     420
4     410     411     422     421
4     411     412     423     422
4     412     413     424     423
4     413     414     425     424
4     414     415     426     425
4     415     416     427     426
4     416     417     428     427
4     418     419     430     429
4     419     420     431     430
4     420     421     432     431
4     421     422     433     432
4     422     423     434     433
4     423     424     435     434
4     424     425     436     435
4     425     426     437     436
4     426     427     438     437
4     427     428     439     438
4     429     430     441     440
4     430     431     442     441
4     431     432     443     442
4     432     433     444     443
4     433     434     445     444
4     434     435     446     445
4     435     436     447     446
4     436     437     448     447
4     437     438     449     448
4     438     439     450     449
CELL_TYPES     400
9
9
9
9
9
9
9
9
9
9
9
9
9
9
9
9
9
9
9
9
9
9
9
9
9
9
9
9
9
9
9
9
9
9
9
9
9
9
9
9
9
9
9
9
9
9
9
9
9
9
9
9
9
9
9
9
9
9
9
9
9
9
9
9
9
9
9
9
9
9
9
9
9
9
9
9
9
9
9
9
9
9
9
9
9
9
9
9
9
9
9
9
9
9
9
9
9
9
9
9
9
9
9
9
9
9
9
9
9
9
9
9
9
9
9
9
9
9
9
9
9
9
9
9
9
9
9
9
9
9
9
9
9
9
9
9
9
9
9
9
9
9
9
9
9
9
9
9
9
9
9
9
9
9
9
9
9
9
9
9
9
9
9
9
9
9
9
9
9
9
9
9
9
9
9
9
9
9
9
9
9
9
9
9
9
9
9
9
9
9
9
9
9
9
9
9
9
9
9
9
9
9
9
9
9
9
9
9
9
9
9
9
9
9
9
9
9
9
9
9
9
9
9
9
9
9
9
9
9
9
9
9
9
9
9
9
9
9
9
9
9
9
9
9
9
9
9
9
9
9
9
9
9
9
9
9
9
9
9
9
9
9
9
9
9
9
9
9
9
9
9
9
9
9
9
9
9
9
9
9
9
9
9
9
9
9
9
9
9
9
9
9
9
9
9
9
9
9
9
9
9
9
9
9
9
9
9
9
9
9
9
9
9
9
9
9
9
9
9
9
9
9
9
9
9
9
9
9
9
9
9
9
9
9
9
9
9
9
9
9
9
9
9
9
9
9
9
9
9
9
9
9
9
9
9
9
9
9
9
9
9
9
9
9
9
9
9
9
9
9
9
9
9
9
9
9
9
9
9
9
9
9
9
9
9
9
9
9
9
9
9
9
9
9
9
9
9
9
9
9
POINT_DATA     451
VECTORS DISPLACEMENT_2.000000e-02 double
0.000000e+00    0.000000e+00    0.000000e+00
0.000000e+00    0.000000e+00    0.000000e+00
0.000000e+00    0.000000e+00    0.000000e+00
0.000000e+00    0.000000e+00    0.000000e+00
0.000000e+00    0.000000e+00    0.000000e+00
0.000000e+00    0.000000e+00    0.000000e+00
0.000000e+00    0.000000e+00    0.000000e+00
0.000000e+00    0.000000e+00    0.000000e+00
0.000000e+00    0.000000e+00    0.000000e+00
0.000000e+00    0.000000e+00    0.000000e+00
0.000000e+00    0.000000e+00    0.000000e+00
-2.179535e-07    -1.583903e-07    0.000000e+00
-1.381392e-07    -7.940008e-08    0.000000e+00
-9.857588e-08    -4.108190e-08    0.000000e+00
-6.364921e-08    -2.027358e-08    0.000000e+00
-3.138167e-08    -9.502504e-09    0.000000e+00
-6.514103e-21    -6.153247e-09    0.000000e+00
3.138167e-08    -9.502504e-09    0.000000e+00
6.364921e-08    -2.027358e-08    0.000000e+00
9.857588e-08    -4.108190e-08    0.000000e+00
1.381392e-07    -7.940008e-08    0.000000e+00
2.179535e-07    -1.583903e-07    0.000000e+00
-4.112746e-07    -2.633777e-07    0.000000e+00
-3.006826e-07    -1.905057e-07    0.000000e+00
-2.110757e-07    -1.337335e-07    0.000000e+00
-1.361626e-07    -9.860880e-08    0.000000e+00
-6.687831e-08    -7.946711e-08    0.000000e+00
-1.378062e-20    -7.338659e-08    0.000000e+00
6.687831e-08    -7.946711e-08    0.000000e+00
1.361626e-07    -9.860880e-08    0.000000e+00
2.110757e-07    -1.337335e-07    0.000000e+00
3.006826e-07    -1.905057e-07    0.000000e+00
4.112746e-07    -2.633777e-07    0.000000e+00
-5.981667e-07    -3.939512e-07    0.000000e+00
-4.572562e-07    -3.209098e-07    0.000000e+00
-3.290503e-07    -2.633151e-07    0.000000e+00
-2.130354e-07    -2.226864e-07    0.000000e+00
-1.048274e-07    -1.992667e-07    0.000000e+00
-2.173003e-20    -1.916375e-07    0.000000e+00
1.048274e-07    -1.992667e-07    0.000000e+00
2.130354e-07    -2.226864e-07    0.000000e+00
3.290503e-07    -2.633151e-07    0.000000e+00
4.572562e-07    -3.209098e-07    0.000000e+00
5.981667e-07    -3.939512e-07    0.000000e+00
-7.830189e-07    -5.551316e-07    0.000000e+00
-6.086891e-07    -4.837469e-07    0.000000e+00
-4.444857e-07    -4.271065e-07    0.000000e+00
-2.902492e-07    -3.862302e-07    0.000000e+00
-1.432868e-07    -3.616934e-07    0.000000e+00
-3.002169e-20    -3.535571e-07    0.000000e+00
1.432868e-07    -3.616934e-07    0.000000e+00
2.902492e-07    -3.862302e-07    0.000000e+00
4.444857e-07    -4.271065e-07    0.000000e+00
6.086891e-07    -4.837469e-07    0.000000e+00
7.830189e-07    -5.551316e-07    0.000000e+00
-9.647687e-07    -7.512651e-07    0.000000e+00
-7.557291e-07    -6.815363e-07    0.000000e+00
-5.562618e-07    -6.265991e-07    0.000000e+00
-3.654245e-07    -5.867943e-07    0.000000e+00
-1.810212e-07    -5.626969e-07    0.000000e+00
-3.861445e-20    -5.546307e-07    0.000000e+00
1.810212e-07    -5.626969e-07    0.000000e+00
3.654245e-07    -5.867943e-07    0.000000e+00
5.562618e-07    -6.265991e-07    0.000000e+00
7.557291e-07    -6.815363e-07    0.000000e+00
9.647687e-07    -7.512651e-07    0.000000e+00
-1.142584e-06    -9.828652e-07    0.000000e+00
-8.986704e-07    -9.149708e-07    0.000000e+00
-6.643706e-07    -8.617631e-07    0.000000e+00
-4.380489e-07    -8.233618e-07    0.000000e+00
-2.175066e-07    -8.001188e-07    0.000000e+00
-4.731142e-20    -7.923354e-07    0.000000e+00
2.175066e-07    -8.001188e-07    0.000000e+00
4.380489e-07    -8.233618e-07    0.000000e+00
6.643706e-07    -8.617631e-07    0.000000e+00
8.986704e-07    -9.149708e-07    0.000000e+00
1.142584e-06    -9.828652e-07    0.000000e+00
-1.315871e-06    -1.249544e-06    0.000000e+00
-1.037564e-06    -1.183560e-06    0.000000e+00
-7.690181e-07    -1.132037e-06    0.000000e+00
-5.081597e-07    -1.095003e-06    0.000000e+00
-2.526869e-07    -1.072652e-06    0.000000e+00
-5.563948e-20    -1.065176e-06    0.000000e+00
2.526869e-07    -1.072652e-06    0.000000e+00
5.081597e-07    -1.095003e-06    0.000000e+00
7.690181e-07    -1.132037e-06    0.000000e+00
1.037564e-06    -1.183560e-06    0.000000e+00
1.315871e-06    -1.249544e-06    0.000000e+00
-1.484299e-06    -1.550461e-06    0.000000e+00
-1.172394e-06    -1.486433e-06    0.000000e+00
-8.703682e-07    -1.436540e-06    0.000000e+00
-5.759135e-07    -1.400783e-06    0.000000e+00
-2.866369e-07    -1.379255e-06    0.000000e+00
-6.376570e-20    -1.372065e-06    0.000000e+00
2.866369e-07    -1.379255e-06    0.000000e+00
5.759135e-07    -1.400783e-06    0.000000e+00
8.703682e-07    -1.436540e-06    0.000000e+00
1.172394e-06    -1.486433e-06    0.000000e+00
1.484299e-06    -1.550461e-06    0.000000e+00
-1.647698e-06    -1.884632e-06    0.000000e+00
-1.303133e-06    -1.822580e-06    0.000000e+00
-9.685218e-07    -1.774279e-06    0.000000e+00
-6.414401e-07    -1.739722e-06    0.000000e+00
-3.194378e-07    -1.718952e-06    0.000000e+00
-7.197133e-20    -1.712021e-06    0.000000e+00
3.194378e-07    -1.718952e-06    0.000000e+00
6.414401e-07    -1.739722e-06    0.000000e+00
9.685218e-07    -1.774279e-06    0.000000e+00
1.303133e-06    -1.822580e-06    0.000000e+00
1.647698e-06    -1.884632e-06    0.000000e+00
-1.805989e-06    -2.251020e-06    0.000000e+00
-1.429763e-06    -2.190954e-06    0.000000e+00
-1.063533e-06    -2.144223e-06    0.000000e+00
-7.048210e-07    -2.110819e-06    0.000000e+00
-3.511458e-07    -2.090761e-06    0.000000e+00
-8.037549e-20    -2.084071e-06    0.000000e+00
3.511458e-07    -2.090761e-06    0.000000e+00
7.048210e-07    -2.110819e-06    0.000000e+00
1.063533e-06    -2.144223e-06    0.000000e+00
1.429763e-06    -2.190954e-06    0.000000e+00
1.805989e-06    -2.251020e-06    0.000000e+00
-1.959137e-06    -2.648582e-06    0.000000e+00
-1.552275e-06    -2.590505e-06    0.000000e+00
-1.155429e-06    -2.545331e-06    0.000000e+00
-7.661003e-07    -2.513056e-06    0.000000e+00
-3.817927e-07    -2.493684e-06    0.000000e+00
-8.760174e-20    -2.487225e-06    0.000000e+00
3.817927e-07    -2.493684e-06    0.000000e+00
7.661003e-07    -2.513056e-06    0.000000e+00
1.155429e-06    -2.545331e-06    0.000000e+00
1.552275e-06    -2.590505e-06    0.000000e+00
1.959137e-06    -2.648582e-06    0.000000e+00
-2.107128e-06    -3.076274e-06    0.000000e+00
-1.670661e-06    -3.020188e-06    0.000000e+00
-1.244220e-06    -2.976567e-06    0.000000e+00
-8.252995e-07    -2.945406e-06    0.000000e+00
-4.113949e-07    -2.926708e-06    0.000000e+00
-9.501327e-20    -2.920475e-06    0.000000e+00
4.113949e-07    -2.926708e-06    0.000000e+00
8.252995e-07    -2.945406e-06    0.000000e+00
1.244220e-06    -2.976567e-06    0.000000e+00
1.670661e-06    -3.020188e-06    0.000000e+00
2.107128e-06    -3.076274e-06    0.000000e+00
-2.249958e-06    -3.533057e-06    0.000000e+00
-1.784919e-06    -3.478963e-06    0.000000e+00
-1.329912e-06    -3.436892e-06    0.000000e+00
-8.824280e-07    -3.406842e-06    0.000000e+00
-4.399598e-07    -3.388811e-06    0.000000e+00
-1.034836e-19    -3.382801e-06    0.000000e+00
4.399598e-07    -3.388811e-06    0.000000e+00
8.824280e-07    -3.406842e-06    0.000000e+00
1.329912e-06    -3.436892e-06    0.000000e+00
1.784919e-06    -3.478963e-06    0.000000e+00
2.249958e-06    -3.533057e-06    0.000000e+00
-2.387623e-06    -4.017897e-06    0.000000e+00
-1.895047e-06    -3.965795e-06    0.000000e+00
-1.412505e-06    -3.925273e-06    0.000000e+00
-9.374895e-07    -3.896330e-06    0.000000e+00
-4.674905e-07    -3.878965e-06    0.000000e+00
-1.088305e-19    -3.873177e-06    0.000000e+00
4.674905e-07    -3.878965e-06    0.000000e+00
9.374895e-07    -3.896330e-06    0.000000e+00
1.412505e-06    -3.925273e-06    0.000000e+00
1.895047e-06    -3.965795e-06    0.000000e+00
2.387623e-06    -4.017897e-06    0.000000e+00
-2.520124e-06    -4.529758e-06    0.000000e+00
-2.001043e-06    -4.479649e-06    0.000000e+00
-1.492000e-06    -4.440677e-06    0.000000e+00
-9.904848e-07    -4.412841e-06    0.000000e+00
-4.939878e-07    -4.396140e-06    0.000000e+00
-1.137274e-19    -4.390573e-06    0.000000e+00
4.939878e-07    -4.396140e-06    0.000000e+00
9.904848e-07    -4.412841e-06    0.000000e+00
1.492000e-06    -4.440677e-06    0.000000e+00
2.001043e-06    -4.479649e-06    0.000000e+00
2.520124e-06    -4.529758e-06    0.000000e+00
-2.647460e-06    -5.067609e-06    0.000000e+00
-2.102908e-06    -5.019492e-06    0.000000e+00
-1.568396e-06    -4.982070e-06    0.000000e+00
-1.041414e-06    -4.955341e-06    0.000000e+00
-5.194520e-07    -4.939305e-06    0.000000e+00
-1.175788e-19    -4.933959e-06    0.000000e+00
5.194520e-07    -4.939305e-06    0.000000e+00
1.041414e-06    -4.955341e-06    0.000000e+00
1.568396e-06    -4.982070e-06    0.000000e+00
2.102908e-06    -5.019492e-06    0.000000e+00
2.647460e-06    -5.067609e-06    0.000000e+00
-2.769629e-06    -5.630416e-06    0.000000e+00
-2.200639e-06    -5.584291e-06    0.000000e+00
-1.641692e-06    -5.548420e-06    0.000000e+00
-1.090276e-06    -5.522799e-06    0.000000e+00
-5.438828e-07    -5.507427e-06    0.000000e+00
-1.185581e-19    -5.502303e-06    0.000000e+00
5.438828e-07    -5.507427e-06    0.000000e+00
1.090276e-06    -5.522799e-06    0.000000e+00
1.641692e-06    -5.548420e-06    0.000000e+00
2.200639e-06    -5.584291e-06    0.000000e+00
2.769629e-06    -5.630416e-06    0.000000e+00
-2.886631e-06    -6.217146e-06    0.000000e+00
-2.294236e-06    -6.173015e-06    0.000000e+00
-1.711886e-06    -6.138694e-06    0.000000e+00
-1.137072e-06    -6.114181e-06    0.000000e+00
-5.672800e-07    -6.099473e-06    0.000000e+00
-1.211257e-19    -6.094571e-06    0.000000e+00
5.672800e-07    -6.099473e-06    0.000000e+00
1.137072e-06    -6.114181e-06    0.000000e+00
1.711886e-06    -6.138694e-06    0.000000e+00
2.294236e-06    -6.173015e-06    0.000000e+00
2.886631e-06    -6.217146e-06    0.000000e+00
-2.998464e-06    -6.826766e-06    0.000000e+00
-2.383697e-06    -6.784629e-06    0.000000e+00
-1.778980e-06    -6.751860e-06    0.000000e+00
-1.181799e-06    -6.728454e-06    0.000000e+00
-5.896432e-07    -6.714412e-06    0.000000e+00
-1.253609e-19    -6.709731e-06    0.000000e+00
5.896432e-07    -6.714412e-06    0.000000e+00
1.181799e-06    -6.728454e-06    0.000000e+00
1.778980e-06    -6.751860e-06    0.000000e+00
2.383697e-06    -6.784629e-06    0.000000e+00
2.998464e-06    -6.826766e-06    0.000000e+00
-3.105126e-06    -7.458243e-06    0.000000e+00
-2.469022e-06    -7.418101e-06    0.000000e+00
-1.842970e-06    -7.386883e-06    0.000000e+00
-1.224458e-06    -7.364586e-06    0.000000e+00
-6.109720e-07    -7.351209e-06    0.000000e+00
-1.338047e-19    -7.346750e-06    0.000000e+00
6.109720e-07    -7.351209e-06    0.000000e+00
1.224458e-06    -7.364586e-06    0.000000e+00
1.842970e-06    -7.386883e-06    0.000000e+00
2.469022e-06    -7.418101e-06    0.000000e+00
3.105126e-06    -7.458243e-06    0.000000e+00
-3.206617e-06    -8.110543e-06    0.000000e+00
-2.550208e-06    -8.072397e-06    0.000000e+00
-1.903856e-06    -8.042731e-06    0.000000e+00
-1.265047e-06    -8.021544e-06    0.000000e+00
-6.312661e-07    -8.008832e-06    0.000000e+00
-1.452397e-19    -8.004595e-06    0.000000e+00
6.312661e-07    -8.008832e-06    0.000000e+00
1.265047e-06    -8.021544e-06    0.000000e+00
1.903856e-06    -8.042731e-06    0.000000e+00
2.550208e-06    -8.072397e-06    0.000000e+00
3.206617e-06    -8.110543e-06    0.000000e+00
-3.302933e-06    -8.782632e-06    0.000000e+00
-2.627254e-06    -8.746483e-06    0.000000e+00
-1.961637e-06    -8.718370e-06    0.000000e+00
-1.303566e-06    -8.698292e-06    0.000000e+00
-6.505250e-07    -8.686246e-06    0.000000e+00
-1.537100e-19    -8.682231e-06    0.000000e+00
6.505250e-07    -8.686246e-06    0.000000e+00
1.303566e-06    -8.698292e-06    0.000000e+00
1.961637e-06    -8.718370e-06    0.000000e+00
2.627254e-06    -8.746483e-06    0.000000e+00
3.302933e-06    -8.782632e-06    0.000000e+00
-3.394072e-06    -9.473476e-06    0.000000e+00
-2.700159e-06    -9.439324e-06    0.000000e+00
-2.016311e-06    -9.412765e-06    0.000000e+00
-1.340013e-06    -9.393797e-06    0.000000e+00
-6.687483e-07    -9.382417e-06    0.000000e+00
-1.610421e-19    -9.378624e-06    0.000000e+00
6.687483e-07    -9.382417e-06    0.000000e+00
1.340013e-06    -9.393797e-06    0.000000e+00
2.016311e-06    -9.412765e-06    0.000000e+00
2.700159e-06    -9.439324e-06    0.000000e+00
3.394072e-06    -9.473476e-06    0.000000e+00
-3.480032e-06    -1.018204e-05    0.000000e+00
-2.768920e-06    -1.014989e-05    0.000000e+00
-2.067878e-06    -1.012488e-05    0.000000e+00
-1.374389e-06    -1.010702e-05    0.000000e+00
-6.859356e-07    -1.009631e-05    0.000000e+00
-1.696713e-19    -1.009274e-05    0.000000e+00
6.859356e-07    -1.009631e-05    0.000000e+00
1.374389e-06    -1.010702e-05    0.000000e+00
2.067878e-06    -1.012488e-05    0.000000e+00
2.768920e-06    -1.014989e-05    0.000000e+00
3.480032e-06    -1.018204e-05    0.000000e+00
-3.560812e-06    -1.090729e-05    0.000000e+00
-2.833536e-06    -1.087713e-05    0.000000e+00
-2.116335e-06    -1.085369e-05    0.000000e+00
-1.406692e-06    -1.083694e-05    0.000000e+00
-7.020863e-07    -1.082689e-05    0.000000e+00
-1.725300e-19    -1.082354e-05    0.000000e+00
7.020863e-07    -1.082689e-05    0.000000e+00
1.406692e-06    -1.083694e-05    0.000000e+00
2.116335e-06    -1.085369e-05    0.000000e+00
2.833536e-06    -1.087713e-05    0.000000e+00
3.560812e-06    -1.090729e-05    0.000000e+00
-3.636407e-06    -1.164819e-05    0.000000e+00
-2.894003e-06    -1.162003e-05    0.000000e+00
-2.161681e-06    -1.159814e-05    0.000000e+00
-1.436920e-06    -1.158250e-05    0.000000e+00
-7.172001e-07    -1.157312e-05    0.000000e+00
-1.754946e-19    -1.157000e-05    0.000000e+00
7.172001e-07    -1.157312e-05    0.000000e+00
1.436920e-06    -1.158250e-05    0.000000e+00
2.161681e-06    -1.159814e-05    0.000000e+00
2.894003e-06    -1.162003e-05    0.000000e+00
3.636407e-06    -1.164819e-05    0.000000e+00
-3.706815e-06    -1.240370e-05    0.000000e+00
-2.950321e-06    -1.237754e-05    0.000000e+00
-2.203915e-06    -1.235721e-05    0.000000e+00
-1.465074e-06    -1.234268e-05    0.000000e+00
-7.312761e-07    -1.233397e-05    0.000000e+00
-1.778769e-19    -1.233107e-05    0.000000e+00
7.312761e-07    -1.233397e-05    0.000000e+00
1.465074e-06    -1.234268e-05    0.000000e+00
2.203915e-06    -1.235721e-05    0.000000e+00
2.950321e-06    -1.237754e-05    0.000000e+00
3.706815e-06    -1.240370e-05    0.000000e+00
-3.772032e-06    -1.317278e-05    0.000000e+00
-3.002487e-06    -1.314863e-05    0.000000e+00
-2.243034e-06    -1.312985e-05    0.000000e+00
-1.491151e-06    -1.311644e-05    0.000000e+00
-7.443138e-07    -1.310840e-05    0.000000e+00
-1.756535e-19    -1.310572e-05    0.000000e+00
7.443138e-07    -1.310840e-05    0.000000e+00
1.491151e-06    -1.311644e-05    0.000000e+00
2.243034e-06    -1.312985e-05    0.000000e+00
3.002487e-06    -1.314863e-05    0.000000e+00
3.772032e-06    -1.317278e-05    0.000000e+00
-3.832056e-06    -1.395440e-05    0.000000e+00
-3.050498e-06    -1.393226e-05    0.000000e+00
-2.279037e-06    -1.391504e-05    0.000000e+00
-1.515150e-06    -1.390274e-05    0.000000e+00
-7.563118e-07    -1.389537e-05    0.000000e+00
-1.752299e-19    -1.389291e-05    0.000000e+00
7.563118e-07    -1.389537e-05    0.000000e+00
1.515150e-06    -1.390274e-05    0.000000e+00
2.279037e-06    -1.391504e-05    0.000000e+00
3.050498e-06    -1.393226e-05    0.000000e+00
3.832056e-06    -1.395440e-05    0.000000e+00
-3.886883e-06    -1.474752e-05    0.000000e+00
-3.094352e-06    -1.472738e-05    0.000000e+00
-2.311920e-06    -1.471172e-05    0.000000e+00
-1.537066e-06    -1.470055e-05    0.000000e+00
-7.672677e-07    -1.469385e-05    0.000000e+00
-1.820591e-19    -1.469161e-05    0.000000e+00
7.672677e-07    -1.469385e-05    0.000000e+00
1.537066e-06    -1.470055e-05    0.000000e+00
2.311920e-06    -1.471172e-05    0.000000e+00
3.094352e-06    -1.472738e-05    0.000000e+00
3.886883e-06    -1.474752e-05    0.000000e+00
-3.936511e-06    -1.555109e-05    0.000000e+00
-3.134048e-06    -1.553295e-05    0.000000e+00
-2.341679e-06    -1.551886e-05    0.000000e+00
-1.556893e-06    -1.550882e-05    0.000000e+00
-7.771761e-07    -1.550280e-05    0.000000e+00
-1.878825e-19    -1.550079e-05    0.000000e+00
7.771761e-07    -1.550280e-05    0.000000e+00
1.556893e-06    -1.550882e-05    0.000000e+00
2.341679e-06    -1.551886e-05    0.000000e+00
3.134048e-06    -1.553295e-05    0.000000e+00
3.936511e-06    -1.555109e-05    0.000000e+00
-3.980945e-06    -1.636406e-05    0.000000e+00
-3.169586e-06    -1.634793e-05    0.000000e+00
-2.368305e-06    -1.633542e-05    0.000000e+00
-1.574617e-06    -1.632651e-05    0.000000e+00
-7.860265e-07    -1.632120e-05    0.000000e+00
-2.014350e-19    -1.631943e-05    0.000000e+00
7.860265e-07    -1.632120e-05    0.000000e+00
1.574617e-06    -1.632651e-05    0.000000e+00
2.368305e-06    -1.633542e-05    0.000000e+00
3.169586e-06    -1.634793e-05    0.000000e+00
3.980945e-06    -1.636406e-05    0.000000e+00
-4.020200e-06    -1.718539e-05    0.000000e+00
-3.200970e-06    -1.717126e-05    0.000000e+00
-2.391778e-06    -1.716034e-05    0.000000e+00
-1.590207e-06    -1.715261e-05    0.000000e+00
-7.937979e-07    -1.714802e-05    0.000000e+00
-2.130817e-19    -1.714650e-05    0.000000e+00
7.937979e-07    -1.714802e-05    0.000000e+00
1.590207e-06    -1.715261e-05    0.000000e+00
2.391778e-06    -1.716034e-05    0.000000e+00
3.200970e-06    -1.717126e-05    0.000000e+00
4.020200e-06    -1.718539e-05    0.000000e+00
-4.054319e-06    -1.801402e-05    0.000000e+00
-3.228208e-06    -1.800189e-05    0.000000e+00
-2.412062e-06    -1.799258e-05    0.000000e+00
-1.603611e-06    -1.798608e-05    0.000000e+00
-8.004526e-07    -1.798227e-05    0.000000e+00
-2.189580e-19    -1.798102e-05    0.000000e+00
8.004526e-07    -1.798227e-05    0.000000e+00
1.603611e-06    -1.798608e-05    0.000000e+00
2.412062e-06    -1.799258e-05    0.000000e+00
3.228208e-06    -1.800189e-05    0.000000e+00
4.054319e-06    -1.801402e-05    0.000000e+00
-4.083402e-06    -1.884894e-05    0.000000e+00
-3.251314e-06    -1.883877e-05    0.000000e+00
-2.429090e-06    -1.883112e-05    0.000000e+00
-1.614738e-06    -1.882592e-05    0.000000e+00
-8.059324e-07    -1.882294e-05    0.000000e+00
-2.255225e-19    -1.882198e-05    0.000000e+00
8.059324e-07    -1.882294e-05    0.000000e+00
1.614738e-06    -1.882592e-05    0.000000e+00
2.429090e-06    -1.883112e-05    0.000000e+00
3.251314e-06    -1.883877e-05    0.000000e+00
4.083402e-06    -1.884894e-05    0.000000e+00
-4.107656e-06    -1.968919e-05    0.000000e+00
-3.270302e-06    -1.968094e-05    0.000000e+00
-2.442749e-06    -1.967499e-05    0.000000e+00
-1.623465e-06    -1.967115e-05    0.000000e+00
-8.101689e-07    -1.966902e-05    0.000000e+00
-2.342046e-19    -1.966834e-05    0.000000e+00
8.101689e-07    -1.966902e-05    0.000000e+00
1.623465e-06    -1.967115e-05    0.000000e+00
2.442749e-06    -1.967499e-05    0.000000e+00
3.270302e-06    -1.968094e-05    0.000000e+00
4.107656e-06    -1.968919e-05    0.000000e+00
-4.127456e-06    -2.053409e-05    0.000000e+00
-3.285154e-06    -2.052766e-05    0.000000e+00
-2.452890e-06    -2.052339e-05    0.000000e+00
-1.629703e-06    -2.052078e-05    0.000000e+00
-8.131410e-07    -2.051934e-05    0.000000e+00
-2.237226e-19    -2.051887e-05    0.000000e+00
8.131410e-07    -2.051934e-05    0.000000e+00
1.629703e-06    -2.052078e-05    0.000000e+00
2.452890e-06    -2.052339e-05    0.000000e+00
3.285154e-06    -2.052766e-05    0.000000e+00
4.127456e-06    -2.053409e-05    0.000000e+00
-4.143396e-06    -2.138362e-05    0.000000e+00
-3.295757e-06    -2.137879e-05    0.000000e+00
-2.459467e-06    -2.137587e-05    0.000000e+00
-1.633626e-06    -2.137376e-05    0.000000e+00
-8.150086e-07    -2.137231e-05    0.000000e+00
-2.082642e-19    -2.137179e-05    0.000000e+00
8.150086e-07    -2.137231e-05    0.000000e+00
1.633626e-06    -2.137376e-05    0.000000e+00
2.459467e-06    -2.137587e-05    0.000000e+00
3.295757e-06    -2.137879e-05    0.000000e+00
4.143396e-06    -2.138362e-05    0.000000e+00
-4.155855e-06    -2.223932e-05    0.000000e+00
-3.301907e-06    -2.223584e-05    0.000000e+00
-2.463236e-06    -2.223227e-05    0.000000e+00
-1.636118e-06    -2.222830e-05    0.000000e+00
-8.162768e-07    -2.222533e-05    0.000000e+00
-2.048761e-19    -2.222425e-05    0.000000e+00
8.162768e-07    -2.222533e-05    0.000000e+00
1.636118e-06    -2.222830e-05    0.000000e+00
2.463236e-06    -2.223227e-05    0.000000e+00
3.301907e-06    -2.223584e-05    0.000000e+00
4.155855e-06    -2.223932e-05    0.000000e+00
-4.162448e-06    -2.310897e-05    0.000000e+00
-3.305804e-06    -2.310227e-05    0.000000e+00
-2.467060e-06    -2.309097e-05    0.000000e+00
-1.639033e-06    -2.308077e-05    0.000000e+00
-8.178534e-07    -2.307398e-05    0.000000e+00
-2.018585e-19    -2.307161e-05    0.000000e+00
8.178534e-07    -2.307398e-05    0.000000e+00
1.639033e-06    -2.308077e-05    0.000000e+00
2.467060e-06    -2.309097e-05    0.000000e+00
3.305804e-06    -2.310227e-05    0.000000e+00
4.162448e-06    -2.310897e-05    0.000000e+00

CELL_DATA      400
TENSORS Element_Stress2.000000e-02 double
3.471410e+05 4.862278e+04        0
4.862278e+04 7.932341e+04        0
       0        0        0

2.372931e+05 2.490329e+04        0
2.490329e+04 6.800827e+04        0
       0        0        0

1.651259e+05 8.133243e+03        0
8.133243e+03 5.247382e+04        0
       0        0        0

9.737837e+04 -7.665942e+02        0
-7.665942e+02 3.226380e+04        0
       0        0        0

3.225050e+04 -4.838858e+03        0
-4.838858e+03 1.087682e+04        0
       0        0        0

-3.224917e+04 -4.838630e+03        0
-4.838630e+03 -1.087709e+04        0
       0        0        0

-9.736099e+04 -7.666076e+02        0
-7.666076e+02 -3.225777e+04        0
       0        0        0

-1.650744e+05 8.130645e+03        0
8.130645e+03 -5.245450e+04        0
       0        0        0

-2.371842e+05 2.489279e+04        0
2.489279e+04 -6.796652e+04        0
       0        0        0

-3.469141e+05 4.859325e+04        0
4.859325e+04 -7.924488e+04        0
       0        0        0

3.132324e+05 7.905170e+03        0
7.905170e+03 7.213609e+02        0
       0        0        0

2.523585e+05 2.295416e+04        0
2.295416e+04 2.454260e+04        0
       0        0        0

1.734397e+05 1.881702e+04        0
1.881702e+04 2.514571e+04        0
       0        0        0

1.025029e+05 1.438520e+04        0
1.438520e+04 1.762043e+04        0
       0        0        0

3.385606e+04 1.198125e+04        0
1.198125e+04 6.208055e+03        0
       0        0        0

-3.389383e+04 1.198058e+04        0
1.198058e+04 -6.247787e+03        0
       0        0        0

-1.025222e+05 1.438282e+04        0
1.438282e+04 -1.765360e+04        0
       0        0        0

-1.734197e+05 1.881193e+04        0
1.881193e+04 -2.516452e+04        0
       0        0        0

-2.522663e+05 2.294552e+04        0
2.294552e+04 -2.453326e+04        0
       0        0        0

-3.130643e+05 7.902023e+03        0
7.902023e+03 -6.810738e+02        0
       0        0        0

3.025778e+05 2.915987e+03        0
2.915987e+03 1.361750e+03        0
       0        0        0

2.428833e+05 1.297837e+04        0
1.297837e+04 3.512189e+03        0
       0        0        0

1.748423e+05 1.930427e+04        0
1.930427e+04 8.298415e+03        0
       0        0        0

1.039597e+05 2.042760e+04        0
2.042760e+04 7.101067e+03        0
       0        0        0

3.447994e+04 2.041426e+04        0
2.041426e+04 2.688855e+03        0
       0        0        0

-3.460140e+04 2.041325e+04        0
2.041325e+04 -2.812444e+03        0
       0        0        0

-1.040617e+05 2.042458e+04        0
2.042458e+04 -7.217705e+03        0
       0        0        0

-1.749030e+05 1.929958e+04        0
1.929958e+04 -8.399486e+03        0
       0        0        0

-2.428820e+05 1.297420e+04        0
1.297420e+04 -3.588221e+03        0
       0        0        0

-3.025054e+05 2.914833e+03        0
2.914833e+03 -1.408675e+03        0
       0        0        0

2.954696e+05 2.701141e+03        0
2.701141e+03 -4.096194e+02        0
       0        0        0

2.346090e+05 1.053058e+04        0
1.053058e+04 4.779900e+01        0
       0        0        0

1.697581e+05 1.756623e+04        0
1.756623e+04 1.028707e+03        0
       0        0        0

1.023254e+05 2.178615e+04        0
2.178615e+04 1.623074e+03        0
       0        0        0

3.401981e+04 2.345661e+04        0
2.345661e+04 6.495322e+02        0
       0        0        0

-3.426294e+04 2.345554e+04        0
2.345554e+04 -8.947913e+02        0
       0        0        0

-1.025493e+05 2.178318e+04        0
2.178318e+04 -1.861239e+03        0
       0        0        0

-1.699432e+05 1.756233e+04        0
1.756233e+04 -1.251884e+03        0
       0        0        0

-2.347365e+05 1.052738e+04        0
1.052738e+04 -2.474268e+02        0
       0        0        0

-2.955202e+05 2.700128e+03        0
2.700128e+03 2.449931e+02        0
       0        0        0

2.888457e+05 3.247830e+03        0
3.247830e+03 -3.800304e+02        0
       0        0        0

2.270837e+05 1.034345e+04        0
1.034345e+04 -8.846951e+02        0
       0        0        0

1.639236e+05 1.691958e+04        0
1.691958e+04 -7.910982e+02        0
       0        0        0

9.895915e+04 2.160194e+04        0
2.160194e+04 -4.591332e+02        0
       0        0        0

3.296047e+04 2.392950e+04        0
2.392950e+04 -2.325554e+02        0
       0        0        0

-3.335736e+04 2.392847e+04        0
2.392847e+04 -1.663476e+02        0
       0        0        0

-9.933793e+04 2.159917e+04        0
2.159917e+04 6.699402e+01        0
       0        0        0

-1.642661e+05 1.691600e+04        0
1.691600e+04 4.130276e+02        0
       0        0        0

-2.273716e+05 1.034043e+04        0
1.034043e+04 5.291741e+02        0
       0        0        0

-2.890583e+05 3.246635e+03        0
3.246635e+03 5.840897e+01        0
       0        0        0

2.817082e+05 3.717887e+03        0
3.717887e+03 -4.238185e+02        0
       0        0        0

2.202096e+05 1.071890e+04        0
1.071890e+04 -8.653480e+02        0
       0        0        0

1.582764e+05 1.679328e+04        0
1.679328e+04 -1.087421e+03        0
       0        0        0

9.537249e+04 2.124552e+04        0
2.124552e+04 -9.108269e+02        0
       0        0        0

3.168751e+04 2.356930e+04        0
2.356930e+04 -5.196216e+02        0
       0        0        0

-3.226607e+04 2.356833e+04        0
2.356833e+04 -6.081757e+01        0
       0        0        0

-9.593443e+04 2.124290e+04        0
2.124290e+04 3.364612e+02        0
       0        0        0

-1.588050e+05 1.678986e+04        0
1.678986e+04 5.256369e+02        0
       0        0        0

-2.206877e+05 1.071586e+04        0
1.071586e+04 3.236681e+02        0
       0        0        0

-2.821164e+05 3.716552e+03        0
3.716552e+03 -8.816016e+01        0
       0        0        0

2.740877e+05 4.015086e+03        0
4.015086e+03 -4.591312e+02        0
       0        0        0

2.135909e+05 1.108354e+04        0
1.108354e+04 -7.601107e+02        0
       0        0        0

1.530148e+05 1.684335e+04        0
1.684335e+04 -9.656780e+02        0
       0        0        0

9.196167e+04 2.097355e+04        0
2.097355e+04 -8.966636e+02        0
       0        0        0

3.045093e+04 2.313294e+04        0
2.313294e+04 -5.899202e+02        0
       0        0        0

-3.123618e+04 2.313202e+04        0
2.313202e+04 -1.970744e+02        0
       0        0        0

-9.273203e+04 2.097106e+04        0
2.097106e+04 1.147181e+02        0
       0        0        0

-1.537553e+05 1.684003e+04        0
1.684003e+04 1.941540e+02        0
       0        0        0

-2.142859e+05 1.108049e+04        0
1.108049e+04 5.109426e+00        0
       0        0        0

-2.747205e+05 4.013682e+03        0
4.013682e+03 -2.720221e+02        0
       0        0        0

2.661375e+05 4.179173e+03        0
4.179173e+03 -5.362038e+02        0
       0        0        0

2.070718e+05 1.132600e+04        0
1.132600e+04 -7.069380e+02        0
       0        0        0

1.480282e+05 1.691519e+04        0
1.691519e+04 -8.446788e+02        0
       0        0        0

8.877469e+04 2.081134e+04        0
2.081134e+04 -8.197303e+02        0
       0        0        0

2.928487e+04 2.282144e+04        0
2.282144e+04 -6.339673e+02        0
       0        0        0

-3.029942e+04 2.282057e+04        0
2.282057e+04 -3.822147e+02        0
       0        0        0

-8.977625e+04 2.080894e+04        0
2.080894e+04 -1.926685e+02        0
       0        0        0

-1.490037e+05 1.691195e+04        0
1.691195e+04 -1.599259e+02        0
       0        0        0

-2.080076e+05 1.132297e+04        0
1.132297e+04 -2.853860e+02        0
       0        0        0

-2.670196e+05 4.177752e+03        0
4.177752e+03 -4.386542e+02        0
       0        0        0

2.579973e+05 4.261538e+03        0
4.261538e+03 -6.425947e+02        0
       0        0        0

2.005805e+05 1.146292e+04        0
1.146292e+04 -7.300710e+02        0
       0        0        0

1.432026e+05 1.696836e+04        0
1.696836e+04 -8.075048e+02        0
       0        0        0

8.574272e+04 2.072641e+04        0
2.072641e+04 -8.007076e+02        0
       0        0        0

2.817434e+04 2.263980e+04        0
2.263980e+04 -7.018212e+02        0
       0        0        0

-2.943851e+04 2.263896e+04        0
2.263896e+04 -5.638717e+02        0
       0        0        0

-8.699590e+04 2.072410e+04        0
2.072410e+04 -4.626022e+02        0
       0        0        0

-1.444337e+05 1.696521e+04        0
1.696521e+04 -4.508799e+02        0
       0        0        0

-2.017781e+05 1.145994e+04        0
1.145994e+04 -5.205338e+02        0
       0        0        0

-2.591495e+05 4.260133e+03        0
4.260133e+03 -5.969542e+02        0
       0        0        0

2.497563e+05 4.299584e+03        0
4.299584e+03 -7.706881e+02        0
       0        0        0

1.940912e+05 1.153262e+04        0
1.153262e+04 -8.104829e+02        0
       0        0        0

1.384575e+05 1.700053e+04        0
1.700053e+04 -8.489933e+02        0
       0        0        0

8.279803e+04 2.068676e+04        0
2.068676e+04 -8.479704e+02        0
       0        0        0

2.709468e+04 2.254675e+04        0
2.254675e+04 -8.004948e+02        0
       0        0        0

-2.862645e+04 2.254594e+04        0
2.254594e+04 -7.326977e+02        0
       0        0        0

-8.432080e+04 2.068453e+04        0
2.068453e+04 -6.842903e+02        0
       0        0        0

-1.399622e+05 1.699747e+04        0
1.699747e+04 -6.812865e+02        0
       0        0        0

-1.955685e+05 1.152973e+04        0
1.152973e+04 -7.165428e+02        0
       0        0        0

-2.511965e+05 4.298210e+03        0
4.298210e+03 -7.515138e+02        0
       0        0        0

2.414646e+05 4.315776e+03        0
4.315776e+03 -9.133829e+02        0
       0        0        0

1.875954e+05 1.156547e+04        0
1.156547e+04 -9.278938e+02        0
       0        0        0

1.337471e+05 1.701835e+04        0
1.701835e+04 -9.440634e+02        0
       0        0        0

7.989495e+04 2.067086e+04        0
2.067086e+04 -9.439989e+02        0
       0        0        0

2.602843e+04 2.250450e+04        0
2.250450e+04 -9.231353e+02        0
       0        0        0

-2.784343e+04 2.250372e+04        0
2.250372e+04 -8.931962e+02        0
       0        0        0

-8.170293e+04 2.066869e+04        0
2.066869e+04 -8.728510e+02        0
       0        0        0

-1.355409e+05 1.701538e+04        0
1.701538e+04 -8.737280e+02        0
       0        0        0

-1.893678e+05 1.156265e+04        0
1.156265e+04 -8.910791e+02        0
       0        0        0

-2.432080e+05 4.314441e+03        0
4.314441e+03 -9.067623e+02        0
       0        0        0

2.331477e+05 4.322139e+03        0
4.322139e+03 -1.066026e+03        0
       0        0        0

1.810914e+05 1.158016e+04        0
1.158016e+04 -1.067410e+03        0
       0        0        0

1.290482e+05 1.702812e+04        0
1.702812e+04 -1.071502e+03        0
       0        0        0

7.700818e+04 2.066644e+04        0
2.066644e+04 -1.070613e+03        0
       0        0        0

2.496567e+04 2.248837e+04        0
2.248837e+04 -1.062121e+03        0
       0        0        0

-2.707721e+04 2.248761e+04        0
2.248761e+04 -1.050660e+03        0
       0        0        0

-7.911462e+04 2.066435e+04        0
2.066435e+04 -1.044107e+03        0
       0        0        0

-1.311444e+05 1.702525e+04        0
1.702525e+04 -1.047011e+03        0
       0        0        0

-1.831719e+05 1.157743e+04        0
1.157743e+04 -1.056584e+03        0
       0        0        0

-2.352070e+05 4.320848e+03        0
4.320848e+03 -1.064898e+03        0
       0        0        0

2.248178e+05 4.324533e+03        0
4.324533e+03 -1.225553e+03        0
       0        0        0

1.745801e+05 1.158679e+04        0
1.158679e+04 -1.219839e+03        0
       0        0        0

1.243505e+05 1.703399e+04        0
1.703399e+04 -1.217382e+03        0
       0        0        0

7.412543e+04 2.066726e+04        0
2.066726e+04 -1.215157e+03        0
       0        0        0

2.390175e+04 2.248462e+04        0
2.248462e+04 -1.211722e+03        0
       0        0        0

-2.632085e+04 2.248389e+04        0
2.248389e+04 -1.208539e+03        0
       0        0        0

-7.654130e+04 2.066524e+04        0
2.066524e+04 -1.208422e+03        0
       0        0        0

-1.267598e+05 1.703122e+04        0
1.703122e+04 -1.212751e+03        0
       0        0        0

-1.769794e+05 1.158416e+04        0
1.158416e+04 -1.219922e+03        0
       0        0        0

-2.272033e+05 4.323286e+03        0
4.323286e+03 -1.226671e+03        0
       0        0        0

2.164805e+05 4.325569e+03        0
4.325569e+03 -1.389911e+03        0
       0        0        0

1.680627e+05 1.159029e+04        0
1.159029e+04 -1.379849e+03        0
       0        0        0

1.196502e+05 1.703827e+04        0
1.703827e+04 -1.373565e+03        0
       0        0        0

7.124159e+04 2.067041e+04        0
2.067041e+04 -1.369946e+03        0
       0        0        0

2.283503e+04 2.248640e+04        0
2.248640e+04 -1.368167e+03        0
       0        0        0

-2.557051e+04 2.248569e+04        0
2.248569e+04 -1.368389e+03        0
       0        0        0

-7.397563e+04 2.066846e+04        0
2.066846e+04 -1.371259e+03        0
       0        0        0

-1.223813e+05 1.703561e+04        0
1.703561e+04 -1.376857e+03        0
       0        0        0

-1.707891e+05 1.158775e+04        0
1.158775e+04 -1.384195e+03        0
       0        0        0

-2.192003e+05 4.324367e+03        0
4.324367e+03 -1.391919e+03        0
       0        0        0

2.081383e+05 4.326300e+03        0
4.326300e+03 -1.557602e+03        0
       0        0        0

1.615405e+05 1.159286e+04        0
1.159286e+04 -1.544360e+03        0
       0        0        0

1.149464e+05 1.704215e+04        0
1.704215e+04 -1.535493e+03        0
       0        0        0

6.835509e+04 2.067467e+04        0
2.067467e+04 -1.530558e+03        0
       0        0        0

2.176539e+04 2.249059e+04        0
2.249059e+04 -1.529007e+03        0
       0        0        0

-2.482392e+04 2.248991e+04        0
2.248991e+04 -1.530520e+03        0
       0        0        0

-7.141392e+04 2.067280e+04        0
2.067280e+04 -1.534899e+03        0
       0        0        0

-1.180057e+05 1.703958e+04        0
1.703958e+04 -1.541744e+03        0
       0        0        0

-1.646004e+05 1.159042e+04        0
1.159042e+04 -1.550342e+03        0
       0        0        0

-2.111985e+05 4.325143e+03        0
4.325143e+03 -1.560007e+03        0
       0        0        0

1.997926e+05 4.327095e+03        0
4.327095e+03 -1.727422e+03        0
       0        0        0

1.550146e+05 1.159538e+04        0
1.159538e+04 -1.711470e+03        0
       0        0        0

1.102393e+05 1.704615e+04        0
1.704615e+04 -1.700557e+03        0
       0        0        0

6.546597e+04 2.067960e+04        0
2.067960e+04 -1.694405e+03        0
       0        0        0

2.069339e+04 2.249593e+04        0
2.249593e+04 -1.692561e+03        0
       0        0        0

-2.407958e+04 2.249528e+04        0
2.249528e+04 -1.694545e+03        0
       0        0        0

-6.885411e+04 2.067780e+04        0
2.067780e+04 -1.699865e+03        0
       0        0        0

-1.136313e+05 1.704368e+04        0
1.704368e+04 -1.707958e+03        0
       0        0        0

-1.584121e+05 1.159304e+04        0
1.159304e+04 -1.718206e+03        0
       0        0        0

-2.031970e+05 4.325983e+03        0
4.325983e+03 -1.730084e+03        0
       0        0        0

1.914441e+05 4.328056e+03        0
4.328056e+03 -1.898317e+03        0
       0        0        0

1.484860e+05 1.159819e+04        0
1.159819e+04 -1.879847e+03        0
       0        0        0

1.055299e+05 1.705052e+04        0
1.705052e+04 -1.867120e+03        0
       0        0        0

6.257485e+04 2.068508e+04        0
2.068508e+04 -1.859840e+03        0
       0        0        0

1.961985e+04 2.250197e+04        0
2.250197e+04 -1.857561e+03        0
       0        0        0

-2.333632e+04 2.250134e+04        0
2.250134e+04 -1.859750e+03        0
       0        0        0

-6.629487e+04 2.068335e+04        0
2.068335e+04 -1.865820e+03        0
       0        0        0

-1.092569e+05 1.704815e+04        0
1.704815e+04 -1.875151e+03        0
       0        0        0

-1.522233e+05 1.159594e+04        0
1.159594e+04 -1.887134e+03        0
       0        0        0

-1.951948e+05 4.326988e+03        0
4.326988e+03 -1.901225e+03        0
       0        0        0

1.830936e+05 4.329191e+03        0
4.329191e+03 -2.069317e+03        0
       0        0        0

1.419554e+05 1.160136e+04        0
1.160136e+04 -2.048427e+03        0
       0        0        0

1.008187e+05 1.705535e+04        0
1.705535e+04 -2.033997e+03        0
       0        0        0

5.968257e+04 2.069109e+04        0
2.069109e+04 -2.025663e+03        0
       0        0        0

1.854568e+04 2.250860e+04        0
2.250860e+04 -2.022948e+03        0
       0        0        0

-2.259314e+04 2.250800e+04        0
2.250800e+04 -2.025285e+03        0
       0        0        0

-6.373511e+04 2.068943e+04        0
2.068943e+04 -2.032053e+03        0
       0        0        0

-1.048814e+05 1.705308e+04        0
1.705308e+04 -2.042601e+03        0
       0        0        0

-1.460329e+05 1.159920e+04        0
1.159920e+04 -2.056287e+03        0
       0        0        0

-1.871906e+05 4.328168e+03        0
4.328168e+03 -2.072495e+03        0
       0        0        0

1.747417e+05 4.330490e+03        0
4.330490e+03 -2.239505e+03        0
       0        0        0

1.354237e+05 1.160491e+04        0
1.160491e+04 -2.216271e+03        0
       0        0        0

9.610687e+04 1.706068e+04        0
1.706068e+04 -2.200212e+03        0
       0        0        0

5.678999e+04 2.069766e+04        0
2.069766e+04 -2.190887e+03        0
       0        0        0

1.747177e+04 2.251583e+04        0
2.251583e+04 -2.187773e+03        0
       0        0        0

-2.184910e+04 2.251525e+04        0
2.251525e+04 -2.190269e+03        0
       0        0        0

-6.117388e+04 2.069608e+04        0
2.069608e+04 -2.197725e+03        0
       0        0        0

-1.005038e+05 1.705851e+04        0
1.705851e+04 -2.209457e+03        0
       0        0        0

-1.398399e+05 1.160284e+04        0
1.160284e+04 -2.224774e+03        0
       0        0        0

-1.791832e+05 4.329512e+03        0
4.329512e+03 -2.242984e+03        0
       0        0        0

1.663889e+05 4.331940e+03        0
4.331940e+03 -2.408010e+03        0
       0        0        0

1.288915e+05 1.160883e+04        0
1.160883e+04 -2.382506e+03        0
       0        0        0

9.139499e+04 1.706652e+04        0
1.706652e+04 -2.364883e+03        0
       0        0        0

5.389794e+04 2.070482e+04        0
2.070482e+04 -2.354625e+03        0
       0        0        0

1.639897e+04 2.252367e+04        0
2.252367e+04 -2.351154e+03        0
       0        0        0

-2.110331e+04 2.252313e+04        0
2.252313e+04 -2.353832e+03        0
       0        0        0

-5.861024e+04 2.070331e+04        0
2.070331e+04 -2.361971e+03        0
       0        0        0

-9.612311e+04 1.706445e+04        0
1.706445e+04 -2.374848e+03        0
       0        0        0

-1.336431e+05 1.160687e+04        0
1.160687e+04 -2.391718e+03        0
       0        0        0

-1.711715e+05 4.331007e+03        0
4.331007e+03 -2.411814e+03        0
       0        0        0

1.580359e+05 4.333535e+03        0
4.333535e+03 -2.573997e+03        0
       0        0        0

1.223595e+05 1.161314e+04        0
1.161314e+04 -2.546307e+03        0
       0        0        0

8.668384e+04 1.707289e+04        0
1.707289e+04 -2.527184e+03        0
       0        0        0

5.100719e+04 2.071260e+04        0
2.071260e+04 -2.516047e+03        0
       0        0        0

1.532810e+04 2.253218e+04        0
2.253218e+04 -2.512258e+03        0
       0        0        0

-2.035491e+04 2.253166e+04        0
2.253166e+04 -2.515135e+03        0
       0        0        0

-5.604329e+04 2.071116e+04        0
2.071116e+04 -2.523947e+03        0
       0        0        0

-9.173844e+04 1.707092e+04        0
1.707092e+04 -2.537927e+03        0
       0        0        0

-1.274417e+05 1.161127e+04        0
1.161127e+04 -2.556272e+03        0
       0        0        0

-1.631543e+05 4.332647e+03        0
4.332647e+03 -2.578145e+03        0
       0        0        0

1.496831e+05 4.335274e+03        0
4.335274e+03 -2.736672e+03        0
       0        0        0

1.158284e+05 1.161782e+04        0
1.161782e+04 -2.706883e+03        0
       0        0        0

8.197409e+04 1.707980e+04        0
1.707980e+04 -2.686332e+03        0
       0        0        0

4.811848e+04 2.072101e+04        0
2.072101e+04 -2.674366e+03        0
       0        0        0

1.425995e+04 2.254136e+04        0
2.254136e+04 -2.670291e+03        0
       0        0        0

-1.960309e+04 2.254087e+04        0
2.254087e+04 -2.673376e+03        0
       0        0        0

-5.347219e+04 2.071965e+04        0
2.071965e+04 -2.682845e+03        0
       0        0        0

-8.734883e+04 1.707793e+04        0
1.707793e+04 -2.697884e+03        0
       0        0        0

-1.212345e+05 1.161604e+04        0
1.161604e+04 -2.717629e+03        0
       0        0        0

-1.551306e+05 4.334431e+03        0
4.334431e+03 -2.741177e+03        0
       0        0        0

1.413310e+05 4.337161e+03        0
4.337161e+03 -2.895277e+03        0
       0        0        0

1.092986e+05 1.162289e+04        0
1.162289e+04 -2.863485e+03        0
       0        0        0

7.726636e+04 1.708726e+04        0
1.708726e+04 -2.841580e+03        0
       0        0        0

4.523249e+04 2.073008e+04        0
2.073008e+04 -2.828835e+03        0
       0        0        0

1.319525e+04 2.255124e+04        0
2.255124e+04 -2.824499e+03        0
       0        0        0

-1.884707e+04 2.255077e+04        0
2.255077e+04 -2.827790e+03        0
       0        0        0

-5.089608e+04 2.072878e+04        0
2.072878e+04 -2.837894e+03        0
       0        0        0

-8.295341e+04 1.708549e+04        0
1.708549e+04 -2.853944e+03        0
       0        0        0

-1.150206e+05 1.162120e+04        0
1.162120e+04 -2.875022e+03        0
       0        0        0

-1.470993e+05 4.336363e+03        0
4.336363e+03 -2.900149e+03        0
       0        0        0

1.329801e+05 4.339203e+03        0
4.339203e+03 -3.049095e+03        0
       0        0        0

1.027707e+05 1.162835e+04        0
1.162835e+04 -3.015402e+03        0
       0        0        0

7.256125e+04 1.709529e+04        0
1.709529e+04 -2.992219e+03        0
       0        0        0

4.234988e+04 2.073979e+04        0
2.073979e+04 -2.978742e+03        0
       0        0        0

1.213469e+04 2.256181e+04        0
2.256181e+04 -2.974163e+03        0
       0        0        0

-1.808609e+04 2.256137e+04        0
2.256137e+04 -2.977656e+03        0
       0        0        0

-4.831419e+04 2.073857e+04        0
2.073857e+04 -2.988364e+03        0
       0        0        0

-7.855130e+04 1.709361e+04        0
1.709361e+04 -3.005378e+03        0
       0        0        0

-1.087991e+05 1.162677e+04        0
1.162677e+04 -3.027721e+03        0
       0        0        0

-1.390594e+05 4.338450e+03        0
4.338450e+03 -3.054337e+03        0
       0        0        0

1.246308e+05 4.341414e+03        0
4.341414e+03 -3.197446e+03        0
       0        0        0

9.624511e+04 1.163424e+04        0
1.163424e+04 -3.161958e+03        0
       0        0        0

6.785931e+04 1.710388e+04        0
1.710388e+04 -3.137571e+03        0
       0        0        0

3.947125e+04 2.075017e+04        0
2.075017e+04 -3.123406e+03        0
       0        0        0

1.107894e+04 2.257308e+04        0
2.257308e+04 -3.118602e+03        0
       0        0        0

-1.731947e+04 2.257267e+04        0
2.257267e+04 -3.122293e+03        0
       0        0        0

-4.572577e+04 2.074902e+04        0
2.074902e+04 -3.133576e+03        0
       0        0        0

-7.414173e+04 1.710230e+04        0
1.710230e+04 -3.151501e+03        0
       0        0        0

-1.025692e+05 1.163274e+04        0
1.163274e+04 -3.175039e+03        0
       0        0        0

-1.310099e+05 4.340706e+03        0
4.340706e+03 -3.203059e+03        0
       0        0        0

1.162833e+05 4.343808e+03        0
4.343808e+03 -3.339689e+03        0
       0        0        0

8.972235e+04 1.164055e+04        0
1.164055e+04 -3.302500e+03        0
       0        0        0

6.316108e+04 1.711303e+04        0
1.711303e+04 -3.276966e+03        0
       0        0        0

3.659719e+04 2.076120e+04        0
2.076120e+04 -3.262149e+03        0
       0        0        0

1.002862e+04 2.258506e+04        0
2.258506e+04 -3.257159e+03        0
       0        0        0

-1.654653e+04 2.258468e+04        0
2.258468e+04 -3.261074e+03        0
       0        0        0

-4.313010e+04 2.076013e+04        0
2.076013e+04 -3.272922e+03        0
       0        0        0

-6.972391e+04 1.711156e+04        0
1.711156e+04 -3.291697e+03        0
       0        0        0

-9.632984e+04 1.163915e+04        0
1.163915e+04 -3.316343e+03        0
       0        0        0

-1.229500e+05 4.343145e+03        0
4.343145e+03 -3.345670e+03        0
       0        0        0

1.079380e+05 4.346392e+03        0
4.346392e+03 -3.475209e+03        0
       0        0        0

8.320282e+04 1.164725e+04        0
1.164725e+04 -3.436370e+03        0
       0        0        0

5.846702e+04 1.712272e+04        0
1.712272e+04 -3.409680e+03        0
       0        0        0

3.372819e+04 2.077290e+04        0
2.077290e+04 -3.394237e+03        0
       0        0        0

8.984285e+03 2.259783e+04        0
2.259783e+04 -3.389172e+03        0
       0        0        0

-1.576663e+04 2.259747e+04        0
2.259747e+04 -3.393454e+03        0
       0        0        0

-4.052648e+04 2.077191e+04        0
2.077191e+04 -3.405929e+03        0
       0        0        0

-6.529712e+04 1.712135e+04        0
1.712135e+04 -3.425483e+03        0
       0        0        0

-9.008043e+04 1.164595e+04        0
1.164595e+04 -3.451082e+03        0
       0        0        0

-1.148786e+05 4.345774e+03        0
4.345774e+03 -3.481573e+03        0
       0        0        0

9.959512e+04 4.349127e+03        0
4.349127e+03 -3.603406e+03        0
       0        0        0

7.668696e+04 1.165420e+04        0
1.165420e+04 -3.562815e+03        0
       0        0        0

5.377752e+04 1.713282e+04        0
1.713282e+04 -3.534787e+03        0
       0        0        0

3.086459e+04 2.078536e+04        0
2.078536e+04 -3.518735e+03        0
       0        0        0

7.946400e+03 2.261163e+04        0
2.261163e+04 -3.513921e+03        0
       0        0        0

-1.497911e+04 2.261129e+04        0
2.261129e+04 -3.519026e+03        0
       0        0        0

-3.791413e+04 2.078444e+04        0
2.078444e+04 -3.532405e+03        0
       0        0        0

-6.086062e+04 1.713155e+04        0
1.713155e+04 -3.552656e+03        0
       0        0        0

-8.382021e+04 1.165299e+04        0
1.165299e+04 -3.578877e+03        0
       0        0        0

-1.067949e+05 4.348554e+03        0
4.348554e+03 -3.610235e+03        0
       0        0        0

9.125518e+04 4.351825e+03        0
4.351825e+03 -3.723650e+03        0
       0        0        0

7.017524e+04 1.166091e+04        0
1.166091e+04 -3.680807e+03        0
       0        0        0

4.909264e+04 1.714304e+04        0
1.714304e+04 -3.650840e+03        0
       0        0        0

2.800633e+04 2.079884e+04        0
2.079884e+04 -3.634202e+03        0
       0        0        0

6.915213e+03 2.262720e+04        0
2.262720e+04 -3.630499e+03        0
       0        0        0

-1.418316e+04 2.262689e+04        0
2.262689e+04 -3.637652e+03        0
       0        0        0

-3.529192e+04 2.079798e+04        0
2.079798e+04 -3.652745e+03        0
       0        0        0

-5.641342e+04 1.714187e+04        0
1.714187e+04 -3.673614e+03        0
       0        0        0

-7.754860e+04 1.165979e+04        0
1.165979e+04 -3.699702e+03        0
       0        0        0

-9.869827e+04 4.351297e+03        0
4.351297e+03 -3.731225e+03        0
       0        0        0

8.291927e+04 4.353904e+03        0
4.353904e+03 -3.835194e+03        0
       0        0        0

6.366816e+04 1.166610e+04        0
1.166610e+04 -3.788660e+03        0
       0        0        0

4.441171e+04 1.715268e+04        0
1.715268e+04 -3.755253e+03        0
       0        0        0

2.515234e+04 2.081403e+04        0
2.081403e+04 -3.738114e+03        0
       0        0        0

5.890507e+03 2.264639e+04        0
2.264639e+04 -3.737578e+03        0
       0        0        0

-1.337760e+04 2.264611e+04        0
2.264611e+04 -3.749688e+03        0
       0        0        0

-3.265782e+04 2.081325e+04        0
2.081325e+04 -3.768504e+03        0
       0        0        0

-5.195387e+04 1.715161e+04        0
1.715161e+04 -3.789976e+03        0
       0        0        0

-7.126512e+04 1.166509e+04        0
1.166509e+04 -3.814269e+03        0
       0        0        0

-9.058893e+04 4.353422e+03        0
4.353422e+03 -3.844300e+03        0
       0        0        0

7.459019e+04 4.353850e+03        0
4.353850e+03 -3.937004e+03        0
       0        0        0

5.716622e+04 1.166685e+04        0
1.166685e+04 -3.883340e+03        0
       0        0        0

3.973223e+04 1.716031e+04        0
1.716031e+04 -3.843205e+03        0
       0        0        0

2.229935e+04 2.083269e+04        0
2.083269e+04 -3.825895e+03        0
       0        0        0

4.871079e+03 2.267336e+04        0
2.267336e+04 -3.833027e+03        0
       0        0        0

-1.256034e+04 2.267311e+04        0
2.267311e+04 -3.856375e+03        0
       0        0        0

-3.000769e+04 2.083199e+04        0
2.083199e+04 -3.883378e+03        0
       0        0        0

-4.747861e+04 1.715934e+04        0
1.715934e+04 -3.905687e+03        0
       0        0        0

-6.496940e+04 1.166593e+04        0
1.166593e+04 -3.924727e+03        0
       0        0        0

-8.246871e+04 4.353414e+03        0
4.353414e+03 -3.949573e+03        0
       0        0        0

6.627464e+04 4.348146e+03        0
4.348146e+03 -4.027478e+03        0
       0        0        0

5.066960e+04 1.165690e+04        0
1.165690e+04 -3.959339e+03        0
       0        0        0

3.504767e+04 1.716326e+04        0
1.716326e+04 -3.906044e+03        0
       0        0        0

1.943955e+04 2.085866e+04        0
2.085866e+04 -3.889586e+03        0
       0        0        0

3.853782e+03 2.271672e+04        0
2.271672e+04 -3.913409e+03        0
       0        0        0

-1.172741e+04 2.271649e+04        0
2.271649e+04 -3.960328e+03        0
       0        0        0

-2.733292e+04 2.085802e+04        0
2.085802e+04 -4.004526e+03        0
       0        0        0

-4.298034e+04 1.716239e+04        0
1.716239e+04 -4.028632e+03        0
       0        0        0

-5.866083e+04 1.165608e+04        0
1.165608e+04 -4.035812e+03        0
       0        0        0

-7.434347e+04 4.347756e+03        0
4.347756e+03 -4.047818e+03        0
       0        0        0

5.798750e+04 4.329329e+03        0
4.329329e+03 -4.104007e+03        0
       0        0        0

4.417716e+04 1.162424e+04        0
1.162424e+04 -4.007257e+03        0
       0        0        0

3.034338e+04 1.715720e+04        0
1.715720e+04 -3.929682e+03        0
       0        0        0

1.655663e+04 2.089968e+04        0
2.089968e+04 -3.916898e+03        0
       0        0        0

2.831977e+03 2.279252e+04        0
2.279252e+04 -3.973689e+03        0
       0        0        0

-1.087138e+04 2.279232e+04        0
2.279232e+04 -4.065798e+03        0
       0        0        0

-2.461648e+04 2.089912e+04        0
2.089912e+04 -4.143523e+03        0
       0        0        0

-3.844377e+04 1.715643e+04        0
1.715643e+04 -4.172269e+03        0
       0        0        0

-5.233769e+04 1.162352e+04        0
1.162352e+04 -4.156325e+03        0
       0        0        0

-6.622742e+04 4.328986e+03        0
4.328986e+03 -4.140951e+03        0
       0        0        0

4.975931e+04 4.282920e+03        0
4.282920e+03 -4.162579e+03        0
       0        0        0

3.768371e+04 1.154836e+04        0
1.154836e+04 -4.013038e+03        0
       0        0        0

2.558965e+04 1.713678e+04        0
1.713678e+04 -3.895470e+03        0
       0        0        0

1.362036e+04 2.096994e+04        0
2.096994e+04 -3.893339e+03        0
       0        0        0

1.793645e+03 2.292694e+04        0
2.292694e+04 -4.008393e+03        0
       0        0        0

-9.979416e+03 2.292676e+04        0
2.292676e+04 -4.177441e+03        0
       0        0        0

-2.182747e+04 2.096946e+04        0
2.096946e+04 -4.314198e+03        0
       0        0        0

-3.383877e+04 1.713611e+04        0
1.713611e+04 -4.354809e+03        0
       0        0        0

-4.599448e+04 1.154773e+04        0
1.154773e+04 -4.300029e+03        0
       0        0        0

-5.815067e+04 4.282625e+03        0
4.282625e+03 -4.232577e+03        0
       0        0        0

4.164701e+04 4.183633e+03        0
4.183633e+03 -4.197706e+03        0
       0        0        0

3.117312e+04 1.140048e+04        0
1.140048e+04 -3.961732e+03        0
       0        0        0

2.073281e+04 1.710016e+04        0
1.710016e+04 -3.790891e+03        0
       0        0        0

1.058249e+04 2.109194e+04        0
2.109194e+04 -3.815462e+03        0
       0        0        0

7.208385e+02 2.315335e+04        0
2.315335e+04 -4.017395e+03        0
       0        0        0

-9.032574e+03 2.315320e+04        0
2.315320e+04 -4.294383e+03        0
       0        0        0

-1.891696e+04 2.109153e+04        0
2.109153e+04 -4.519304e+03        0
       0        0        0

-2.911147e+04 1.709960e+04        0
1.709960e+04 -4.588592e+03        0
       0        0        0

-3.961535e+04 1.139996e+04        0
1.139996e+04 -4.482147e+03        0
       0        0        0

-5.017040e+04 4.183388e+03        0
4.183388e+03 -4.328435e+03        0
       0        0        0

3.374365e+04 3.993997e+03        0
3.993997e+03 -4.206536e+03        0
       0        0        0

2.460324e+04 1.115765e+04        0
1.115765e+04 -3.855750e+03        0
       0        0        0

1.568965e+04 1.706430e+04        0
1.706430e+04 -3.651445e+03        0
       0        0        0

7.385330e+03 2.129187e+04        0
2.129187e+04 -3.732898e+03        0
       0        0        0

-4.046772e+02 2.348906e+04        0
2.348906e+04 -4.023876e+03        0
       0        0        0

-8.011109e+03 2.348894e+04        0
2.348894e+04 -4.391936e+03        0
       0        0        0

-1.582632e+04 2.129153e+04        0
2.129153e+04 -4.708277e+03        0
       0        0        0

-2.417881e+04 1.706385e+04        0
1.706385e+04 -4.838235e+03        0
       0        0        0

-3.315946e+04 1.115722e+04        0
1.115722e+04 -4.701565e+03        0
       0        0        0

-4.238144e+04 3.993803e+03        0
3.993803e+03 -4.433149e+03        0
       0        0        0

2.616898e+04 3.678936e+03        0
3.678936e+03 -4.196633e+03        0
       0        0        0

1.787443e+04 1.086137e+04        0
1.086137e+04 -3.792355e+03        0
       0        0        0

1.037175e+04 1.709819e+04        0
1.709819e+04 -3.677384e+03        0
       0        0        0

4.009226e+03 2.156984e+04        0
2.156984e+04 -3.854464e+03        0
       0        0        0

-1.577206e+03 2.385850e+04        0
2.385850e+04 -4.113206e+03        0
       0        0        0

-6.918149e+03 2.385842e+04        0
2.385842e+04 -4.382162e+03        0
       0        0        0

-1.253421e+04 2.156960e+04        0
2.156960e+04 -4.670618e+03        0
       0        0        0

-1.895257e+04 1.709785e+04        0
1.709785e+04 -4.903718e+03        0
       0        0        0

-2.653014e+04 1.086105e+04        0
1.086105e+04 -4.863995e+03        0
       0        0        0

-3.490869e+04 3.678793e+03        0
3.678793e+03 -4.544298e+03        0
       0        0        0

1.896492e+04 3.297684e+03        0
3.297684e+03 -4.300767e+03        0
       0        0        0

1.081249e+04 1.078546e+04        0
1.078546e+04 -4.181274e+03        0
       0        0        0

4.803824e+03 1.736074e+04        0
1.736074e+04 -4.559470e+03        0
       0        0        0

6.118471e+02 2.177390e+04        0
2.177390e+04 -4.727460e+03        0
       0        0        0

-2.718857e+03 2.392165e+04        0
2.392165e+04 -4.477744e+03        0
       0        0        0

-5.827116e+03 2.392161e+04        0
2.392161e+04 -4.068234e+03        0
       0        0        0

-9.194895e+03 2.177378e+04        0
2.177378e+04 -3.855621e+03        0
       0        0        0

-1.345687e+04 1.736054e+04        0
1.736054e+04 -4.093689e+03        0
       0        0        0

-1.955813e+04 1.078525e+04        0
1.078525e+04 -4.564662e+03        0
       0        0        0

-2.780634e+04 3.297587e+03        0
3.297587e+03 -4.541377e+03        0
       0        0        0

1.171982e+04 3.438470e+03        0
3.438470e+03 -4.847824e+03        0
       0        0        0

3.271618e+03 1.184464e+04        0
1.184464e+04 -6.824824e+03        0
       0        0        0

-4.152743e+02 1.784212e+04        0
1.784212e+04 -8.011058e+03        0
       0        0        0

-2.289909e+03 2.126246e+04        0
2.126246e+04 -7.317695e+03        0
       0        0        0

-3.654952e+03 2.282695e+04        0
2.282695e+04 -5.422730e+03        0
       0        0        0

-4.905367e+03 2.282697e+04        0
2.282697e+04 -3.137588e+03        0
       0        0        0

-6.318533e+03 2.126248e+04        0
2.126248e+04 -1.290740e+03        0
       0        0        0

-8.286496e+03 1.784211e+04        0
1.784211e+04 -6.907150e+02        0
       0        0        0

-1.210203e+04 1.184456e+04        0
1.184456e+04 -2.005662e+03        0
       0        0        0

-2.068637e+04 3.438402e+03        0
3.438402e+03 -4.119086e+03        0
       0        0        0

2.026001e+03 7.840407e+03        0
7.840407e+03 -1.069953e+04        0
       0        0        0

-2.999223e+03 1.467868e+04        0
1.467868e+04 -1.690024e+04        0
       0        0        0

-3.636651e+03 1.723876e+04        0
1.723876e+04 -1.650073e+04        0
       0        0        0

-3.960671e+03 1.849298e+04        0
1.849298e+04 -1.273002e+04        0
       0        0        0

-4.159476e+03 1.904154e+04        0
1.904154e+04 -7.254334e+03        0
       0        0        0

-4.368205e+03 1.904161e+04        0
1.904161e+04 -1.273336e+03        0
       0        0        0

-4.628645e+03 1.849317e+04        0
1.849317e+04 4.140800e+03        0
       0        0        0

-5.077593e+03 1.723901e+04        0
1.723901e+04 7.786688e+03        0
       0        0        0

-5.904235e+03 1.467889e+04        0
1.467889e+04 7.997002e+03        0
       0        0        0

-1.116321e+04 7.840398e+03        0
7.840398e+03 1.562309e+03        0
       0        0        0

POINT_DATA     451
VECTORS DISPLACEMENT_4.000000e-02 double
0.000000e+00    0.000000e+00    0.000000e+00
0.000000e+00    0.000000e+00    0.000000e+00
0.000000e+00    0.000000e+00    0.000000e+00
0.000000e+00    0.000000e+00    0.000000e+00
0.000000e+00    0.000000e+00    0.000000e+00
0.000000e+00    0.000000e+00    0.000000e+00
0.000000e+00    0.000000e+00    0.000000e+00
0.000000e+00    0.000000e+00    0.000000e+00
0.000000e+00    0.000000e+00    0.000000e+00
0.000000e+00    0.000000e+00    0.000000e+00
0.000000e+00    0.000000e+00    0.000000e+00
-4.466414e-07    -3.246593e-07    0.000000e+00
-2.830368e-07    -1.628074e-07    0.000000e+00
-2.019603e-07    -8.431081e-08    0.000000e+00
-1.303975e-07    -4.169090e-08    0.000000e+00
-6.428984e-08    -1.963161e-08    0.000000e+00
-1.503247e-20    -1.277264e-08    0.000000e+00
6.428984e-08    -1.963161e-08    0.000000e+00
1.303975e-07    -4.169090e-08    0.000000e+00
2.019603e-07    -8.431081e-08    0.000000e+00
2.830368e-07    -1.628074e-07    0.000000e+00
4.466414e-07    -3.246593e-07    0.000000e+00
-8.427527e-07    -5.399058e-07    0.000000e+00
-6.160661e-07    -3.906057e-07    0.000000e+00
-4.324390e-07    -2.742985e-07    0.000000e+00
-2.789494e-07    -2.023483e-07    0.000000e+00
-1.370070e-07    -1.631411e-07    0.000000e+00
-3.175588e-20    -1.506872e-07    0.000000e+00
1.370070e-07    -1.631411e-07    0.000000e+00
2.789494e-07    -2.023483e-07    0.000000e+00
4.324390e-07    -2.742985e-07    0.000000e+00
6.160661e-07    -3.906057e-07    0.000000e+00
8.427527e-07    -5.399058e-07    0.000000e+00
-1.225648e-06    -8.075758e-07    0.000000e+00
-9.368417e-07    -6.579405e-07    0.000000e+00
-6.741269e-07    -5.399536e-07    0.000000e+00
-4.364285e-07    -4.567268e-07    0.000000e+00
-2.147464e-07    -4.087547e-07    0.000000e+00
-5.001796e-20    -3.931278e-07    0.000000e+00
2.147464e-07    -4.087547e-07    0.000000e+00
4.364285e-07    -4.567268e-07    0.000000e+00
6.741269e-07    -5.399536e-07    0.000000e+00
9.368417e-07    -6.579405e-07    0.000000e+00
1.225648e-06    -8.075758e-07    0.000000e+00
-1.604328e-06    -1.137944e-06    0.000000e+00
-1.247060e-06    -9.917154e-07    0.000000e+00
-9.105994e-07    -8.756906e-07    0.000000e+00
-5.945999e-07    -7.919594e-07    0.000000e+00
-2.935287e-07    -7.416994e-07    0.000000e+00
-6.902988e-20    -7.250335e-07    0.000000e+00
2.935287e-07    -7.416994e-07    0.000000e+00
5.945999e-07    -7.919594e-07    0.000000e+00
9.105994e-07    -8.756906e-07    0.000000e+00
1.247060e-06    -9.917154e-07    0.000000e+00
1.604328e-06    -1.137944e-06    0.000000e+00
-1.976620e-06    -1.539911e-06    0.000000e+00
-1.548255e-06    -1.397086e-06    0.000000e+00
-1.139559e-06    -1.284558e-06    0.000000e+00
-7.485862e-07    -1.203027e-06    0.000000e+00
-3.708219e-07    -1.153669e-06    0.000000e+00
-8.868700e-20    -1.137147e-06    0.000000e+00
3.708219e-07    -1.153669e-06    0.000000e+00
7.485862e-07    -1.203027e-06    0.000000e+00
1.139559e-06    -1.284558e-06    0.000000e+00
1.548255e-06    -1.397086e-06    0.000000e+00
1.976620e-06    -1.539911e-06    0.000000e+00
-2.340821e-06    -2.014521e-06    0.000000e+00
-1.841028e-06    -1.875465e-06    0.000000e+00
-1.360989e-06    -1.766490e-06    0.000000e+00
-8.973361e-07    -1.687839e-06    0.000000e+00
-4.455516e-07    -1.640234e-06    0.000000e+00
-1.086915e-19    -1.624293e-06    0.000000e+00
4.455516e-07    -1.640234e-06    0.000000e+00
8.973361e-07    -1.687839e-06    0.000000e+00
1.360989e-06    -1.766490e-06    0.000000e+00
1.841028e-06    -1.875465e-06    0.000000e+00
2.340821e-06    -2.014521e-06    0.000000e+00
-2.695713e-06    -2.560973e-06    0.000000e+00
-2.125486e-06    -2.425843e-06    0.000000e+00
-1.575309e-06    -2.320328e-06    0.000000e+00
-1.040925e-06    -2.244485e-06    0.000000e+00
-5.176020e-07    -2.198711e-06    0.000000e+00
-1.276439e-19    -2.183400e-06    0.000000e+00
5.176020e-07    -2.198711e-06    0.000000e+00
1.040925e-06    -2.244485e-06    0.000000e+00
1.575309e-06    -2.320328e-06    0.000000e+00
2.125486e-06    -2.425843e-06    0.000000e+00
2.695713e-06    -2.560973e-06    0.000000e+00
-3.040622e-06    -3.177543e-06    0.000000e+00
-2.401592e-06    -3.046430e-06    0.000000e+00
-1.782858e-06    -2.944262e-06    0.000000e+00
-1.179674e-06    -2.871040e-06    0.000000e+00
-5.871262e-07    -2.826957e-06    0.000000e+00
-1.462455e-19    -2.812233e-06    0.000000e+00
5.871262e-07    -2.826957e-06    0.000000e+00
1.179674e-06    -2.871040e-06    0.000000e+00
1.782858e-06    -2.944262e-06    0.000000e+00
2.401592e-06    -3.046430e-06    0.000000e+00
3.040622e-06    -3.177543e-06    0.000000e+00
-3.375200e-06    -3.862203e-06    0.000000e+00
-2.669296e-06    -3.735150e-06    0.000000e+00
-1.983840e-06    -3.636252e-06    0.000000e+00
-1.313849e-06    -3.565495e-06    0.000000e+00
-6.542909e-07    -3.522967e-06    0.000000e+00
-1.656611e-19    -3.508775e-06    0.000000e+00
6.542909e-07    -3.522967e-06    0.000000e+00
1.313849e-06    -3.565495e-06    0.000000e+00
1.983840e-06    -3.636252e-06    0.000000e+00
2.669296e-06    -3.735150e-06    0.000000e+00
3.375200e-06    -3.862203e-06    0.000000e+00
-3.699283e-06    -4.612825e-06    0.000000e+00
-2.928560e-06    -4.489853e-06    0.000000e+00
-2.178367e-06    -4.394178e-06    0.000000e+00
-1.443617e-06    -4.325790e-06    0.000000e+00
-7.192107e-07    -4.284724e-06    0.000000e+00
-1.848252e-19    -4.271028e-06    0.000000e+00
7.192107e-07    -4.284724e-06    0.000000e+00
1.443617e-06    -4.325790e-06    0.000000e+00
2.178367e-06    -4.394178e-06    0.000000e+00
2.928560e-06    -4.489853e-06    0.000000e+00
3.699283e-06    -4.612825e-06    0.000000e+00
-4.012801e-06    -5.427265e-06    0.000000e+00
-3.179362e-06    -5.308379e-06    0.000000e+00
-2.366495e-06    -5.215904e-06    0.000000e+00
-1.569068e-06    -5.149833e-06    0.000000e+00
-7.819514e-07    -5.110176e-06    0.000000e+00
-2.021497e-19    -5.096954e-06    0.000000e+00
7.819514e-07    -5.110176e-06    0.000000e+00
1.569068e-06    -5.149833e-06    0.000000e+00
2.366495e-06    -5.215904e-06    0.000000e+00
3.179362e-06    -5.308379e-06    0.000000e+00
4.012801e-06    -5.427265e-06    0.000000e+00
-4.315726e-06    -6.303380e-06    0.000000e+00
-3.421692e-06    -6.188583e-06    0.000000e+00
-2.548247e-06    -6.099297e-06    0.000000e+00
-1.690247e-06    -6.035515e-06    0.000000e+00
-8.425465e-07    -5.997242e-06    0.000000e+00
-2.195404e-19    -5.984483e-06    0.000000e+00
8.425465e-07    -5.997242e-06    0.000000e+00
1.690247e-06    -6.035515e-06    0.000000e+00
2.548247e-06    -6.099297e-06    0.000000e+00
3.421692e-06    -6.188583e-06    0.000000e+00
4.315726e-06    -6.303380e-06    0.000000e+00
-4.608050e-06    -7.239035e-06    0.000000e+00
-3.655542e-06    -7.128329e-06    0.000000e+00
-2.723634e-06    -7.042226e-06    0.000000e+00
-1.807173e-06    -6.980724e-06    0.000000e+00
-9.010113e-07    -6.943821e-06    0.000000e+00
-2.400015e-19    -6.931520e-06    0.000000e+00
9.010113e-07    -6.943821e-06    0.000000e+00
1.807173e-06    -6.980724e-06    0.000000e+00
2.723634e-06    -7.042226e-06    0.000000e+00
3.655542e-06    -7.128329e-06    0.000000e+00
4.608050e-06    -7.239035e-06    0.000000e+00
-4.889768e-06    -8.232104e-06    0.000000e+00
-3.880911e-06    -8.125488e-06    0.000000e+00
-2.892657e-06    -8.042567e-06    0.000000e+00
-1.919855e-06    -7.983339e-06    0.000000e+00
-9.573523e-07    -7.947802e-06    0.000000e+00
-2.546922e-19    -7.935957e-06    0.000000e+00
9.573523e-07    -7.947802e-06    0.000000e+00
1.919855e-06    -7.983339e-06    0.000000e+00
2.892657e-06    -8.042567e-06    0.000000e+00
3.880911e-06    -8.125488e-06    0.000000e+00
4.889768e-06    -8.232104e-06    0.000000e+00
-5.160881e-06    -9.280461e-06    0.000000e+00
-4.097797e-06    -9.177936e-06    0.000000e+00
-3.055319e-06    -9.098197e-06    0.000000e+00
-2.028294e-06    -9.041241e-06    0.000000e+00
-1.011572e-06    -9.007069e-06    0.000000e+00
-2.662595e-19    -8.995678e-06    0.000000e+00
1.011572e-06    -9.007069e-06    0.000000e+00
2.028294e-06    -9.041241e-06    0.000000e+00
3.055319e-06    -9.098197e-06    0.000000e+00
4.097797e-06    -9.177936e-06    0.000000e+00
5.160881e-06    -9.280461e-06    0.000000e+00
-5.421388e-06    -1.038199e-05    0.000000e+00
-4.306198e-06    -1.028355e-05    0.000000e+00
-3.211617e-06    -1.020699e-05    0.000000e+00
-2.132492e-06    -1.015231e-05    0.000000e+00
-1.063670e-06    -1.011950e-05    0.000000e+00
-2.765563e-19    -1.010857e-05    0.000000e+00
1.063670e-06    -1.011950e-05    0.000000e+00
2.132492e-06    -1.015231e-05    0.000000e+00
3.211617e-06    -1.020699e-05    0.000000e+00
4.306198e-06    -1.028355e-05    0.000000e+00
5.421388e-06    -1.038199e-05    0.000000e+00
-5.671288e-06    -1.153456e-05    0.000000e+00
-4.506115e-06    -1.144021e-05    0.000000e+00
-3.361552e-06    -1.136684e-05    0.000000e+00
-2.232447e-06    -1.131443e-05    0.000000e+00
-1.113647e-06    -1.128298e-05    0.000000e+00
-2.805267e-19    -1.127250e-05    0.000000e+00
1.113647e-06    -1.128298e-05    0.000000e+00
2.232447e-06    -1.131443e-05    0.000000e+00
3.361552e-06    -1.136684e-05    0.000000e+00
4.506115e-06    -1.144021e-05    0.000000e+00
5.671288e-06    -1.153456e-05    0.000000e+00
-5.910582e-06    -1.273605e-05    0.000000e+00
-4.697546e-06    -1.264580e-05    0.000000e+00
-3.505122e-06    -1.257561e-05    0.000000e+00
-2.328159e-06    -1.252547e-05    0.000000e+00
-1.161503e-06    -1.249539e-05    0.000000e+00
-2.874618e-19    -1.248536e-05    0.000000e+00
1.161503e-06    -1.249539e-05    0.000000e+00
2.328159e-06    -1.252547e-05    0.000000e+00
3.505122e-06    -1.257561e-05    0.000000e+00
4.697546e-06    -1.264580e-05    0.000000e+00
5.910582e-06    -1.273605e-05    0.000000e+00
-6.139267e-06    -1.398435e-05    0.000000e+00
-4.880489e-06    -1.389819e-05    0.000000e+00
-3.642328e-06    -1.383118e-05    0.000000e+00
-2.419628e-06    -1.378332e-05    0.000000e+00
-1.207237e-06    -1.375460e-05    0.000000e+00
-2.984732e-19    -1.374503e-05    0.000000e+00
1.207237e-06    -1.375460e-05    0.000000e+00
2.419628e-06    -1.378332e-05    0.000000e+00
3.642328e-06    -1.383118e-05    0.000000e+00
4.880489e-06    -1.389819e-05    0.000000e+00
6.139267e-06    -1.398435e-05    0.000000e+00
-6.357343e-06    -1.527733e-05    0.000000e+00
-5.054945e-06    -1.519526e-05    0.000000e+00
-3.773167e-06    -1.513144e-05    0.000000e+00
-2.506853e-06    -1.508585e-05    0.000000e+00
-1.250849e-06    -1.505849e-05    0.000000e+00
-3.191726e-19    -1.504938e-05    0.000000e+00
1.250849e-06    -1.505849e-05    0.000000e+00
2.506853e-06    -1.508585e-05    0.000000e+00
3.773167e-06    -1.513144e-05    0.000000e+00
5.054945e-06    -1.519526e-05    0.000000e+00
6.357343e-06    -1.527733e-05    0.000000e+00
-6.564807e-06    -1.661287e-05    0.000000e+00
-5.220911e-06    -1.653490e-05    0.000000e+00
-3.897638e-06    -1.647426e-05    0.000000e+00
-2.589832e-06    -1.643094e-05    0.000000e+00
-1.292338e-06    -1.640495e-05    0.000000e+00
-3.445836e-19    -1.639629e-05    0.000000e+00
1.292338e-06    -1.640495e-05    0.000000e+00
2.589832e-06    -1.643094e-05    0.000000e+00
3.897638e-06    -1.647426e-05    0.000000e+00
5.220911e-06    -1.653490e-05    0.000000e+00
6.564807e-06    -1.661287e-05    0.000000e+00
-6.761658e-06    -1.798885e-05    0.000000e+00
-5.378387e-06    -1.791497e-05    0.000000e+00
-4.015742e-06    -1.785751e-05    0.000000e+00
-2.668566e-06    -1.781647e-05    0.000000e+00
-1.331705e-06    -1.779185e-05    0.000000e+00
-3.670300e-19    -1.778364e-05    0.000000e+00
1.331705e-06    -1.779185e-05    0.000000e+00
2.668566e-06    -1.781647e-05    0.000000e+00
4.015742e-06    -1.785751e-05    0.000000e+00
5.378387e-06    -1.791497e-05    0.000000e+00
6.761658e-06    -1.798885e-05    0.000000e+00
-6.947895e-06    -1.940315e-05    0.000000e+00
-5.527370e-06    -1.933336e-05    0.000000e+00
-4.127476e-06    -1.927909e-05    0.000000e+00
-2.743054e-06    -1.924033e-05    0.000000e+00
-1.368948e-06    -1.921707e-05    0.000000e+00
-3.823295e-19    -1.920932e-05    0.000000e+00
1.368948e-06    -1.921707e-05    0.000000e+00
2.743054e-06    -1.924033e-05    0.000000e+00
4.127476e-06    -1.927909e-05    0.000000e+00
5.527370e-06    -1.933336e-05    0.000000e+00
6.947895e-06    -1.940315e-05    0.000000e+00
-7.123514e-06    -2.085364e-05    0.000000e+00
-5.667859e-06    -2.078795e-05    0.000000e+00
-4.232839e-06    -2.073686e-05    0.000000e+00
-2.813295e-06    -2.070038e-05    0.000000e+00
-1.404068e-06    -2.067848e-05    0.000000e+00
-3.994819e-19    -2.067119e-05    0.000000e+00
1.404068e-06    -2.067848e-05    0.000000e+00
2.813295e-06    -2.070038e-05    0.000000e+00
4.232839e-06    -2.073686e-05    0.000000e+00
5.667859e-06    -2.078795e-05    0.000000e+00
7.123514e-06    -2.085364e-05    0.000000e+00
-7.288515e-06    -2.233820e-05    0.000000e+00
-5.799853e-06    -2.227661e-05    0.000000e+00
-4.331831e-06    -2.222871e-05    0.000000e+00
-2.879288e-06    -2.219450e-05    0.000000e+00
-1.437064e-06    -2.217397e-05    0.000000e+00
-4.087993e-19    -2.216713e-05    0.000000e+00
1.437064e-06    -2.217397e-05    0.000000e+00
2.879288e-06    -2.219450e-05    0.000000e+00
4.331831e-06    -2.222871e-05    0.000000e+00
5.799853e-06    -2.227661e-05    0.000000e+00
7.288515e-06    -2.233820e-05    0.000000e+00
-7.442893e-06    -2.385471e-05    0.000000e+00
-5.923349e-06    -2.379722e-05    0.000000e+00
-4.424449e-06    -2.375251e-05    0.000000e+00
-2.941032e-06    -2.372057e-05    0.000000e+00
-1.467935e-06    -2.370141e-05    0.000000e+00
-4.173755e-19    -2.369502e-05    0.000000e+00
1.467935e-06    -2.370141e-05    0.000000e+00
2.941032e-06    -2.372057e-05    0.000000e+00
4.424449e-06    -2.375251e-05    0.000000e+00
5.923349e-06    -2.379722e-05    0.000000e+00
7.442893e-06    -2.385471e-05    0.000000e+00
-7.586648e-06    -2.540105e-05    0.000000e+00
-6.038346e-06    -2.534765e-05    0.000000e+00
-4.510693e-06    -2.530613e-05    0.000000e+00
-2.998526e-06    -2.527647e-05    0.000000e+00
-1.496682e-06    -2.525867e-05    0.000000e+00
-4.206577e-19    -2.525274e-05    0.000000e+00
1.496682e-06    -2.525867e-05    0.000000e+00
2.998526e-06    -2.527647e-05    0.000000e+00
4.510693e-06    -2.530613e-05    0.000000e+00
6.038346e-06    -2.534765e-05    0.000000e+00
7.586648e-06    -2.540105e-05    0.000000e+00
-7.719774e-06    -2.697508e-05    0.000000e+00
-6.144841e-06    -2.692579e-05    0.000000e+00
-4.590561e-06    -2.688745e-05    0.000000e+00
-3.051769e-06    -2.686007e-05    0.000000e+00
-1.523303e-06    -2.684364e-05    0.000000e+00
-4.205519e-19    -2.683817e-05    0.000000e+00
1.523303e-06    -2.684364e-05    0.000000e+00
3.051769e-06    -2.686007e-05    0.000000e+00
4.590561e-06    -2.688745e-05    0.000000e+00
6.144841e-06    -2.692579e-05    0.000000e+00
7.719774e-06    -2.697508e-05    0.000000e+00
-7.842270e-06    -2.857468e-05    0.000000e+00
-6.242833e-06    -2.852949e-05    0.000000e+00
-4.664051e-06    -2.849434e-05    0.000000e+00
-3.100759e-06    -2.846924e-05    0.000000e+00
-1.547796e-06    -2.845419e-05    0.000000e+00
-4.202342e-19    -2.844917e-05    0.000000e+00
1.547796e-06    -2.845419e-05    0.000000e+00
3.100759e-06    -2.846924e-05    0.000000e+00
4.664051e-06    -2.849434e-05    0.000000e+00
6.242833e-06    -2.852949e-05    0.000000e+00
7.842270e-06    -2.857468e-05    0.000000e+00
-7.954133e-06    -3.019773e-05    0.000000e+00
-6.332321e-06    -3.015663e-05    0.000000e+00
-4.731159e-06    -3.012468e-05    0.000000e+00
-3.145489e-06    -3.010187e-05    0.000000e+00
-1.570157e-06    -3.008820e-05    0.000000e+00
-4.319868e-19    -3.008364e-05    0.000000e+00
1.570157e-06    -3.008820e-05    0.000000e+00
3.145489e-06    -3.010187e-05    0.000000e+00
4.731159e-06    -3.012468e-05    0.000000e+00
6.332321e-06    -3.015663e-05    0.000000e+00
7.954133e-06    -3.019773e-05    0.000000e+00
-8.055365e-06    -3.184208e-05    0.000000e+00
-6.413305e-06    -3.180509e-05    0.000000e+00
-4.791877e-06    -3.177634e-05    0.000000e+00
-3.185947e-06    -3.175583e-05    0.000000e+00
-1.590377e-06    -3.174355e-05    0.000000e+00
-4.475510e-19    -3.173946e-05    0.000000e+00
1.590377e-06    -3.174355e-05    0.000000e+00
3.185947e-06    -3.175583e-05    0.000000e+00
4.791877e-06    -3.177634e-05    0.000000e+00
6.413305e-06    -3.180509e-05    0.000000e+00
8.055365e-06    -3.184208e-05    0.000000e+00
-8.145976e-06    -3.350559e-05    0.000000e+00
-6.485789e-06    -3.347270e-05    0.000000e+00
-4.846190e-06    -3.344717e-05    0.000000e+00
-3.222106e-06    -3.342900e-05    0.000000e+00
-1.608434e-06    -3.341815e-05    0.000000e+00
-4.769854e-19    -3.341454e-05    0.000000e+00
1.608434e-06    -3.341815e-05    0.000000e+00
3.222106e-06    -3.342900e-05    0.000000e+00
4.846190e-06    -3.344717e-05    0.000000e+00
6.485789e-06    -3.347270e-05    0.000000e+00
8.145976e-06    -3.350559e-05    0.000000e+00
-8.226004e-06    -3.518612e-05    0.000000e+00
-6.549784e-06    -3.515732e-05    0.000000e+00
-4.894063e-06    -3.513503e-05    0.000000e+00
-3.253907e-06    -3.511927e-05    0.000000e+00
-1.624287e-06    -3.510991e-05    0.000000e+00
-5.034552e-19    -3.510680e-05    0.000000e+00
1.624287e-06    -3.510991e-05    0.000000e+00
3.253907e-06    -3.511927e-05    0.000000e+00
4.894063e-06    -3.513503e-05    0.000000e+00
6.549784e-06    -3.515732e-05    0.000000e+00
8.226004e-06    -3.518612e-05    0.000000e+00
-8.295541e-06    -3.688152e-05    0.000000e+00
-6.605311e-06    -3.685678e-05    0.000000e+00
-4.935424e-06    -3.683780e-05    0.000000e+00
-3.281242e-06    -3.682455e-05    0.000000e+00
-1.637860e-06    -3.681677e-05    0.000000e+00
-5.160548e-19    -3.681421e-05    0.000000e+00
1.637860e-06    -3.681677e-05    0.000000e+00
3.281242e-06    -3.682455e-05    0.000000e+00
4.935424e-06    -3.683780e-05    0.000000e+00
6.605311e-06    -3.685678e-05    0.000000e+00
8.295541e-06    -3.688152e-05    0.000000e+00
-8.354796e-06    -3.858970e-05    0.000000e+00
-6.652404e-06    -3.856898e-05    0.000000e+00
-4.970139e-06    -3.855338e-05    0.000000e+00
-3.303930e-06    -3.854277e-05    0.000000e+00
-1.649035e-06    -3.853670e-05    0.000000e+00
-5.372306e-19    -3.853472e-05    0.000000e+00
1.649035e-06    -3.853670e-05    0.000000e+00
3.303930e-06    -3.854277e-05    0.000000e+00
4.970139e-06    -3.855338e-05    0.000000e+00
6.652404e-06    -3.856898e-05    0.000000e+00
8.354796e-06    -3.858970e-05    0.000000e+00
-8.404193e-06    -4.030873e-05    0.000000e+00
-6.691094e-06    -4.029191e-05    0.000000e+00
-4.997979e-06    -4.027979e-05    0.000000e+00
-3.321724e-06    -4.027194e-05    0.000000e+00
-1.657674e-06    -4.026760e-05    0.000000e+00
-5.579830e-19    -4.026622e-05    0.000000e+00
1.657674e-06    -4.026760e-05    0.000000e+00
3.321724e-06    -4.027194e-05    0.000000e+00
4.997979e-06    -4.027979e-05    0.000000e+00
6.691094e-06    -4.029191e-05    0.000000e+00
8.404193e-06    -4.030873e-05    0.000000e+00
-8.444507e-06    -4.203719e-05    0.000000e+00
-6.721350e-06    -4.202409e-05    0.000000e+00
-5.018648e-06    -4.201539e-05    0.000000e+00
-3.334443e-06    -4.201008e-05    0.000000e+00
-1.663736e-06    -4.200713e-05    0.000000e+00
-5.452775e-19    -4.200617e-05    0.000000e+00
1.663736e-06    -4.200713e-05    0.000000e+00
3.334443e-06    -4.201008e-05    0.000000e+00
5.018648e-06    -4.201539e-05    0.000000e+00
6.721350e-06    -4.202409e-05    0.000000e+00
8.444507e-06    -4.203719e-05    0.000000e+00
-8.476948e-06    -4.377506e-05    0.000000e+00
-6.742945e-06    -4.376522e-05    0.000000e+00
-5.032051e-06    -4.375927e-05    0.000000e+00
-3.342440e-06    -4.375496e-05    0.000000e+00
-1.667545e-06    -4.375202e-05    0.000000e+00
-5.164783e-19    -4.375096e-05    0.000000e+00
1.667545e-06    -4.375202e-05    0.000000e+00
3.342440e-06    -4.375496e-05    0.000000e+00
5.032051e-06    -4.375927e-05    0.000000e+00
6.742945e-06    -4.376522e-05    0.000000e+00
8.476948e-06    -4.377506e-05    0.000000e+00
-8.502299e-06    -4.552548e-05    0.000000e+00
-6.755469e-06    -4.551838e-05    0.000000e+00
-5.039732e-06    -4.551111e-05    0.000000e+00
-3.347521e-06    -4.550302e-05    0.000000e+00
-1.670130e-06    -4.549697e-05    0.000000e+00
-5.141490e-19    -4.549477e-05    0.000000e+00
1.670130e-06    -4.549697e-05    0.000000e+00
3.347521e-06    -4.550302e-05    0.000000e+00
5.039732e-06    -4.551111e-05    0.000000e+00
6.755469e-06    -4.551838e-05    0.000000e+00
8.502299e-06    -4.552548e-05    0.000000e+00
-8.515714e-06    -4.730424e-05    0.000000e+00
-6.763403e-06    -4.729059e-05    0.000000e+00
-5.047521e-06    -4.726759e-05    0.000000e+00
-3.353461e-06    -4.724683e-05    0.000000e+00
-1.673342e-06    -4.723300e-05    0.000000e+00
-5.101256e-19    -4.722818e-05    0.000000e+00
1.673342e-06    -4.723300e-05    0.000000e+00
3.353461e-06    -4.724683e-05    0.000000e+00
5.047521e-06    -4.726759e-05    0.000000e+00
6.763403e-06    -4.729059e-05    0.000000e+00
8.515714e-06    -4.730424e-05    0.000000e+00

CELL_DATA      400
TENSORS Element_Stress4.000000e-02 double
7.115831e+05 9.971194e+04        0
9.971194e+04 1.626373e+05        0
       0        0        0

4.863040e+05 5.111184e+04        0
5.111184e+04 1.393976e+05        0
       0        0        0

3.383611e+05 1.675592e+04        0
1.675592e+04 1.075380e+05        0
       0        0        0

1.995185e+05 -1.472301e+03        0
-1.472301e+03 6.611216e+04        0
       0        0        0

6.607230e+04 -9.811426e+03        0
-9.811426e+03 2.228506e+04        0
       0        0        0

-6.606678e+04 -9.810480e+03        0
-9.810480e+03 -2.228624e+04        0
       0        0        0

-1.994456e+05 -1.472391e+03        0
-1.472391e+03 -6.608690e+04        0
       0        0        0

-3.381450e+05 1.674497e+04        0
1.674497e+04 -1.074570e+05        0
       0        0        0

-4.858467e+05 5.106770e+04        0
5.106770e+04 -1.392224e+05        0
       0        0        0

-7.106303e+05 9.958791e+04        0
9.958791e+04 -1.623078e+05        0
       0        0        0

6.419727e+05 1.623847e+04        0
1.623847e+04 1.524050e+03        0
       0        0        0

5.171389e+05 4.712043e+04        0
4.712043e+04 5.031138e+04        0
       0        0        0

3.553503e+05 3.865464e+04        0
3.865464e+04 5.151435e+04        0
       0        0        0

2.099722e+05 2.957938e+04        0
2.957938e+04 3.607523e+04        0
       0        0        0

6.931769e+04 2.465593e+04        0
2.465593e+04 1.267971e+04        0
       0        0        0

-6.947646e+04 2.465313e+04        0
2.465313e+04 -1.284668e+04        0
       0        0        0

-2.100537e+05 2.956939e+04        0
2.956939e+04 -3.621468e+04        0
       0        0        0

-3.552665e+05 3.863321e+04        0
3.863321e+04 -5.159359e+04        0
       0        0        0

-5.167522e+05 4.708411e+04        0
4.708411e+04 -5.027255e+04        0
       0        0        0

-6.412674e+05 1.622523e+04        0
1.622523e+04 -1.355487e+03        0
       0        0        0

6.199804e+05 6.006230e+03        0
6.006230e+03 2.741659e+03        0
       0        0        0

4.975964e+05 2.666968e+04        0
2.666968e+04 7.121805e+03        0
       0        0        0

3.581242e+05 3.965467e+04        0
3.965467e+04 1.690475e+04        0
       0        0        0

2.128613e+05 4.196558e+04        0
4.196558e+04 1.443212e+04        0
       0        0        0

7.050390e+04 4.194087e+04        0
4.194087e+04 5.379256e+03        0
       0        0        0

-7.101405e+04 4.193660e+04        0
4.193660e+04 -5.898342e+03        0
       0        0        0

-2.132900e+05 4.195287e+04        0
4.195287e+04 -1.492208e+04        0
       0        0        0

-3.583796e+05 3.963494e+04        0
3.963494e+04 -1.732947e+04        0
       0        0        0

-4.975918e+05 2.665213e+04        0
2.665213e+04 -7.441604e+03        0
       0        0        0

-6.196772e+05 6.001361e+03        0
6.001361e+03 -2.939524e+03        0
       0        0        0

6.052311e+05 5.562240e+03        0
5.562240e+03 -1.016059e+03        0
       0        0        0

4.804706e+05 2.164863e+04        0
2.164863e+04 -1.132375e+02        0
       0        0        0

3.475545e+05 3.609185e+04        0
3.609185e+04 1.873567e+03        0
       0        0        0

2.093727e+05 4.475211e+04        0
4.475211e+04 3.074708e+03        0
       0        0        0

6.942755e+04 4.817924e+04        0
4.817924e+04 1.069189e+03        0
       0        0        0

-7.044854e+04 4.817473e+04        0
4.817473e+04 -2.099078e+03        0
       0        0        0

-2.103130e+05 4.473962e+04        0
4.473962e+04 -4.074897e+03        0
       0        0        0

-3.483321e+05 3.607540e+04        0
3.607540e+04 -2.811000e+03        0
       0        0        0

-4.810067e+05 2.163515e+04        0
2.163515e+04 -7.255814e+02        0
       0        0        0

-6.054450e+05 5.557965e+03        0
5.557965e+03 3.238608e+02        0
       0        0        0

5.914362e+05 6.680818e+03        0
6.680818e+03 -1.124860e+03        0
       0        0        0

4.648442e+05 2.126213e+04        0
2.126213e+04 -2.193859e+03        0
       0        0        0

3.354087e+05 3.476526e+04        0
3.476526e+04 -2.024813e+03        0
       0        0        0

2.022973e+05 4.437553e+04        0
4.437553e+04 -1.359699e+03        0
       0        0        0

6.708823e+04 4.915071e+04        0
4.915071e+04 -9.041806e+02        0
       0        0        0

-6.875461e+04 4.914638e+04        0
4.914638e+04 -7.706483e+02        0
       0        0        0

-2.038878e+05 4.436388e+04        0
4.436388e+04 -2.868378e+02        0
       0        0        0

-3.368472e+05 3.475020e+04        0
3.475020e+04 4.371349e+02        0
       0        0        0

-4.660537e+05 2.124941e+04        0
2.124941e+04 7.005485e+02        0
       0        0        0

-5.923301e+05 6.675782e+03        0
6.675782e+03 -2.265237e+02        0
       0        0        0

5.765548e+05 7.643199e+03        0
7.643199e+03 -1.419578e+03        0
       0        0        0

4.505201e+05 2.202964e+04        0
2.202964e+04 -2.355587e+03        0
       0        0        0

3.236144e+05 3.450507e+04        0
3.450507e+04 -2.831341e+03        0
       0        0        0

1.947384e+05 4.364499e+04        0
4.364499e+04 -2.482675e+03        0
       0        0        0

6.428059e+04 4.841339e+04        0
4.841339e+04 -1.688029e+03        0
       0        0        0

-6.670946e+04 4.840931e+04        0
4.840931e+04 -7.487074e+02        0
       0        0        0

-1.970976e+05 4.363400e+04        0
4.363400e+04 7.131716e+01        0
       0        0        0

-3.258339e+05 3.449066e+04        0
3.449066e+04 4.725654e+02        0
       0        0        0

-4.525277e+05 2.201686e+04        0
2.201686e+04 8.086716e+01        0
       0        0        0

-5.782697e+05 7.637578e+03        0
7.637578e+03 -7.309050e+02        0
       0        0        0

5.606534e+05 8.251689e+03        0
8.251689e+03 -1.727675e+03        0
       0        0        0

4.366903e+05 2.277555e+04        0
2.277555e+04 -2.369894e+03        0
       0        0        0

3.125818e+05 3.460628e+04        0
3.460628e+04 -2.808314e+03        0
       0        0        0

1.875118e+05 4.308676e+04        0
4.308676e+04 -2.677601e+03        0
       0        0        0

6.152035e+04 4.751876e+04        0
4.751876e+04 -2.054265e+03        0
       0        0        0

-6.481655e+04 4.751490e+04        0
4.751490e+04 -1.249252e+03        0
       0        0        0

-1.907457e+05 4.307628e+04        0
4.307628e+04 -6.048512e+02        0
       0        0        0

-3.156904e+05 3.459228e+04        0
3.459228e+04 -4.306502e+02        0
       0        0        0

-4.396088e+05 2.276270e+04        0
2.276270e+04 -8.000946e+02        0
       0        0        0

-5.633112e+05 8.245778e+03        0
8.245778e+03 -1.342710e+03        0
       0        0        0

5.440511e+05 8.587495e+03        0
8.587495e+03 -2.147544e+03        0
       0        0        0

4.230396e+05 2.327121e+04        0
2.327121e+04 -2.516301e+03        0
       0        0        0

3.020877e+05 3.475196e+04        0
3.475196e+04 -2.811343e+03        0
       0        0        0

1.807192e+05 4.275286e+04        0
4.275286e+04 -2.767977e+03        0
       0        0        0

5.888025e+04 4.687913e+04        0
4.687913e+04 -2.390772e+03        0
       0        0        0

-6.313855e+04 4.687544e+04        0
4.687544e+04 -1.874350e+03        0
       0        0        0

-1.849232e+05 4.274278e+04        0
4.274278e+04 -1.481406e+03        0
       0        0        0

-3.061825e+05 3.473833e+04        0
3.473833e+04 -1.405607e+03        0
       0        0        0

-4.269687e+05 2.325847e+04        0
2.325847e+04 -1.649520e+03        0
       0        0        0

-5.477548e+05 8.581517e+03        0
8.581517e+03 -1.945518e+03        0
       0        0        0

5.270376e+05 8.755819e+03        0
8.755819e+03 -2.649905e+03        0
       0        0        0

4.094242e+05 2.355054e+04        0
2.355054e+04 -2.841349e+03        0
       0        0        0

2.919018e+05 3.485915e+04        0
3.485915e+04 -3.008042e+03        0
       0        0        0

1.742225e+05 4.257684e+04        0
4.257684e+04 -2.998672e+03        0
       0        0        0

5.633219e+04 4.650490e+04        0
4.650490e+04 -2.797702e+03        0
       0        0        0

-6.163765e+04 4.650135e+04        0
4.650135e+04 -2.514131e+03        0
       0        0        0

-1.794820e+05 4.256711e+04        0
4.256711e+04 -2.303311e+03        0
       0        0        0

-2.970688e+05 3.484589e+04        0
3.484589e+04 -2.273574e+03        0
       0        0        0

-4.144512e+05 2.353802e+04        0
2.353802e+04 -2.408067e+03        0
       0        0        0

-5.318749e+05 8.749907e+03        0
8.749907e+03 -2.553708e+03        0
       0        0        0

5.097992e+05 8.833251e+03        0
8.833251e+03 -3.215906e+03        0
       0        0        0

3.957940e+05 2.369194e+04        0
2.369194e+04 -3.303089e+03        0
       0        0        0

2.818618e+05 3.492298e+04        0
3.492298e+04 -3.385175e+03        0
       0        0        0

1.678855e+05 4.249312e+04        0
4.249312e+04 -3.384358e+03        0
       0        0        0

5.382823e+04 4.631164e+04        0
4.631164e+04 -3.286954e+03        0
       0        0        0

-6.025610e+04 4.630822e+04        0
4.630822e+04 -3.146875e+03        0
       0        0        0

-1.742758e+05 4.248372e+04        0
4.248372e+04 -3.045723e+03        0
       0        0        0

-2.881766e+05 3.491011e+04        0
3.491011e+04 -3.036916e+03        0
       0        0        0

-4.019944e+05 2.367974e+04        0
2.367974e+04 -3.105829e+03        0
       0        0        0

-5.158449e+05 8.827473e+03        0
8.827473e+03 -3.173411e+03        0
       0        0        0

4.924416e+05 8.865807e+03        0
8.865807e+03 -3.828121e+03        0
       0        0        0

3.821347e+05 2.375755e+04        0
2.375755e+04 -3.857185e+03        0
       0        0        0

2.718769e+05 3.495702e+04        0
3.495702e+04 -3.888720e+03        0
       0        0        0

1.616174e+05 4.245758e+04        0
4.245758e+04 -3.886607e+03        0
       0        0        0

5.133519e+04 4.622190e+04        0
4.622190e+04 -3.841978e+03        0
       0        0        0

-5.895085e+04 4.621860e+04        0
4.621860e+04 -3.779249e+03        0
       0        0        0

-1.692038e+05 4.244849e+04        0
4.244849e+04 -3.736966e+03        0
       0        0        0

-2.794044e+05 3.494456e+04        0
3.494456e+04 -3.739145e+03        0
       0        0        0

-3.895729e+05 2.374572e+04        0
2.374572e+04 -3.776150e+03        0
       0        0        0

-4.997590e+05 8.860196e+03        0
8.860196e+03 -3.810815e+03        0
       0        0        0

4.750202e+05 8.878113e+03        0
8.878113e+03 -4.474372e+03        0
       0        0        0

3.684460e+05 2.378569e+04        0
2.378569e+04 -4.470492e+03        0
       0        0        0

2.619023e+05 3.497416e+04        0
3.497416e+04 -4.472650e+03        0
       0        0        0

1.553691e+05 4.244506e+04        0
4.244506e+04 -4.465659e+03        0
       0        0        0

4.883525e+04 4.618512e+04        0
4.618512e+04 -4.444658e+03        0
       0        0        0

-5.769428e+04 4.618194e+04        0
4.618194e+04 -4.419576e+03        0
       0        0        0

-1.642069e+05 4.243628e+04        0
4.243628e+04 -4.406892e+03        0
       0        0        0

-2.706974e+05 3.496212e+04        0
3.496212e+04 -4.416174e+03        0
       0        0        0

-3.771761e+05 2.377424e+04        0
2.377424e+04 -4.441863e+03        0
       0        0        0

-4.836621e+05 8.872684e+03        0
8.872684e+03 -4.467777e+03        0
       0        0        0

4.575624e+05 8.882170e+03        0
8.882170e+03 -5.145881e+03        0
       0        0        0

3.547319e+05 2.379700e+04        0
2.379700e+04 -5.121667e+03        0
       0        0        0

2.519194e+05 3.498286e+04        0
3.498286e+04 -5.105941e+03        0
       0        0        0

1.491178e+05 4.244273e+04        0
4.244273e+04 -5.093121e+03        0
       0        0        0

4.632138e+04 4.617313e+04        0
4.617313e+04 -5.080804e+03        0
       0        0        0

-5.646981e+04 4.617005e+04        0
4.617005e+04 -5.072461e+03        0
       0        0        0

-1.592528e+05 4.243426e+04        0
4.243426e+04 -5.074250e+03        0
       0        0        0

-2.620274e+05 3.497123e+04        0
3.497123e+04 -5.089297e+03        0
       0        0        0

-3.647984e+05 2.378595e+04        0
2.378595e+04 -5.114521e+03        0
       0        0        0

-4.675721e+05 8.876928e+03        0
8.876928e+03 -5.143341e+03        0
       0        0        0

4.400824e+05 8.883321e+03        0
8.883321e+03 -5.836056e+03        0
       0        0        0

3.409977e+05 2.380157e+04        0
2.380157e+04 -5.797389e+03        0
       0        0        0

2.419229e+05 3.498784e+04        0
3.498784e+04 -5.769526e+03        0
       0        0        0

1.428555e+05 4.244460e+04        0
4.244460e+04 -5.750860e+03        0
       0        0        0

4.379263e+04 4.617183e+04        0
4.617183e+04 -5.740302e+03        0
       0        0        0

-5.526715e+04 4.616886e+04        0
4.616886e+04 -5.738709e+03        0
       0        0        0

-1.543242e+05 4.243644e+04        0
4.243644e+04 -5.747844e+03        0
       0        0        0

-2.533796e+05 3.497663e+04        0
3.497663e+04 -5.768223e+03        0
       0        0        0

-3.524356e+05 2.379092e+04        0
2.379092e+04 -5.798078e+03        0
       0        0        0

-4.514936e+05 8.878269e+03        0
8.878269e+03 -5.834789e+03        0
       0        0        0

4.225879e+05 8.883719e+03        0
8.883719e+03 -6.539532e+03        0
       0        0        0

3.272485e+05 2.380390e+04        0
2.380390e+04 -6.489039e+03        0
       0        0        0

2.319134e+05 3.499148e+04        0
3.499148e+04 -6.451756e+03        0
       0        0        0

1.365815e+05 4.244815e+04        0
4.244815e+04 -6.427509e+03        0
       0        0        0

4.125109e+04 4.617482e+04        0
4.617482e+04 -6.415832e+03        0
       0        0        0

-5.407941e+04 4.617197e+04        0
4.617197e+04 -6.416646e+03        0
       0        0        0

-1.494113e+05 4.244029e+04        0
4.244029e+04 -6.430040e+03        0
       0        0        0

-2.447457e+05 3.498069e+04        0
3.498069e+04 -6.455593e+03        0
       0        0        0

-3.400838e+05 2.379365e+04        0
2.379365e+04 -6.492155e+03        0
       0        0        0

-4.354255e+05 8.878857e+03        0
8.878857e+03 -6.538527e+03        0
       0        0        0

4.050841e+05 8.884116e+03        0
8.884116e+03 -7.251627e+03        0
       0        0        0

3.134890e+05 2.380578e+04        0
2.380578e+04 -7.190499e+03        0
       0        0        0

2.218939e+05 3.499486e+04        0
3.499486e+04 -7.145064e+03        0
       0        0        0

1.302981e+05 4.245244e+04        0
4.245244e+04 -7.115547e+03        0
       0        0        0

3.870016e+04 4.617949e+04        0
4.617949e+04 -7.101730e+03        0
       0        0        0

-5.290131e+04 4.617675e+04        0
4.617675e+04 -7.103265e+03        0
       0        0        0

-1.445077e+05 4.244489e+04        0
4.244489e+04 -7.119689e+03        0
       0        0        0

-2.361200e+05 3.498449e+04        0
3.498449e+04 -7.150308e+03        0
       0        0        0

-3.277389e+05 2.379593e+04        0
2.379593e+04 -7.194216e+03        0
       0        0        0

-4.193643e+05 8.879443e+03        0
8.879443e+03 -7.250604e+03        0
       0        0        0

3.875751e+05 8.884711e+03        0
8.884711e+03 -7.968054e+03        0
       0        0        0

2.997233e+05 2.380786e+04        0
2.380786e+04 -7.896909e+03        0
       0        0        0

2.118682e+05 3.499845e+04        0
3.499845e+04 -7.843962e+03        0
       0        0        0

1.240088e+05 4.245718e+04        0
4.245718e+04 -7.809460e+03        0
       0        0        0

3.614367e+04 4.618487e+04        0
4.618487e+04 -7.793263e+03        0
       0        0        0

-5.172836e+04 4.618224e+04        0
4.618224e+04 -7.794965e+03        0
       0        0        0

-1.396086e+05 4.244994e+04        0
4.244994e+04 -7.813969e+03        0
       0        0        0

-2.274979e+05 3.498850e+04        0
3.498850e+04 -7.849524e+03        0
       0        0        0

-3.153970e+05 2.379841e+04        0
2.379841e+04 -7.900797e+03        0
       0        0        0

-4.033058e+05 8.880229e+03        0
8.880229e+03 -7.966995e+03        0
       0        0        0

3.700645e+05 8.885521e+03        0
8.885521e+03 -8.684778e+03        0
       0        0        0

2.859556e+05 2.381030e+04        0
2.381030e+04 -8.604041e+03        0
       0        0        0

2.018403e+05 3.500241e+04        0
3.500241e+04 -8.543975e+03        0
       0        0        0

1.177174e+05 4.246234e+04        0
4.246234e+04 -8.504746e+03        0
       0        0        0

3.358555e+04 4.619072e+04        0
4.619072e+04 -8.486210e+03        0
       0        0        0

-5.055648e+04 4.618820e+04        0
4.618820e+04 -8.487959e+03        0
       0        0        0

-1.347099e+05 4.245540e+04        0
4.245540e+04 -8.509380e+03        0
       0        0        0

-2.188755e+05 3.499288e+04        0
3.499288e+04 -8.549717e+03        0
       0        0        0

-3.030541e+05 2.380125e+04        0
2.380125e+04 -8.608132e+03        0
       0        0        0

-3.872457e+05 8.881229e+03        0
8.881229e+03 -8.683746e+03        0
       0        0        0

3.525560e+05 8.886517e+03        0
8.886517e+03 -9.397962e+03        0
       0        0        0

2.721896e+05 2.381313e+04        0
2.381313e+04 -9.308009e+03        0
       0        0        0

1.918140e+05 3.500682e+04        0
3.500682e+04 -9.241138e+03        0
       0        0        0

1.114278e+05 4.246794e+04        0
4.246794e+04 -9.197417e+03        0
       0        0        0

3.102963e+04 4.619702e+04        0
4.619702e+04 -9.176670e+03        0
       0        0        0

-4.938182e+04 4.619461e+04        0
4.619461e+04 -9.178481e+03        0
       0        0        0

-1.298077e+05 4.246131e+04        0
4.246131e+04 -9.202240e+03        0
       0        0        0

-2.102489e+05 3.499771e+04        0
3.499771e+04 -9.247184e+03        0
       0        0        0

-2.907062e+05 2.380448e+04        0
2.380448e+04 -9.312439e+03        0
       0        0        0

-3.711799e+05 8.882415e+03        0
8.882415e+03 -9.397030e+03        0
       0        0        0

3.350528e+05 8.887671e+03        0
8.887671e+03 -1.010394e+04        0
       0        0        0

2.584288e+05 2.381632e+04        0
2.381632e+04 -1.000515e+04        0
       0        0        0

1.817929e+05 3.501168e+04        0
3.501168e+04 -9.931768e+03        0
       0        0        0

1.051436e+05 4.247403e+04        0
4.247403e+04 -9.883778e+03        0
       0        0        0

2.847957e+04 4.620381e+04        0
4.620381e+04 -9.860958e+03        0
       0        0        0

-4.820071e+04 4.620151e+04        0
4.620151e+04 -9.862872e+03        0
       0        0        0

-1.248984e+05 4.246771e+04        0
4.246771e+04 -9.888903e+03        0
       0        0        0

-2.016144e+05 3.500299e+04        0
3.500299e+04 -9.938268e+03        0
       0        0        0

-2.783495e+05 2.380807e+04        0
2.380807e+04 -1.001005e+04        0
       0        0        0

-3.551044e+05 8.883758e+03        0
8.883758e+03 -1.010317e+04        0
       0        0        0

3.175583e+05 8.888965e+03        0
8.888965e+03 -1.079922e+04        0
       0        0        0

2.446765e+05 2.381987e+04        0
2.381987e+04 -1.069198e+04        0
       0        0        0

1.717804e+05 3.501701e+04        0
3.501701e+04 -1.061238e+04        0
       0        0        0

9.886842e+04 4.248064e+04        0
4.248064e+04 -1.056034e+04        0
       0        0        0

2.593887e+04 4.621113e+04        0
4.621113e+04 -1.053557e+04        0
       0        0        0

-4.700963e+04 4.620895e+04        0
4.620895e+04 -1.053762e+04        0
       0        0        0

-1.199783e+05 4.247462e+04        0
4.247462e+04 -1.056585e+04        0
       0        0        0

-1.929683e+05 3.500875e+04        0
3.500875e+04 -1.061944e+04        0
       0        0        0

-2.659804e+05 2.381202e+04        0
2.381202e+04 -1.069743e+04        0
       0        0        0

-3.390154e+05 8.885242e+03        0
8.885242e+03 -1.079867e+04        0
       0        0        0

3.000755e+05 8.890395e+03        0
8.890395e+03 -1.148045e+04        0
       0        0        0

2.309359e+05 2.382376e+04        0
2.382376e+04 -1.136517e+04        0
       0        0        0

1.617799e+05 3.502281e+04        0
3.502281e+04 -1.127967e+04        0
       0        0        0

9.260541e+04 4.248779e+04        0
4.248779e+04 -1.122378e+04        0
       0        0        0

2.341087e+04 4.621902e+04        0
4.621902e+04 -1.119719e+04        0
       0        0        0

-4.580525e+04 4.621695e+04        0
4.621695e+04 -1.119939e+04        0
       0        0        0

-1.150443e+05 4.248207e+04        0
4.248207e+04 -1.122972e+04        0
       0        0        0

-1.843073e+05 3.501497e+04        0
3.501497e+04 -1.128735e+04        0
       0        0        0

-2.535954e+05 2.381631e+04        0
2.381631e+04 -1.137123e+04        0
       0        0        0

-3.229093e+05 8.886861e+03        0
8.886861e+03 -1.148017e+04        0
       0        0        0

2.826072e+05 8.891962e+03        0
8.891962e+03 -1.214448e+04        0
       0        0        0

2.172101e+05 2.382800e+04        0
2.382800e+04 -1.202157e+04        0
       0        0        0

1.517943e+05 3.502910e+04        0
3.502910e+04 -1.193047e+04        0
       0        0        0

8.635775e+04 4.249548e+04        0
4.249548e+04 -1.187095e+04        0
       0        0        0

2.089872e+04 4.622748e+04        0
4.622748e+04 -1.184263e+04        0
       0        0        0

-4.458437e+04 4.622552e+04        0
4.622552e+04 -1.184498e+04        0
       0        0        0

-1.100929e+05 4.249008e+04        0
4.249008e+04 -1.187732e+04        0
       0        0        0

-1.756281e+05 3.502168e+04        0
3.502168e+04 -1.193877e+04        0
       0        0        0

-2.411911e+05 2.382095e+04        0
2.382095e+04 -1.202827e+04        0
       0        0        0

-3.067828e+05 8.888619e+03        0
8.888619e+03 -1.214450e+04        0
       0        0        0

2.651564e+05 8.893682e+03        0
8.893682e+03 -1.278830e+04        0
       0        0        0

2.035018e+05 2.383262e+04        0
2.383262e+04 -1.265818e+04        0
       0        0        0

1.418266e+05 3.503589e+04        0
3.503589e+04 -1.256181e+04        0
       0        0        0

8.012842e+04 4.250373e+04        0
4.250373e+04 -1.249886e+04        0
       0        0        0

1.840544e+04 4.623651e+04        0
4.623651e+04 -1.246890e+04        0
       0        0        0

-4.334398e+04 4.623466e+04        0
4.623466e+04 -1.247139e+04        0
       0        0        0

-1.051212e+05 4.249863e+04        0
4.249863e+04 -1.250562e+04        0
       0        0        0

-1.669276e+05 3.502889e+04        0
3.502889e+04 -1.257070e+04        0
       0        0        0

-2.287643e+05 2.382597e+04        0
2.382597e+04 -1.266550e+04        0
       0        0        0

-2.906324e+05 8.890529e+03        0
8.890529e+03 -1.278865e+04        0
       0        0        0

2.477254e+05 8.895577e+03        0
8.895577e+03 -1.340906e+04        0
       0        0        0

1.898138e+05 2.383763e+04        0
2.383763e+04 -1.327218e+04        0
       0        0        0

1.318795e+05 3.504318e+04        0
3.504318e+04 -1.317085e+04        0
       0        0        0

7.392022e+04 4.251252e+04        0
4.251252e+04 -1.310467e+04        0
       0        0        0

1.593384e+04 4.624610e+04        0
4.624610e+04 -1.307316e+04        0
       0        0        0

-4.208122e+04 4.624436e+04        0
4.624436e+04 -1.307577e+04        0
       0        0        0

-1.001264e+05 4.250773e+04        0
4.250773e+04 -1.311177e+04        0
       0        0        0

-1.582029e+05 3.503660e+04        0
3.503660e+04 -1.318026e+04        0
       0        0        0

-2.163120e+05 2.383138e+04        0
2.383138e+04 -1.328008e+04        0
       0        0        0

-2.744552e+05 8.892614e+03        0
8.892614e+03 -1.340976e+04        0
       0        0        0

2.303167e+05 8.897677e+03        0
8.897677e+03 -1.400409e+04        0
       0        0        0

1.761486e+05 2.384306e+04        0
2.384306e+04 -1.386085e+04        0
       0        0        0

1.219558e+05 3.505095e+04        0
3.505095e+04 -1.375485e+04        0
       0        0        0

6.773580e+04 4.252184e+04        0
4.252184e+04 -1.368561e+04        0
       0        0        0

1.348660e+04 4.625626e+04        0
4.625626e+04 -1.365269e+04        0
       0        0        0

-4.079341e+04 4.625463e+04        0
4.625463e+04 -1.365547e+04        0
       0        0        0

-9.510558e+04 4.251736e+04        0
4.251736e+04 -1.369318e+04        0
       0        0        0

-1.494512e+05 3.504479e+04        0
3.504479e+04 -1.376485e+04        0
       0        0        0

-2.038315e+05 2.383721e+04        0
2.383721e+04 -1.386935e+04        0
       0        0        0

-2.582480e+05 8.894903e+03        0
8.894903e+03 -1.400516e+04        0
       0        0        0

2.129325e+05 8.899991e+03        0
8.899991e+03 -1.457085e+04        0
       0        0        0

1.625085e+05 2.384883e+04        0
2.384883e+04 -1.442158e+04        0
       0        0        0

1.120578e+05 3.505913e+04        0
3.505913e+04 -1.431104e+04        0
       0        0        0

6.157758e+04 4.253172e+04        0
4.253172e+04 -1.423892e+04        0
       0        0        0

1.106618e+04 4.626712e+04        0
4.626712e+04 -1.420486e+04        0
       0        0        0

-3.947798e+04 4.626560e+04        0
4.626560e+04 -1.420811e+04        0
       0        0        0

-9.005628e+04 4.252754e+04        0
4.252754e+04 -1.424759e+04        0
       0        0        0

-1.406699e+05 3.505340e+04        0
3.505340e+04 -1.432219e+04        0
       0        0        0

-1.913200e+05 2.384339e+04        0
2.384339e+04 -1.443089e+04        0
       0        0        0

-2.420081e+05 8.897408e+03        0
8.897408e+03 -1.457234e+04        0
       0        0        0

1.955748e+05 8.902439e+03        0
8.902439e+03 -1.510691e+04        0
       0        0        0

1.488960e+05 2.385464e+04        0
2.385464e+04 -1.495163e+04        0
       0        0        0

1.021876e+05 3.506748e+04        0
3.506748e+04 -1.483636e+04        0
       0        0        0

5.544756e+04 4.254231e+04        0
4.254231e+04 -1.476149e+04        0
       0        0        0

8.674751e+03 4.627919e+04        0
4.627919e+04 -1.472701e+04        0
       0        0        0

-3.813242e+04 4.627779e+04        0
4.627779e+04 -1.473166e+04        0
       0        0        0

-8.497577e+04 4.253844e+04        0
4.253844e+04 -1.477342e+04        0
       0        0        0

-1.318565e+05 3.506217e+04        0
3.506217e+04 -1.485068e+04        0
       0        0        0

-1.787752e+05 2.384960e+04        0
2.384960e+04 -1.496275e+04        0
       0        0        0

-2.257328e+05 8.900046e+03        0
8.900046e+03 -1.510900e+04        0
       0        0        0

1.782462e+05 8.904637e+03        0
8.904637e+03 -1.560986e+04        0
       0        0        0

1.353133e+05 2.385949e+04        0
2.385949e+04 -1.544778e+04        0
       0        0        0

9.234671e+04 3.507537e+04        0
3.507537e+04 -1.532673e+04        0
       0        0        0

4.934680e+04 4.255412e+04        0
4.255412e+04 -1.524927e+04        0
       0        0        0

6.313970e+03 4.629397e+04        0
4.629397e+04 -1.521618e+04        0
       0        0        0

-3.675403e+04 4.629268e+04        0
4.629268e+04 -1.522473e+04        0
       0        0        0

-7.986076e+04 4.255056e+04        0
4.255056e+04 -1.527036e+04        0
       0        0        0

-1.230081e+05 3.507048e+04        0
3.507048e+04 -1.535000e+04        0
       0        0        0

-1.661951e+05 2.385485e+04        0
2.385485e+04 -1.546374e+04        0
       0        0        0

-2.094202e+05 8.902435e+03        0
8.902435e+03 -1.561316e+04        0
       0        0        0

1.609502e+05 8.905400e+03        0
8.905400e+03 -1.607715e+04        0
       0        0        0

1.217628e+05 2.386080e+04        0
2.386080e+04 -1.590558e+04        0
       0        0        0

8.253497e+04 3.508140e+04        0
3.508140e+04 -1.577587e+04        0
       0        0        0

4.327428e+04 4.256862e+04        0
4.256862e+04 -1.569612e+04        0
       0        0        0

3.984450e+03 4.631520e+04        0
4.631520e+04 -1.566866e+04        0
       0        0        0

-3.533941e+04 4.631402e+04        0
4.631402e+04 -1.568701e+04        0
       0        0        0

-7.470623e+04 4.256536e+04        0
4.256536e+04 -1.574056e+04        0
       0        0        0

-1.141205e+05 3.507693e+04        0
3.507693e+04 -1.582245e+04        0
       0        0        0

-1.535779e+05 2.385656e+04        0
2.385656e+04 -1.593429e+04        0
       0        0        0

-1.930697e+05 8.903389e+03        0
8.903389e+03 -1.608326e+04        0
       0        0        0

1.436939e+05 8.901646e+03        0
8.901646e+03 -1.650570e+04        0
       0        0        0

1.082467e+05 2.385257e+04        0
2.385257e+04 -1.631792e+04        0
       0        0        0

7.274838e+04 3.508264e+04        0
3.508264e+04 -1.617305e+04        0
       0        0        0

3.722437e+04 4.258932e+04        0
4.258932e+04 -1.609177e+04        0
       0        0        0

1.684718e+03 4.635136e+04        0
4.635136e+04 -1.607915e+04        0
       0        0        0

-3.388341e+04 4.635029e+04        0
4.635029e+04 -1.612011e+04        0
       0        0        0

-6.950290e+04 4.258637e+04        0
4.258637e+04 -1.619063e+04        0
       0        0        0

-1.051861e+05 3.507860e+04        0
3.507860e+04 -1.627512e+04        0
       0        0        0

-1.409221e+05 2.384874e+04        0
2.384874e+04 -1.637784e+04        0
       0        0        0

-1.766846e+05 8.899826e+03        0
8.899826e+03 -1.651858e+04        0
       0        0        0

1.264920e+05 8.886210e+03        0
8.886210e+03 -1.689138e+04        0
       0        0        0

9.476642e+04 2.382209e+04        0
2.382209e+04 -1.667278e+04        0
       0        0        0

6.297464e+04 3.507365e+04        0
3.507365e+04 -1.649984e+04        0
       0        0        0

3.118213e+04 4.262404e+04        0
4.262404e+04 -1.641920e+04        0
       0        0        0

-5.907391e+02 4.641997e+04        0
4.641997e+04 -1.643981e+04        0
       0        0        0

-3.237710e+04 4.641901e+04        0
4.641901e+04 -1.652849e+04        0
       0        0        0

-6.423253e+04 4.262140e+04        0
4.262140e+04 -1.663430e+04        0
       0        0        0

-9.618939e+04 3.507004e+04        0
3.507004e+04 -1.672329e+04        0
       0        0        0

-1.282261e+05 2.381866e+04        0
2.381866e+04 -1.680324e+04        0
       0        0        0

-1.602763e+05 8.884584e+03        0
8.884584e+03 -1.691982e+04        0
       0        0        0

1.093759e+05 8.843895e+03        0
8.843895e+03 -1.722816e+04        0
       0        0        0

8.132048e+04 2.374489e+04        0
2.374489e+04 -1.695039e+04        0
       0        0        0

5.318472e+04 3.504562e+04        0
3.504562e+04 -1.672688e+04        0
       0        0        0

2.511518e+04 4.268858e+04        0
4.268858e+04 -1.665261e+04        0
       0        0        0

-2.854583e+03 4.655372e+04        0
4.655372e+04 -1.673954e+04        0
       0        0        0

-3.080459e+04 4.655287e+04        0
4.655287e+04 -1.691998e+04        0
       0        0        0

-5.885981e+04 4.268625e+04        0
4.268625e+04 -1.709441e+04        0
       0        0        0

-8.709881e+04 3.504243e+04        0
3.504243e+04 -1.719371e+04        0
       0        0        0

-1.154860e+05 2.374187e+04        0
2.374187e+04 -1.722779e+04        0
       0        0        0

-1.438733e+05 8.842466e+03        0
8.842466e+03 -1.729017e+04        0
       0        0        0

9.240869e+04 8.745215e+03        0
8.745215e+03 -1.750746e+04        0
       0        0        0

6.789891e+04 2.357917e+04        0
2.357917e+04 -1.712182e+04        0
       0        0        0

4.331880e+04 3.498763e+04        0
3.498763e+04 -1.681575e+04        0
       0        0        0

1.896276e+04 4.281183e+04        0
4.281183e+04 -1.676179e+04        0
       0        0        0

-5.130409e+03 4.680592e+04        0
4.680592e+04 -1.696636e+04        0
       0        0        0

-2.913893e+04 4.680519e+04        0
4.680519e+04 -1.730325e+04        0
       0        0        0

-5.332123e+04 4.280980e+04        0
4.280980e+04 -1.759846e+04        0
       0        0        0

-7.785273e+04 3.498486e+04        0
3.498486e+04 -1.772304e+04        0
       0        0        0

-1.026904e+05 2.357657e+04        0
2.357657e+04 -1.767924e+04        0
       0        0        0

-1.275369e+05 8.743988e+03        0
8.743988e+03 -1.763655e+04        0
       0        0        0

7.570624e+04 8.538663e+03        0
8.538663e+03 -1.771839e+04        0
       0        0        0

5.446884e+04 2.326634e+04        0
2.326634e+04 -1.715691e+04        0
       0        0        0

3.326788e+04 3.489592e+04        0
3.489592e+04 -1.674069e+04        0
       0        0        0

1.262740e+04 4.303959e+04        0
4.303959e+04 -1.673892e+04        0
       0        0        0

-7.453704e+03 4.724462e+04        0
4.724462e+04 -1.711892e+04        0
       0        0        0

-2.734051e+04 4.724400e+04        0
4.724400e+04 -1.767547e+04        0
       0        0        0

-4.751652e+04 4.303788e+04        0
4.303788e+04 -1.815142e+04        0
       0        0        0

-6.834147e+04 3.489359e+04        0
3.489359e+04 -1.833631e+04        0
       0        0        0

-8.980786e+04 2.326416e+04        0
2.326416e+04 -1.818893e+04        0
       0        0        0

-1.113841e+05 8.537643e+03        0
8.537643e+03 -1.797093e+04        0
       0        0        0

5.945655e+04 8.147896e+03        0
8.147896e+03 -1.785702e+04        0
       0        0        0

4.094329e+04 2.275950e+04        0
2.275950e+04 -1.706189e+04        0
       0        0        0

2.286252e+04 3.480495e+04        0
3.480495e+04 -1.657402e+04        0
       0        0        0

5.992603e+03 4.342526e+04        0
4.342526e+04 -1.668396e+04        0
       0        0        0

-9.860028e+03 4.790518e+04        0
4.790518e+04 -1.724279e+04        0
       0        0        0

-2.536753e+04 4.790468e+04        0
4.790468e+04 -1.798488e+04        0
       0        0        0

-4.132530e+04 4.342388e+04        0
4.342388e+04 -1.864950e+04        0
       0        0        0

-5.839613e+04 3.480307e+04        0
3.480307e+04 -1.896178e+04        0
       0        0        0

-7.675672e+04 2.275775e+04        0
2.275775e+04 -1.875609e+04        0
       0        0        0

-9.561039e+04 8.147090e+03        0
8.147090e+03 -1.830467e+04        0
       0        0        0

4.389852e+04 7.501393e+03        0
7.501393e+03 -1.794425e+04        0
       0        0        0

2.711646e+04 2.214300e+04        0
2.214300e+04 -1.703781e+04        0
       0        0        0

1.192235e+04 3.485511e+04        0
3.485511e+04 -1.672345e+04        0
       0        0        0

-9.800422e+02 4.396920e+04        0
4.396920e+04 -1.702008e+04        0
       0        0        0

-1.233516e+04 4.863402e+04        0
4.863402e+04 -1.750899e+04        0
       0        0        0

-2.322356e+04 4.863366e+04        0
4.863366e+04 -1.804978e+04        0
       0        0        0

-3.470221e+04 4.396820e+04        0
4.396820e+04 -1.866256e+04        0
       0        0        0

-4.783734e+04 3.485371e+04        0
3.485371e+04 -1.919272e+04        0
       0        0        0

-6.334367e+04 2.214168e+04        0
2.214168e+04 -1.919209e+04        0
       0        0        0

-8.047607e+04 7.500798e+03        0
7.500798e+03 -1.863837e+04        0
       0        0        0

2.910522e+04 6.719504e+03        0
6.719504e+03 -1.826332e+04        0
       0        0        0

1.262858e+04 2.197395e+04        0
2.197395e+04 -1.792387e+04        0
       0        0        0

4.979930e+02 3.536985e+04        0
3.536985e+04 -1.859436e+04        0
       0        0        0

-7.966307e+03 4.436231e+04        0
4.436231e+04 -1.885775e+04        0
       0        0        0

-1.471592e+04 4.873924e+04        0
4.873924e+04 -1.830438e+04        0
       0        0        0

-2.105320e+04 4.873906e+04        0
4.873906e+04 -1.746477e+04        0
       0        0        0

-2.795731e+04 4.436178e+04        0
4.436178e+04 -1.706600e+04        0
       0        0        0

-3.671328e+04 3.536902e+04        0
3.536902e+04 -1.762138e+04        0
       0        0        0

-4.922964e+04 2.197307e+04        0
2.197307e+04 -1.867846e+04        0
       0        0        0

-6.610544e+04 6.719101e+03        0
6.719101e+03 -1.873990e+04        0
       0        0        0

1.421473e+04 6.999203e+03        0
6.999203e+03 -1.950888e+04        0
       0        0        0

-2.821971e+03 2.411407e+04        0
2.411407e+04 -2.339313e+04        0
       0        0        0

-1.018783e+04 3.632951e+04        0
3.632951e+04 -2.567051e+04        0
       0        0        0

-1.390718e+04 4.329880e+04        0
4.329880e+04 -2.415657e+04        0
       0        0        0

-1.663905e+04 4.648748e+04        0
4.648748e+04 -2.024286e+04        0
       0        0        0

-1.918928e+04 4.648754e+04        0
4.648754e+04 -1.558546e+04        0
       0        0        0

-2.212163e+04 4.329891e+04        0
4.329891e+04 -1.187222e+04        0
       0        0        0

-2.622977e+04 3.632948e+04        0
3.632948e+04 -1.074709e+04        0
       0        0        0

-3.413143e+04 2.411373e+04        0
2.411373e+04 -1.356057e+04        0
       0        0        0

-5.173504e+04 6.998924e+03        0
6.998924e+03 -1.801290e+04        0
       0        0        0

-5.695648e+03 1.595003e+04        0
1.595003e+04 -3.159758e+04        0
       0        0        0

-1.566968e+04 2.986724e+04        0
2.986724e+04 -4.397720e+04        0
       0        0        0

-1.676536e+04 3.508193e+04        0
3.508193e+04 -4.296621e+04        0
       0        0        0

-1.729264e+04 3.763854e+04        0
3.763854e+04 -3.515560e+04        0
       0        0        0

-1.763280e+04 3.875725e+04        0
3.875725e+04 -2.393730e+04        0
       0        0        0

-1.805890e+04 3.875754e+04        0
3.875754e+04 -1.175436e+04        0
       0        0        0

-1.865586e+04 3.763934e+04        0
3.763934e+04 -7.925003e+02        0
       0        0        0

-1.970356e+04 3.508299e+04        0
3.508299e+04 6.498151e+03        0
       0        0        0

-2.158724e+04 2.986811e+04        0
2.986811e+04 6.721209e+03        0
       0        0        0

-3.253440e+04 1.594999e+04        0
1.594999e+04 -6.632495e+03        0
       0        0        0

POINT_DATA     451
VECTORS DISPLACEMENT_6.000000e-02 double
0.000000e+00    0.000000e+00    0.000000e+00
0.000000e+00    0.000000e+00    0.000000e+00
0.000000e+00    0.000000e+00    0.000000e+00
0.000000e+00    0.000000e+00    0.000000e+00
0.000000e+00    0.000000e+00    0.000000e+00
0.000000e+00    0.000000e+00    0.000000e+00
0.000000e+00    0.000000e+00    0.000000e+00
0.000000e+00    0.000000e+00    0.000000e+00
0.000000e+00    0.000000e+00    0.000000e+00
0.000000e+00    0.000000e+00    0.000000e+00
0.000000e+00    0.000000e+00    0.000000e+00
-6.762839e-07    -4.916453e-07    0.000000e+00
-4.285260e-07    -2.465912e-07    0.000000e+00
-3.057626e-07    -1.277564e-07    0.000000e+00
-1.974139e-07    -6.324010e-08    0.000000e+00
-9.732982e-08    -2.984938e-08    0.000000e+00
-2.258883e-20    -1.946735e-08    0.000000e+00
9.732982e-08    -2.984938e-08    0.000000e+00
1.974139e-07    -6.324010e-08    0.000000e+00
3.057626e-07    -1.277564e-07    0.000000e+00
4.285260e-07    -2.465912e-07    0.000000e+00
6.762839e-07    -4.916453e-07    0.000000e+00
-1.276017e-06    -8.176405e-07    0.000000e+00
-9.327348e-07    -5.916030e-07    0.000000e+00
-6.546948e-07    -4.155220e-07    0.000000e+00
-4.223085e-07    -3.066009e-07    0.000000e+00
-2.074157e-07    -2.472501e-07    0.000000e+00
-4.765388e-20    -2.283980e-07    0.000000e+00
2.074157e-07    -2.472501e-07    0.000000e+00
4.223085e-07    -3.066009e-07    0.000000e+00
6.546948e-07    -4.155220e-07    0.000000e+00
9.327348e-07    -5.916030e-07    0.000000e+00
1.276017e-06    -8.176405e-07    0.000000e+00
-1.855705e-06    -1.223006e-06    0.000000e+00
-1.418373e-06    -9.964705e-07    0.000000e+00
-1.020592e-06    -8.178506e-07    0.000000e+00
-6.607149e-07    -6.918572e-07    0.000000e+00
-3.251035e-07    -6.192365e-07    0.000000e+00
-7.498889e-20    -5.955806e-07    0.000000e+00
3.251035e-07    -6.192365e-07    0.000000e+00
6.607149e-07    -6.918572e-07    0.000000e+00
1.020592e-06    -8.178506e-07    0.000000e+00
1.418373e-06    -9.964705e-07    0.000000e+00
1.855705e-06    -1.223006e-06    0.000000e+00
-2.428985e-06    -1.723290e-06    0.000000e+00
-1.888010e-06    -1.501921e-06    0.000000e+00
-1.378582e-06    -1.326277e-06    0.000000e+00
-9.001645e-07    -1.199522e-06    0.000000e+00
-4.443681e-07    -1.123438e-06    0.000000e+00
-1.035829e-19    -1.098209e-06    0.000000e+00
4.443681e-07    -1.123438e-06    0.000000e+00
9.001645e-07    -1.199522e-06    0.000000e+00
1.378582e-06    -1.326277e-06    0.000000e+00
1.888010e-06    -1.501921e-06    0.000000e+00
2.428985e-06    -1.723290e-06    0.000000e+00
-2.992568e-06    -2.331960e-06    0.000000e+00
-2.343965e-06    -2.115753e-06    0.000000e+00
-1.725186e-06    -1.945410e-06    0.000000e+00
-1.133271e-06    -1.821989e-06    0.000000e+00
-5.613753e-07    -1.747273e-06    0.000000e+00
-1.328121e-19    -1.722262e-06    0.000000e+00
5.613753e-07    -1.747273e-06    0.000000e+00
1.133271e-06    -1.821989e-06    0.000000e+00
1.725186e-06    -1.945410e-06    0.000000e+00
2.343965e-06    -2.115753e-06    0.000000e+00
2.992568e-06    -2.331960e-06    0.000000e+00
-3.543879e-06    -3.050595e-06    0.000000e+00
-2.787152e-06    -2.840105e-06    0.000000e+00
-2.060376e-06    -2.675145e-06    0.000000e+00
-1.358442e-06    -2.556090e-06    0.000000e+00
-6.744976e-07    -2.484029e-06    0.000000e+00
-1.628222e-19    -2.459898e-06    0.000000e+00
6.744976e-07    -2.484029e-06    0.000000e+00
1.358442e-06    -2.556090e-06    0.000000e+00
2.060376e-06    -2.675145e-06    0.000000e+00
2.787152e-06    -2.840105e-06    0.000000e+00
3.543879e-06    -3.050595e-06    0.000000e+00
-4.081072e-06    -3.877977e-06    0.000000e+00
-3.217731e-06    -3.673438e-06    0.000000e+00
-2.384791e-06    -3.513726e-06    0.000000e+00
-1.575791e-06    -3.398926e-06    0.000000e+00
-7.835596e-07    -3.329639e-06    0.000000e+00
-1.912706e-19    -3.306463e-06    0.000000e+00
7.835596e-07    -3.329639e-06    0.000000e+00
1.575791e-06    -3.398926e-06    0.000000e+00
2.384791e-06    -3.513726e-06    0.000000e+00
3.217731e-06    -3.673438e-06    0.000000e+00
4.081072e-06    -3.877977e-06    0.000000e+00
-4.603127e-06    -4.811491e-06    0.000000e+00
-3.635648e-06    -4.613044e-06    0.000000e+00
-2.698938e-06    -4.458405e-06    0.000000e+00
-1.785804e-06    -4.347577e-06    0.000000e+00
-8.887926e-07    -4.280854e-06    0.000000e+00
-2.194609e-19    -4.258567e-06    0.000000e+00
8.887926e-07    -4.280854e-06    0.000000e+00
1.785804e-06    -4.347577e-06    0.000000e+00
2.698938e-06    -4.458405e-06    0.000000e+00
3.635648e-06    -4.613044e-06    0.000000e+00
4.603127e-06    -4.811491e-06    0.000000e+00
-5.109519e-06    -5.848063e-06    0.000000e+00
-4.040826e-06    -5.655771e-06    0.000000e+00
-3.003132e-06    -5.506089e-06    0.000000e+00
-1.988883e-06    -5.398998e-06    0.000000e+00
-9.904490e-07    -5.334631e-06    0.000000e+00
-2.476777e-19    -5.313152e-06    0.000000e+00
9.904490e-07    -5.334631e-06    0.000000e+00
1.988883e-06    -5.398998e-06    0.000000e+00
3.003132e-06    -5.506089e-06    0.000000e+00
4.040826e-06    -5.655771e-06    0.000000e+00
5.109519e-06    -5.848063e-06    0.000000e+00
-5.600000e-06    -6.984466e-06    0.000000e+00
-4.433209e-06    -6.798359e-06    0.000000e+00
-3.297540e-06    -6.653564e-06    0.000000e+00
-2.185280e-06    -6.550064e-06    0.000000e+00
-1.088703e-06    -6.487913e-06    0.000000e+00
-2.762122e-19    -6.467185e-06    0.000000e+00
1.088703e-06    -6.487913e-06    0.000000e+00
2.185280e-06    -6.550064e-06    0.000000e+00
3.297540e-06    -6.653564e-06    0.000000e+00
4.433209e-06    -6.798359e-06    0.000000e+00
5.600000e-06    -6.984466e-06    0.000000e+00
-6.074464e-06    -8.217448e-06    0.000000e+00
-4.812763e-06    -8.037536e-06    0.000000e+00
-3.582247e-06    -7.897591e-06    0.000000e+00
-2.375134e-06    -7.797602e-06    0.000000e+00
-1.183653e-06    -7.737588e-06    0.000000e+00
-3.015702e-19    -7.717579e-06    0.000000e+00
1.183653e-06    -7.737588e-06    0.000000e+00
2.375134e-06    -7.797602e-06    0.000000e+00
3.582247e-06    -7.897591e-06    0.000000e+00
4.812763e-06    -8.037536e-06    0.000000e+00
6.074464e-06    -8.217448e-06    0.000000e+00
-6.532869e-06    -9.543760e-06    0.000000e+00
-5.179473e-06    -9.370047e-06    0.000000e+00
-3.857288e-06    -9.234936e-06    0.000000e+00
-2.558512e-06    -9.138419e-06    0.000000e+00
-1.275350e-06    -9.080501e-06    0.000000e+00
-3.263989e-19    -9.061194e-06    0.000000e+00
1.275350e-06    -9.080501e-06    0.000000e+00
2.558512e-06    -9.138419e-06    0.000000e+00
3.857288e-06    -9.234936e-06    0.000000e+00
5.179473e-06    -9.370047e-06    0.000000e+00
6.532869e-06    -9.543760e-06    0.000000e+00
-6.975203e-06    -1.096017e-05    0.000000e+00
-5.533329e-06    -1.079265e-05    0.000000e+00
-4.122680e-06    -1.066237e-05    0.000000e+00
-2.735444e-06    -1.056931e-05    0.000000e+00
-1.363819e-06    -1.051347e-05    0.000000e+00
-3.545362e-19    -1.049485e-05    0.000000e+00
1.363819e-06    -1.051347e-05    0.000000e+00
2.735444e-06    -1.056931e-05    0.000000e+00
4.122680e-06    -1.066237e-05    0.000000e+00
5.533329e-06    -1.079265e-05    0.000000e+00
6.975203e-06    -1.096017e-05    0.000000e+00
-7.401460e-06    -1.246344e-05    0.000000e+00
-5.874329e-06    -1.230213e-05    0.000000e+00
-4.378427e-06    -1.217667e-05    0.000000e+00
-2.905942e-06    -1.208705e-05    0.000000e+00
-1.449068e-06    -1.203328e-05    0.000000e+00
-3.740180e-19    -1.201536e-05    0.000000e+00
1.449068e-06    -1.203328e-05    0.000000e+00
2.905942e-06    -1.208705e-05    0.000000e+00
4.378427e-06    -1.217667e-05    0.000000e+00
5.874329e-06    -1.230213e-05    0.000000e+00
7.401460e-06    -1.246344e-05    0.000000e+00
-7.811642e-06    -1.405037e-05    0.000000e+00
-6.202471e-06    -1.389526e-05    0.000000e+00
-4.624530e-06    -1.377461e-05    0.000000e+00
-3.070010e-06    -1.368844e-05    0.000000e+00
-1.531102e-06    -1.363674e-05    0.000000e+00
-3.915939e-19    -1.361951e-05    0.000000e+00
1.531102e-06    -1.363674e-05    0.000000e+00
3.070010e-06    -1.368844e-05    0.000000e+00
4.624530e-06    -1.377461e-05    0.000000e+00
6.202471e-06    -1.389526e-05    0.000000e+00
7.811642e-06    -1.405037e-05    0.000000e+00
-8.205749e-06    -1.571772e-05    0.000000e+00
-6.517754e-06    -1.556881e-05    0.000000e+00
-4.860990e-06    -1.545299e-05    0.000000e+00
-3.227649e-06    -1.537027e-05    0.000000e+00
-1.609921e-06    -1.532063e-05    0.000000e+00
-4.051464e-19    -1.530409e-05    0.000000e+00
1.609921e-06    -1.532063e-05    0.000000e+00
3.227649e-06    -1.537027e-05    0.000000e+00
4.860990e-06    -1.545299e-05    0.000000e+00
6.517754e-06    -1.556881e-05    0.000000e+00
8.205749e-06    -1.571772e-05    0.000000e+00
-8.583781e-06    -1.746230e-05    0.000000e+00
-6.820178e-06    -1.731958e-05    0.000000e+00
-5.087806e-06    -1.720859e-05    0.000000e+00
-3.378858e-06    -1.712931e-05    0.000000e+00
-1.685525e-06    -1.708174e-05    0.000000e+00
-4.104933e-19    -1.706588e-05    0.000000e+00
1.685525e-06    -1.708174e-05    0.000000e+00
3.378858e-06    -1.712931e-05    0.000000e+00
5.087806e-06    -1.720859e-05    0.000000e+00
6.820178e-06    -1.731958e-05    0.000000e+00
8.583781e-06    -1.746230e-05    0.000000e+00
-8.945739e-06    -1.928087e-05    0.000000e+00
-7.109742e-06    -1.914436e-05    0.000000e+00
-5.304978e-06    -1.903818e-05    0.000000e+00
-3.523639e-06    -1.896235e-05    0.000000e+00
-1.757915e-06    -1.891684e-05    0.000000e+00
-4.195989e-19    -1.890168e-05    0.000000e+00
1.757915e-06    -1.891684e-05    0.000000e+00
3.523639e-06    -1.896235e-05    0.000000e+00
5.304978e-06    -1.903818e-05    0.000000e+00
7.109742e-06    -1.914436e-05    0.000000e+00
8.945739e-06    -1.928087e-05    0.000000e+00
-9.291621e-06    -2.117023e-05    0.000000e+00
-7.386446e-06    -2.103992e-05    0.000000e+00
-5.512505e-06    -2.093857e-05    0.000000e+00
-3.661989e-06    -2.086618e-05    0.000000e+00
-1.827090e-06    -2.082274e-05    0.000000e+00
-4.361161e-19    -2.080826e-05    0.000000e+00
1.827090e-06    -2.082274e-05    0.000000e+00
3.661989e-06    -2.086618e-05    0.000000e+00
5.512505e-06    -2.093857e-05    0.000000e+00
7.386446e-06    -2.103992e-05    0.000000e+00
9.291621e-06    -2.117023e-05    0.000000e+00
-9.621427e-06    -2.312716e-05    0.000000e+00
-7.650289e-06    -2.300305e-05    0.000000e+00
-5.710386e-06    -2.290652e-05    0.000000e+00
-3.793909e-06    -2.283758e-05    0.000000e+00
-1.893050e-06    -2.279621e-05    0.000000e+00
-4.652328e-19    -2.278242e-05    0.000000e+00
1.893050e-06    -2.279621e-05    0.000000e+00
3.793909e-06    -2.283758e-05    0.000000e+00
5.710386e-06    -2.290652e-05    0.000000e+00
7.650289e-06    -2.300305e-05    0.000000e+00
9.621427e-06    -2.312716e-05    0.000000e+00
-9.935158e-06    -2.514845e-05    0.000000e+00
-7.901271e-06    -2.503054e-05    0.000000e+00
-5.898621e-06    -2.493884e-05    0.000000e+00
-3.919398e-06    -2.487333e-05    0.000000e+00
-1.955795e-06    -2.483403e-05    0.000000e+00
-5.058904e-19    -2.482093e-05    0.000000e+00
1.955795e-06    -2.483403e-05    0.000000e+00
3.919398e-06    -2.487333e-05    0.000000e+00
5.898621e-06    -2.493884e-05    0.000000e+00
7.901271e-06    -2.503054e-05    0.000000e+00
9.935158e-06    -2.514845e-05    0.000000e+00
-1.023281e-05    -2.723088e-05    0.000000e+00
-8.139391e-06    -2.711917e-05    0.000000e+00
-6.077209e-06    -2.703229e-05    0.000000e+00
-4.038457e-06    -2.697023e-05    0.000000e+00
-2.015324e-06    -2.693300e-05    0.000000e+00
-5.374424e-19    -2.692059e-05    0.000000e+00
2.015324e-06    -2.693300e-05    0.000000e+00
4.038457e-06    -2.697023e-05    0.000000e+00
6.077209e-06    -2.703229e-05    0.000000e+00
8.139391e-06    -2.711917e-05    0.000000e+00
1.023281e-05    -2.723088e-05    0.000000e+00
-1.051439e-05    -2.937124e-05    0.000000e+00
-8.364648e-06    -2.926573e-05    0.000000e+00
-6.246151e-06    -2.918367e-05    0.000000e+00
-4.151084e-06    -2.912506e-05    0.000000e+00
-2.071637e-06    -2.908989e-05    0.000000e+00
-5.637004e-19    -2.907817e-05    0.000000e+00
2.071637e-06    -2.908989e-05    0.000000e+00
4.151084e-06    -2.912506e-05    0.000000e+00
6.246151e-06    -2.918367e-05    0.000000e+00
8.364648e-06    -2.926573e-05    0.000000e+00
1.051439e-05    -2.937124e-05    0.000000e+00
-1.077988e-05    -3.156631e-05    0.000000e+00
-8.577043e-06    -3.146700e-05    0.000000e+00
-6.405445e-06    -3.138977e-05    0.000000e+00
-4.257280e-06    -3.133460e-05    0.000000e+00
-2.124735e-06    -3.130150e-05    0.000000e+00
-5.915466e-19    -3.129047e-05    0.000000e+00
2.124735e-06    -3.130150e-05    0.000000e+00
4.257280e-06    -3.133460e-05    0.000000e+00
6.405445e-06    -3.138977e-05    0.000000e+00
8.577043e-06    -3.146700e-05    0.000000e+00
1.077988e-05    -3.156631e-05    0.000000e+00
-1.102930e-05    -3.381287e-05    0.000000e+00
-8.776573e-06    -3.371977e-05    0.000000e+00
-6.555092e-06    -3.364736e-05    0.000000e+00
-4.357043e-06    -3.359564e-05    0.000000e+00
-2.174616e-06    -3.356460e-05    0.000000e+00
-6.039345e-19    -3.355426e-05    0.000000e+00
2.174616e-06    -3.356460e-05    0.000000e+00
4.357043e-06    -3.359564e-05    0.000000e+00
6.555092e-06    -3.364736e-05    0.000000e+00
8.776573e-06    -3.371977e-05    0.000000e+00
1.102930e-05    -3.381287e-05    0.000000e+00
-1.126263e-05    -3.610771e-05    0.000000e+00
-8.963239e-06    -3.602081e-05    0.000000e+00
-6.695090e-06    -3.595323e-05    0.000000e+00
-4.450375e-06    -3.590495e-05    0.000000e+00
-2.221282e-06    -3.587599e-05    0.000000e+00
-6.188634e-19    -3.586633e-05    0.000000e+00
2.221282e-06    -3.587599e-05    0.000000e+00
4.450375e-06    -3.590495e-05    0.000000e+00
6.695090e-06    -3.595323e-05    0.000000e+00
8.963239e-06    -3.602081e-05    0.000000e+00
1.126263e-05    -3.610771e-05    0.000000e+00
-1.147989e-05    -3.844762e-05    0.000000e+00
-9.137038e-06    -3.836692e-05    0.000000e+00
-6.825439e-06    -3.830416e-05    0.000000e+00
-4.537274e-06    -3.825933e-05    0.000000e+00
-2.264732e-06    -3.823244e-05    0.000000e+00
-6.295572e-19    -3.822347e-05    0.000000e+00
2.264732e-06    -3.823244e-05    0.000000e+00
4.537274e-06    -3.825933e-05    0.000000e+00
6.825439e-06    -3.830416e-05    0.000000e+00
9.137038e-06    -3.836692e-05    0.000000e+00
1.147989e-05    -3.844762e-05    0.000000e+00
-1.168105e-05    -4.082937e-05    0.000000e+00
-9.297971e-06    -4.075488e-05    0.000000e+00
-6.946139e-06    -4.069694e-05    0.000000e+00
-4.617740e-06    -4.065556e-05    0.000000e+00
-2.304964e-06    -4.063074e-05    0.000000e+00
-6.299808e-19    -4.062246e-05    0.000000e+00
2.304964e-06    -4.063074e-05    0.000000e+00
4.617740e-06    -4.065556e-05    0.000000e+00
6.946139e-06    -4.069694e-05    0.000000e+00
9.297971e-06    -4.075488e-05    0.000000e+00
1.168105e-05    -4.082937e-05    0.000000e+00
-1.186613e-05    -4.324975e-05    0.000000e+00
-9.446038e-06    -4.318146e-05    0.000000e+00
-7.057187e-06    -4.312835e-05    0.000000e+00
-4.691770e-06    -4.309042e-05    0.000000e+00
-2.341977e-06    -4.306767e-05    0.000000e+00
-6.314631e-19    -4.306009e-05    0.000000e+00
2.341977e-06    -4.306767e-05    0.000000e+00
4.691770e-06    -4.309042e-05    0.000000e+00
7.057187e-06    -4.312835e-05    0.000000e+00
9.446038e-06    -4.318146e-05    0.000000e+00
1.186613e-05    -4.324975e-05    0.000000e+00
-1.203513e-05    -4.570552e-05    0.000000e+00
-9.581238e-06    -4.564344e-05    0.000000e+00
-7.158582e-06    -4.559517e-05    0.000000e+00
-4.759356e-06    -4.556070e-05    0.000000e+00
-2.375765e-06    -4.554003e-05    0.000000e+00
-6.579328e-19    -4.553315e-05    0.000000e+00
2.375765e-06    -4.554003e-05    0.000000e+00
4.759356e-06    -4.556070e-05    0.000000e+00
7.158582e-06    -4.559517e-05    0.000000e+00
9.581238e-06    -4.564344e-05    0.000000e+00
1.203513e-05    -4.570552e-05    0.000000e+00
-1.218804e-05    -4.819347e-05    0.000000e+00
-9.703576e-06    -4.813760e-05    0.000000e+00
-7.250312e-06    -4.809416e-05    0.000000e+00
-4.820481e-06    -4.806318e-05    0.000000e+00
-2.406314e-06    -4.804463e-05    0.000000e+00
-6.831321e-19    -4.803845e-05    0.000000e+00
2.406314e-06    -4.804463e-05    0.000000e+00
4.820481e-06    -4.806318e-05    0.000000e+00
7.250312e-06    -4.809416e-05    0.000000e+00
9.703576e-06    -4.813760e-05    0.000000e+00
1.218804e-05    -4.819347e-05    0.000000e+00
-1.232489e-05    -5.071035e-05    0.000000e+00
-9.813061e-06    -5.066067e-05    0.000000e+00
-7.332356e-06    -5.062211e-05    0.000000e+00
-4.875104e-06    -5.059466e-05    0.000000e+00
-2.433594e-06    -5.057826e-05    0.000000e+00
-7.235779e-19    -5.057281e-05    0.000000e+00
2.433594e-06    -5.057826e-05    0.000000e+00
4.875104e-06    -5.059466e-05    0.000000e+00
7.332356e-06    -5.062211e-05    0.000000e+00
9.813061e-06    -5.066067e-05    0.000000e+00
1.232489e-05    -5.071035e-05    0.000000e+00
-1.244574e-05    -5.325291e-05    0.000000e+00
-9.909710e-06    -5.320942e-05    0.000000e+00
-7.404663e-06    -5.317576e-05    0.000000e+00
-4.923140e-06    -5.315195e-05    0.000000e+00
-2.457540e-06    -5.313780e-05    0.000000e+00
-7.640237e-19    -5.313311e-05    0.000000e+00
2.457540e-06    -5.313780e-05    0.000000e+00
4.923140e-06    -5.315195e-05    0.000000e+00
7.404663e-06    -5.317576e-05    0.000000e+00
9.909710e-06    -5.320942e-05    0.000000e+00
1.244574e-05    -5.325291e-05    0.000000e+00
-1.255073e-05    -5.581792e-05    0.000000e+00
-9.993561e-06    -5.578057e-05    0.000000e+00
-7.467129e-06    -5.575190e-05    0.000000e+00
-4.964426e-06    -5.573187e-05    0.000000e+00
-2.478042e-06    -5.572012e-05    0.000000e+00
-7.805409e-19    -5.571626e-05    0.000000e+00
2.478042e-06    -5.572012e-05    0.000000e+00
4.964426e-06    -5.573187e-05    0.000000e+00
7.467129e-06    -5.575190e-05    0.000000e+00
9.993561e-06    -5.578057e-05    0.000000e+00
1.255073e-05    -5.581792e-05    0.000000e+00
-1.264018e-05    -5.840219e-05    0.000000e+00
-1.006467e-05    -5.837091e-05    0.000000e+00
-7.519551e-06    -5.834735e-05    0.000000e+00
-4.998691e-06    -5.833133e-05    0.000000e+00
-2.494920e-06    -5.832215e-05    0.000000e+00
-8.080694e-19    -5.831917e-05    0.000000e+00
2.494920e-06    -5.832215e-05    0.000000e+00
4.998691e-06    -5.833133e-05    0.000000e+00
7.519551e-06    -5.834735e-05    0.000000e+00
1.006467e-05    -5.837091e-05    0.000000e+00
1.264018e-05    -5.840219e-05    0.000000e+00
-1.271474e-05    -6.100284e-05    0.000000e+00
-1.012307e-05    -6.097745e-05    0.000000e+00
-7.561588e-06    -6.095914e-05    0.000000e+00
-5.025563e-06    -6.094728e-05    0.000000e+00
-2.507968e-06    -6.094073e-05    0.000000e+00
-8.298805e-19    -6.093864e-05    0.000000e+00
2.507968e-06    -6.094073e-05    0.000000e+00
5.025563e-06    -6.094728e-05    0.000000e+00
7.561588e-06    -6.095914e-05    0.000000e+00
1.012307e-05    -6.097745e-05    0.000000e+00
1.271474e-05    -6.100284e-05    0.000000e+00
-1.277558e-05    -6.361769e-05    0.000000e+00
-1.016875e-05    -6.359791e-05    0.000000e+00
-7.592795e-06    -6.358478e-05    0.000000e+00
-5.044770e-06    -6.357675e-05    0.000000e+00
-2.517122e-06    -6.357229e-05    0.000000e+00
-7.919758e-19    -6.357084e-05    0.000000e+00
2.517122e-06    -6.357229e-05    0.000000e+00
5.044770e-06    -6.357675e-05    0.000000e+00
7.592795e-06    -6.358478e-05    0.000000e+00
1.016875e-05    -6.359791e-05    0.000000e+00
1.277558e-05    -6.361769e-05    0.000000e+00
-1.282452e-05    -6.624671e-05    0.000000e+00
-1.020134e-05    -6.623187e-05    0.000000e+00
-7.613033e-06    -6.622289e-05    0.000000e+00
-5.056848e-06    -6.621638e-05    0.000000e+00
-2.522876e-06    -6.621193e-05    0.000000e+00
-7.464478e-19    -6.621033e-05    0.000000e+00
2.522876e-06    -6.621193e-05    0.000000e+00
5.056848e-06    -6.621638e-05    0.000000e+00
7.613033e-06    -6.622289e-05    0.000000e+00
1.020134e-05    -6.623187e-05    0.000000e+00
1.282452e-05    -6.624671e-05    0.000000e+00
-1.286277e-05    -6.889466e-05    0.000000e+00
-1.022024e-05    -6.888396e-05    0.000000e+00
-7.624629e-06    -6.887298e-05    0.000000e+00
-5.064520e-06    -6.886077e-05    0.000000e+00
-2.526781e-06    -6.885164e-05    0.000000e+00
-7.417891e-19    -6.884830e-05    0.000000e+00
2.526781e-06    -6.885164e-05    0.000000e+00
5.064520e-06    -6.886077e-05    0.000000e+00
7.624629e-06    -6.887298e-05    0.000000e+00
1.022024e-05    -6.888396e-05    0.000000e+00
1.286277e-05    -6.889466e-05    0.000000e+00
-1.288300e-05    -7.158536e-05    0.000000e+00
-1.023221e-05    -7.156477e-05    0.000000e+00
-7.636385e-06    -7.153005e-05    0.000000e+00
-5.073486e-06    -7.149872e-05    0.000000e+00
-2.531629e-06    -7.147785e-05    0.000000e+00
-7.481419e-19    -7.147057e-05    0.000000e+00
2.531629e-06    -7.147785e-05    0.000000e+00
5.073486e-06    -7.149872e-05    0.000000e+00
7.636385e-06    -7.153005e-05    0.000000e+00
1.023221e-05    -7.156477e-05    0.000000e+00
1.288300e-05    -7.158536e-05    0.000000e+00

CELL_DATA      400
TENSORS Element_Stress6.000000e-02 double
1.077787e+06 1.510588e+05        0
1.510588e+05 2.463859e+05        0
       0        0        0

7.364499e+05 7.746121e+04        0
7.746121e+04 2.111273e+05        0
       0        0        0

5.123535e+05 2.544268e+04        0
2.544268e+04 1.628491e+05        0
       0        0        0

3.020888e+05 -2.152079e+03        0
-2.152079e+03 1.001053e+05        0
       0        0        0

1.000313e+05 -1.477433e+04        0
-1.477433e+04 3.373941e+04        0
       0        0        0

-1.000187e+05 -1.477218e+04        0
-1.477218e+04 -3.374221e+04        0
       0        0        0

-3.019218e+05 -2.152325e+03        0
-2.152325e+03 -1.000474e+05        0
       0        0        0

-5.118583e+05 2.541750e+04        0
2.541750e+04 -1.626635e+05        0
       0        0        0

-7.354018e+05 7.735994e+04        0
7.735994e+04 -2.107258e+05        0
       0        0        0

-1.075602e+06 1.507744e+05        0
1.507744e+05 -2.456306e+05        0
       0        0        0

9.722422e+05 2.462042e+04        0
2.462042e+04 2.375131e+03        0
       0        0        0

7.830954e+05 7.141833e+04        0
7.141833e+04 7.620004e+04        0
       0        0        0

5.380152e+05 5.860657e+04        0
5.860657e+04 7.797345e+04        0
       0        0        0

3.178506e+05 4.486829e+04        0
4.486829e+04 5.457086e+04        0
       0        0        0

1.048792e+05 3.741428e+04        0
3.741428e+04 1.913445e+04        0
       0        0        0

-1.052434e+05 3.740785e+04        0
3.740785e+04 -1.951741e+04        0
       0        0        0

-3.180379e+05 4.484534e+04        0
4.484534e+04 -5.489076e+04        0
       0        0        0

-5.378234e+05 5.855740e+04        0
5.855740e+04 -7.815540e+04        0
       0        0        0

-7.822095e+05 7.133500e+04        0
7.133500e+04 -7.611144e+04        0
       0        0        0

-9.706261e+05 2.459002e+04        0
2.459002e+04 -1.989407e+03        0
       0        0        0

9.387422e+05 9.119263e+03        0
9.119263e+03 4.075265e+03        0
       0        0        0

7.533347e+05 4.044305e+04        0
4.044305e+04 1.066370e+04        0
       0        0        0

5.420726e+05 6.012167e+04        0
6.012167e+04 2.543710e+04        0
       0        0        0

3.220844e+05 6.362638e+04        0
6.362638e+04 2.166608e+04        0
       0        0        0

1.065367e+05 6.358941e+04        0
6.358941e+04 7.944485e+03        0
       0        0        0

-1.077064e+05 6.357962e+04        0
6.357962e+04 -9.134673e+03        0
       0        0        0

-3.230673e+05 6.359721e+04        0
6.359721e+04 -2.278957e+04        0
       0        0        0

-5.426586e+05 6.007638e+04        0
6.007638e+04 -2.641119e+04        0
       0        0        0

-7.533250e+05 4.040276e+04        0
4.040276e+04 -1.139749e+04        0
       0        0        0

-9.380484e+05 9.108075e+03        0
9.108075e+03 -4.529857e+03        0
       0        0        0

9.161685e+05 8.443969e+03        0
8.443969e+03 -1.808002e+03        0
       0        0        0

7.271684e+05 3.283578e+04        0
3.283578e+04 -4.955675e+02        0
       0        0        0

5.258516e+05 5.472547e+04        0
5.472547e+04 2.476024e+03        0
       0        0        0

3.165961e+05 6.784752e+04        0
6.784752e+04 4.269806e+03        0
       0        0        0

1.047061e+05 7.303830e+04        0
7.303830e+04 1.219425e+03        0
       0        0        0

-1.070468e+05 7.302794e+04        0
7.302794e+04 -3.580541e+03        0
       0        0        0

-3.187521e+05 6.781886e+04        0
6.781886e+04 -6.562941e+03        0
       0        0        0

-5.276346e+05 5.468771e+04        0
5.468771e+04 -4.625499e+03        0
       0        0        0

-7.283984e+05 3.280484e+04        0
3.280484e+04 -1.428149e+03        0
       0        0        0

-9.166604e+05 8.434146e+03        0
8.434146e+03 2.200022e+02        0
       0        0        0

8.949794e+05 1.013646e+04        0
1.013646e+04 -2.229991e+03        0
       0        0        0

7.032195e+05 3.224803e+04        0
3.224803e+04 -3.902454e+03        0
       0        0        0

5.071877e+05 5.271542e+04        0
5.271542e+04 -3.681927e+03        0
       0        0        0

3.056215e+05 6.727789e+04        0
6.727789e+04 -2.697652e+03        0
       0        0        0

1.009103e+05 7.451108e+04        0
7.451108e+04 -2.020015e+03        0
       0        0        0

-1.047303e+05 7.450114e+04        0
7.450114e+04 -1.819404e+03        0
       0        0        0

-3.092678e+05 6.725114e+04        0
6.725114e+04 -1.077034e+03        0
       0        0        0

-5.104858e+05 5.268084e+04        0
5.268084e+04 4.192053e+01        0
       0        0        0

-7.059933e+05 3.221884e+04        0
3.221884e+04 4.784129e+02        0
       0        0        0

-8.970301e+05 1.012490e+04        0
1.012490e+04 -8.691736e+02        0
       0        0        0

8.720916e+05 1.159307e+04        0
1.159307e+04 -2.987688e+03        0
       0        0        0

6.811939e+05 3.340871e+04        0
3.340871e+04 -4.452545e+03        0
       0        0        0

4.890081e+05 5.232022e+04        0
5.232022e+04 -5.204700e+03        0
       0        0        0

2.938674e+05 6.617148e+04        0
6.617148e+04 -4.696815e+03        0
       0        0        0

9.635942e+04 7.339524e+04        0
7.339524e+04 -3.503708e+03        0
       0        0        0

-1.019271e+05 7.338589e+04        0
7.338589e+04 -2.081983e+03        0
       0        0        0

-2.992756e+05 6.614626e+04        0
6.614626e+04 -8.308418e+02        0
       0        0        0

-4.940964e+05 5.228717e+04        0
5.228717e+04 -2.027020e+02        0
       0        0        0

-6.857970e+05 3.337936e+04        0
3.337936e+04 -7.625854e+02        0
       0        0        0

-8.760245e+05 1.158017e+04        0
1.158017e+04 -1.943192e+03        0
       0        0        0

8.476131e+05 1.251404e+04        0
1.251404e+04 -3.812459e+03        0
       0        0        0

6.598731e+05 3.453708e+04        0
3.453708e+04 -4.823233e+03        0
       0        0        0

4.719393e+05 5.247229e+04        0
5.247229e+04 -5.513198e+03        0
       0        0        0

2.825747e+05 6.532541e+04        0
6.532541e+04 -5.331593e+03        0
       0        0        0

9.183936e+04 7.204026e+04        0
7.204026e+04 -4.395624e+03        0
       0        0        0

-9.939477e+04 7.203140e+04        0
7.203140e+04 -3.176549e+03        0
       0        0        0

-2.899874e+05 6.530136e+04        0
6.530136e+04 -2.192451e+03        0
       0        0        0

-4.790653e+05 5.244017e+04        0
5.244017e+04 -1.911470e+03        0
       0        0        0

-6.665637e+05 3.450760e+04        0
3.450760e+04 -2.443784e+03        0
       0        0        0

-8.537071e+05 1.250048e+04        0
1.250048e+04 -3.226844e+03        0
       0        0        0

8.220339e+05 1.302216e+04        0
1.302216e+04 -4.846302e+03        0
       0        0        0

6.387848e+05 3.528663e+04        0
3.528663e+04 -5.432734e+03        0
       0        0        0

4.556480e+05 5.269159e+04        0
5.269159e+04 -5.898736e+03        0
       0        0        0

2.719019e+05 6.481858e+04        0
6.481858e+04 -5.844931e+03        0
       0        0        0

8.746433e+04 7.107068e+04        0
7.107068e+04 -5.279185e+03        0
       0        0        0

-9.722450e+04 7.106223e+04        0
7.106223e+04 -4.496609e+03        0
       0        0        0

-2.815377e+05 6.479545e+04        0
6.479545e+04 -3.894959e+03        0
       0        0        0

-4.650340e+05 5.266031e+04        0
5.266031e+04 -3.767146e+03        0
       0        0        0

-6.477916e+05 3.525738e+04        0
3.525738e+04 -4.116454e+03        0
       0        0        0

-8.305250e+05 1.300844e+04        0
1.300844e+04 -4.536772e+03        0
       0        0        0

7.957986e+05 1.327665e+04        0
1.327665e+04 -6.039088e+03        0
       0        0        0

6.177164e+05 3.570852e+04        0
3.570852e+04 -6.346636e+03        0
       0        0        0

4.397900e+05 5.285242e+04        0
5.285242e+04 -6.610931e+03        0
       0        0        0

2.616438e+05 6.455041e+04        0
6.455041e+04 -6.603760e+03        0
       0        0        0

8.319566e+04 7.050243e+04        0
7.050243e+04 -6.302292e+03        0
       0        0        0

-9.535531e+04 7.049430e+04        0
7.049430e+04 -5.871960e+03        0
       0        0        0

-2.736983e+05 6.452809e+04        0
6.452809e+04 -5.548097e+03        0
       0        0        0

-4.516331e+05 5.282200e+04        0
5.282200e+04 -5.494604e+03        0
       0        0        0

-6.292392e+05 3.567981e+04        0
3.567981e+04 -5.685632e+03        0
       0        0        0

-8.068876e+05 1.326308e+04        0
1.326308e+04 -5.888913e+03        0
       0        0        0

7.691945e+05 1.339345e+04        0
1.339345e+04 -7.357320e+03        0
       0        0        0

5.965970e+05 3.592142e+04        0
3.592142e+04 -7.496856e+03        0
       0        0        0

4.241242e+05 5.294734e+04        0
5.294734e+04 -7.625597e+03        0
       0        0        0

2.515986e+05 6.442165e+04        0
6.442165e+04 -7.626416e+03        0
       0        0        0

7.896465e+04 7.020774e+04        0
7.020774e+04 -7.479162e+03        0
       0        0        0

-9.369601e+04 7.019990e+04        0
7.019990e+04 -7.265841e+03        0
       0        0        0

-2.662441e+05 6.440008e+04        0
6.440008e+04 -7.110188e+03        0
       0        0        0

-4.385970e+05 5.291782e+04        0
5.291782e+04 -7.093079e+03        0
       0        0        0

-6.108083e+05 3.589344e+04        0
3.589344e+04 -7.192202e+03        0
       0        0        0

-7.830524e+05 1.338019e+04        0
1.338019e+04 -7.287579e+03        0
       0        0        0

7.423862e+05 1.344221e+04        0
1.344221e+04 -8.770228e+03        0
       0        0        0

5.754091e+05 3.601937e+04        0
3.601937e+04 -8.812005e+03        0
       0        0        0

4.085169e+05 5.299686e+04        0
5.299686e+04 -8.856892e+03        0
       0        0        0

2.416328e+05 6.436543e+04        0
6.436543e+04 -8.850825e+03        0
       0        0        0

7.472496e+04 7.006936e+04        0
7.006936e+04 -8.780900e+03        0
       0        0        0

-9.217758e+04 7.006179e+04        0
7.006179e+04 -8.684471e+03        0
       0        0        0

-2.590186e+05 6.434458e+04        0
6.434458e+04 -8.620127e+03        0
       0        0        0

-4.257682e+05 5.296827e+04        0
5.296827e+04 -8.624300e+03        0
       0        0        0

-5.924565e+05 3.599223e+04        0
3.599223e+04 -8.682331e+03        0
       0        0        0

-7.591578e+05 1.342934e+04        0
1.342934e+04 -8.737754e+03        0
       0        0        0

7.154617e+05 1.346023e+04        0
1.346023e+04 -1.025534e+04        0
       0        0        0

5.541564e+05 3.606034e+04        0
3.606034e+04 -1.023788e+04        0
       0        0        0

3.929045e+05 5.302045e+04        0
5.302045e+04 -1.023120e+04        0
       0        0        0

2.316757e+05 6.434369e+04        0
6.434369e+04 -1.021294e+04        0
       0        0        0

7.045345e+04 7.001071e+04        0
7.001071e+04 -1.017627e+04        0
       0        0        0

-9.075445e+04 7.000340e+04        0
7.000340e+04 -1.013662e+04        0
       0        0        0

-2.519284e+05 6.432355e+04        0
6.432355e+04 -1.011922e+04        0
       0        0        0

-4.130598e+05 5.299282e+04        0
5.299282e+04 -1.013868e+04        0
       0        0        0

-5.741637e+05 3.603408e+04        0
3.603408e+04 -1.018656e+04        0
       0        0        0

-7.352678e+05 1.344778e+04        0
1.344778e+04 -1.023822e+04        0
       0        0        0

6.884666e+05 1.346567e+04        0
1.346567e+04 -1.179558e+04        0
       0        0        0

5.328492e+05 3.607560e+04        0
3.607560e+04 -1.173835e+04        0
       0        0        0

3.772628e+05 5.303092e+04        0
5.303092e+04 -1.169776e+04        0
       0        0        0

2.216969e+05 6.433694e+04        0
6.433694e+04 -1.166602e+04        0
       0        0        0

6.614325e+04 6.998912e+04        0
6.998912e+04 -1.164004e+04        0
       0        0        0

-8.939775e+04 6.998207e+04        0
6.998207e+04 -1.162553e+04        0
       0        0        0

-2.449211e+05 6.431750e+04        0
6.431750e+04 -1.163210e+04        0
       0        0        0

-4.004255e+05 5.300424e+04        0
5.300424e+04 -1.166465e+04        0
       0        0        0

-5.559176e+05 3.605025e+04        0
3.605025e+04 -1.171856e+04        0
       0        0        0

-7.114058e+05 1.345365e+04        0
1.345365e+04 -1.178375e+04        0
       0        0        0

6.614261e+05 1.346661e+04        0
1.346661e+04 -1.337731e+04        0
       0        0        0

5.114990e+05 3.608040e+04        0
3.608040e+04 -1.328960e+04        0
       0        0        0

3.615874e+05 5.303538e+04        0
5.303538e+04 -1.322406e+04        0
       0        0        0

2.116880e+05 6.433610e+04        0
6.433610e+04 -1.317898e+04        0
       0        0        0

6.179657e+04 6.998324e+04        0
6.998324e+04 -1.315329e+04        0
       0        0        0

-8.808835e+04 6.997644e+04        0
6.997644e+04 -1.314877e+04        0
       0        0        0

-2.379667e+05 6.431737e+04        0
6.431737e+04 -1.316844e+04        0
       0        0        0

-3.878393e+05 5.300967e+04        0
5.300967e+04 -1.321327e+04        0
       0        0        0

-5.377085e+05 3.605597e+04        0
3.605597e+04 -1.328067e+04        0
       0        0        0

-6.875756e+05 1.345502e+04        0
1.345502e+04 -1.336659e+04        0
       0        0        0

6.343556e+05 1.346631e+04        0
1.346631e+04 -1.498893e+04        0
       0        0        0

4.901173e+05 3.608153e+04        0
3.608153e+04 -1.487507e+04        0
       0        0        0

3.458829e+05 5.303742e+04        0
5.303742e+04 -1.478895e+04        0
       0        0        0

2.016512e+05 6.433734e+04        0
6.433734e+04 -1.473109e+04        0
       0        0        0

5.742008e+04 6.998335e+04        0
6.998335e+04 -1.470142e+04        0
       0        0        0

-8.681230e+04 6.997681e+04        0
6.997681e+04 -1.470032e+04        0
       0        0        0

-2.310470e+05 6.431931e+04        0
6.431931e+04 -1.472832e+04        0
       0        0        0

-3.752851e+05 5.301268e+04        0
5.301268e+04 -1.478503e+04        0
       0        0        0

-5.195271e+05 3.605802e+04        0
3.605802e+04 -1.486881e+04        0
       0        0        0

-6.637719e+05 1.345516e+04        0
1.345516e+04 -1.497782e+04        0
       0        0        0

6.072665e+05 1.346590e+04        0
1.346590e+04 -1.661999e+04        0
       0        0        0

4.687146e+05 3.608171e+04        0
3.608171e+04 -1.648211e+04        0
       0        0        0

3.301573e+05 5.303866e+04        0
5.303866e+04 -1.637760e+04        0
       0        0        0

1.915937e+05 6.433919e+04        0
6.433919e+04 -1.630761e+04        0
       0        0        0

5.302231e+04 6.998544e+04        0
6.998544e+04 -1.627248e+04        0
       0        0        0

-8.555825e+04 6.997916e+04        0
6.997916e+04 -1.627225e+04        0
       0        0        0

-2.241492e+05 6.432187e+04        0
6.432187e+04 -1.630664e+04        0
       0        0        0

-3.627512e+05 5.301489e+04        0
5.301489e+04 -1.637489e+04        0
       0        0        0

-5.013641e+05 3.605913e+04        0
3.605913e+04 -1.647578e+04        0
       0        0        0

-6.399865e+05 1.345519e+04        0
1.345519e+04 -1.660810e+04        0
       0        0        0

5.801685e+05 1.346569e+04        0
1.346569e+04 -1.826074e+04        0
       0        0        0

4.473009e+05 3.608190e+04        0
3.608190e+04 -1.810014e+04        0
       0        0        0

3.144197e+05 5.303979e+04        0
5.303979e+04 -1.797845e+04        0
       0        0        0

1.815239e+05 6.434122e+04        0
6.434122e+04 -1.789692e+04        0
       0        0        0

4.861237e+04 6.998807e+04        0
6.998807e+04 -1.785606e+04        0
       0        0        0

-8.431620e+04 6.998204e+04        0
6.998204e+04 -1.785586e+04        0
       0        0        0

-2.172627e+05 6.432461e+04        0
6.432461e+04 -1.789587e+04        0
       0        0        0

-3.502276e+05 5.301699e+04        0
5.301699e+04 -1.797531e+04        0
       0        0        0

-4.832104e+05 3.606023e+04        0
3.606023e+04 -1.809310e+04        0
       0        0        0

-6.162099e+05 1.345541e+04        0
1.345541e+04 -1.824809e+04        0
       0        0        0

5.530705e+05 1.346569e+04        0
1.346569e+04 -1.990198e+04        0
       0        0        0

4.258855e+05 3.608234e+04        0
3.608234e+04 -1.971963e+04        0
       0        0        0

2.986794e+05 5.304105e+04        0
5.304105e+04 -1.958162e+04        0
       0        0        0

1.714511e+05 6.434334e+04        0
6.434334e+04 -1.948911e+04        0
       0        0        0

4.419933e+04 6.999083e+04        0
6.999083e+04 -1.944266e+04        0
       0        0        0

-8.307687e+04 6.998506e+04        0
6.998506e+04 -1.944230e+04        0
       0        0        0

-2.103783e+05 6.432744e+04        0
6.432744e+04 -1.948761e+04        0
       0        0        0

-3.377051e+05 5.301922e+04        0
5.301922e+04 -1.957784e+04        0
       0        0        0

-4.650569e+05 3.606159e+04        0
3.606159e+04 -1.971195e+04        0
       0        0        0

-5.924326e+05 1.345585e+04        0
1.345585e+04 -1.988872e+04        0
       0        0        0

5.259811e+05 1.346585e+04        0
1.346585e+04 -2.153492e+04        0
       0        0        0

4.044771e+05 3.608305e+04        0
3.608305e+04 -2.133172e+04        0
       0        0        0

2.829452e+05 5.304252e+04        0
5.304252e+04 -2.117811e+04        0
       0        0        0

1.613839e+05 6.434559e+04        0
6.434559e+04 -2.107515e+04        0
       0        0        0

3.979197e+04 6.999366e+04        0
6.999366e+04 -2.102339e+04        0
       0        0        0

-8.183149e+04 6.998815e+04        0
6.998815e+04 -2.102289e+04        0
       0        0        0

-2.034871e+05 6.433039e+04        0
6.433039e+04 -2.107331e+04        0
       0        0        0

-3.251751e+05 5.302166e+04        0
5.302166e+04 -2.117390e+04        0
       0        0        0

-4.468949e+05 3.606322e+04        0
3.606322e+04 -2.132365e+04        0
       0        0        0

-5.686458e+05 1.345645e+04        0
1.345645e+04 -2.152121e+04        0
       0        0        0

4.989083e+05 1.346613e+04        0
1.346613e+04 -2.315115e+04        0
       0        0        0

3.830842e+05 3.608399e+04        0
3.608399e+04 -2.292802e+04        0
       0        0        0

2.672256e+05 5.304422e+04        0
5.304422e+04 -2.275952e+04        0
       0        0        0

1.513308e+05 6.434800e+04        0
6.434800e+04 -2.264660e+04        0
       0        0        0

3.539874e+04 6.999662e+04        0
6.999662e+04 -2.258982e+04        0
       0        0        0

-8.057166e+04 6.999136e+04        0
6.999136e+04 -2.258926e+04        0
       0        0        0

-1.965809e+05 6.433351e+04        0
6.433351e+04 -2.264459e+04        0
       0        0        0

-3.126291e+05 5.302432e+04        0
5.302432e+04 -2.275511e+04        0
       0        0        0

-4.287160e+05 3.606508e+04        0
3.606508e+04 -2.291977e+04        0
       0        0        0

-5.448408e+05 1.345717e+04        0
1.345717e+04 -2.313715e+04        0
       0        0        0

4.718602e+05 1.346651e+04        0
1.346651e+04 -2.474266e+04        0
       0        0        0

3.617147e+05 3.608514e+04        0
3.608514e+04 -2.450053e+04        0
       0        0        0

2.515286e+05 5.304614e+04        0
5.304614e+04 -2.431783e+04        0
       0        0        0

1.413000e+05 6.435062e+04        0
6.435062e+04 -2.419546e+04        0
       0        0        0

3.102766e+04 6.999975e+04        0
6.999975e+04 -2.413393e+04        0
       0        0        0

-7.928938e+04 6.999475e+04        0
6.999475e+04 -2.413335e+04        0
       0        0        0

-1.896517e+05 6.433683e+04        0
6.433683e+04 -2.419341e+04        0
       0        0        0

-3.000593e+05 5.302722e+04        0
5.302722e+04 -2.431341e+04        0
       0        0        0

-4.105121e+05 3.606715e+04        0
3.606715e+04 -2.449227e+04        0
       0        0        0

-5.210093e+05 1.345798e+04        0
1.345798e+04 -2.472851e+04        0
       0        0        0

4.448440e+05 1.346696e+04        0
1.346696e+04 -2.630182e+04        0
       0        0        0

3.403763e+05 3.608647e+04        0
3.608647e+04 -2.604164e+04        0
       0        0        0

2.358619e+05 5.304829e+04        0
5.304829e+04 -2.584545e+04        0
       0        0        0

1.312991e+05 6.435346e+04        0
6.435346e+04 -2.571411e+04        0
       0        0        0

2.668641e+04 7.000309e+04        0
7.000309e+04 -2.564810e+04        0
       0        0        0

-7.797703e+04 6.999835e+04        0
6.999835e+04 -2.564753e+04        0
       0        0        0

-1.826918e+05 6.434038e+04        0
6.434038e+04 -2.571210e+04        0
       0        0        0

-2.874580e+05 5.303033e+04        0
5.303033e+04 -2.584113e+04        0
       0        0        0

-3.922755e+05 3.606941e+04        0
3.606941e+04 -2.603348e+04        0
       0        0        0

-4.971437e+05 1.345887e+04        0
1.345887e+04 -2.628765e+04        0
       0        0        0

4.178671e+05 1.346749e+04        0
1.346749e+04 -2.782136e+04        0
       0        0        0

3.190760e+05 3.608800e+04        0
3.608800e+04 -2.754409e+04        0
       0        0        0

2.202327e+05 5.305068e+04        0
5.305068e+04 -2.733515e+04        0
       0        0        0

1.213353e+05 6.435652e+04        0
6.435652e+04 -2.719533e+04        0
       0        0        0

2.238224e+04 7.000665e+04        0
7.000665e+04 -2.712508e+04        0
       0        0        0

-7.662734e+04 7.000216e+04        0
7.000216e+04 -2.712451e+04        0
       0        0        0

-1.756940e+05 6.434415e+04        0
6.434415e+04 -2.719337e+04        0
       0        0        0

-2.748179e+05 5.303369e+04        0
5.303369e+04 -2.733095e+04        0
       0        0        0

-3.739988e+05 3.607186e+04        0
3.607186e+04 -2.753613e+04        0
       0        0        0

-4.732364e+05 1.345984e+04        0
1.345984e+04 -2.780730e+04        0
       0        0        0

3.909360e+05 1.346812e+04        0
1.346812e+04 -2.929442e+04        0
       0        0        0

2.978208e+05 3.608974e+04        0
3.608974e+04 -2.900105e+04        0
       0        0        0

2.046480e+05 5.305330e+04        0
5.305330e+04 -2.878009e+04        0
       0        0        0

1.114155e+05 6.435980e+04        0
6.435980e+04 -2.863225e+04        0
       0        0        0

1.812205e+04 7.001039e+04        0
7.001039e+04 -2.855799e+04        0
       0        0        0

-7.523346e+04 7.000615e+04        0
7.000615e+04 -2.855741e+04        0
       0        0        0

-1.686515e+05 6.434813e+04        0
6.434813e+04 -2.863030e+04        0
       0        0        0

-2.621321e+05 5.303728e+04        0
5.303728e+04 -2.877597e+04        0
       0        0        0

-3.556751e+05 3.607452e+04        0
3.607452e+04 -2.899329e+04        0
       0        0        0

-4.492804e+05 1.346091e+04        0
1.346091e+04 -2.928057e+04        0
       0        0        0

3.640572e+05 1.346889e+04        0
1.346889e+04 -3.071450e+04        0
       0        0        0

2.766169e+05 3.609174e+04        0
3.609174e+04 -3.040601e+04        0
       0        0        0

1.891141e+05 5.305616e+04        0
5.305616e+04 -3.017377e+04        0
       0        0        0

1.015464e+05 6.436327e+04        0
6.436327e+04 -3.001839e+04        0
       0        0        0

1.391236e+04 7.001428e+04        0
7.001428e+04 -2.994032e+04        0
       0        0        0

-7.378889e+04 7.001031e+04        0
7.001031e+04 -2.993973e+04        0
       0        0        0

-1.615577e+05 6.435231e+04        0
6.435231e+04 -3.001639e+04        0
       0        0        0

-2.493941e+05 5.304111e+04        0
5.304111e+04 -3.016968e+04        0
       0        0        0

-3.372979e+05 3.607744e+04        0
3.607744e+04 -3.039845e+04        0
       0        0        0

-4.252691e+05 1.346211e+04        0
1.346211e+04 -3.070096e+04        0
       0        0        0

3.372364e+05 1.346983e+04        0
1.346983e+04 -3.207547e+04        0
       0        0        0

2.554707e+05 3.609400e+04        0
3.609400e+04 -3.175284e+04        0
       0        0        0

1.736374e+05 5.305923e+04        0
5.305923e+04 -3.150998e+04        0
       0        0        0

9.173404e+04 6.436691e+04        0
6.436691e+04 -3.134750e+04        0
       0        0        0

9.759288e+03 7.001835e+04        0
7.001835e+04 -3.126593e+04        0
       0        0        0

-7.228754e+04 7.001463e+04        0
7.001463e+04 -3.126540e+04        0
       0        0        0

-1.544066e+05 6.435665e+04        0
6.435665e+04 -3.134565e+04        0
       0        0        0

-2.365978e+05 5.304515e+04        0
5.304515e+04 -3.150605e+04        0
       0        0        0

-3.188610e+05 3.608062e+04        0
3.608062e+04 -3.174553e+04        0
       0        0        0

-4.011961e+05 1.346349e+04        0
1.346349e+04 -3.206233e+04        0
       0        0        0

3.104793e+05 1.347096e+04        0
1.347096e+04 -3.337156e+04        0
       0        0        0

2.343878e+05 3.609643e+04        0
3.609643e+04 -3.303561e+04        0
       0        0        0

1.582235e+05 5.306239e+04        0
5.306239e+04 -3.278262e+04        0
       0        0        0

8.198409e+04 6.437075e+04        0
6.437075e+04 -3.261346e+04        0
       0        0        0

5.668528e+03 7.002278e+04        0
7.002278e+04 -3.252889e+04        0
       0        0        0

-7.072361e+04 7.001932e+04        0
7.001932e+04 -3.252887e+04        0
       0        0        0

-1.471924e+05 6.436120e+04        0
6.436120e+04 -3.261274e+04        0
       0        0        0

-2.237376e+05 5.304928e+04        0
5.304928e+04 -3.277970e+04        0
       0        0        0

-3.003586e+05 3.608397e+04        0
3.608397e+04 -3.302893e+04        0
       0        0        0

-3.770554e+05 1.346506e+04        0
1.346506e+04 -3.335895e+04        0
       0        0        0

2.837910e+05 1.347216e+04        0
1.347216e+04 -3.459729e+04        0
       0        0        0

2.133737e+05 3.609853e+04        0
3.609853e+04 -3.424839e+04        0
       0        0        0

1.428777e+05 5.306526e+04        0
5.306526e+04 -3.398521e+04        0
       0        0        0

7.230147e+04 6.437501e+04        0
6.437501e+04 -3.380978e+04        0
       0        0        0

1.645197e+03 7.002834e+04        0
7.002834e+04 -3.372337e+04        0
       0        0        0

-6.909155e+04 7.002513e+04        0
7.002513e+04 -3.372527e+04        0
       0        0        0

-1.399094e+05 6.436616e+04        0
6.436616e+04 -3.381345e+04        0
       0        0        0

-2.108080e+05 5.305312e+04        0
5.305312e+04 -3.398640e+04        0
       0        0        0

-2.817856e+05 3.608700e+04        0
3.608700e+04 -3.424387e+04        0
       0        0        0

-3.528415e+05 1.346669e+04        0
1.346669e+04 -3.458556e+04        0
       0        0        0

2.571773e+05 1.347284e+04        0
1.347284e+04 -3.574732e+04        0
       0        0        0

1.924340e+05 3.609883e+04        0
3.609883e+04 -3.538463e+04        0
       0        0        0

1.276039e+05 5.306691e+04        0
5.306691e+04 -3.510996e+04        0
       0        0        0

6.268956e+04 6.438047e+04        0
6.438047e+04 -3.492866e+04        0
       0        0        0

-2.306509e+03 7.003727e+04        0
7.003727e+04 -3.484324e+04        0
       0        0        0

-6.738561e+04 7.003432e+04        0
7.003432e+04 -3.485082e+04        0
       0        0        0

-1.325509e+05 6.437233e+04        0
6.437233e+04 -3.494563e+04        0
       0        0        0

-1.978029e+05 5.305574e+04        0
5.305574e+04 -3.512400e+04        0
       0        0        0

-2.631375e+05 3.608822e+04        0
3.608822e+04 -3.538690e+04        0
       0        0        0

-3.285500e+05 1.346781e+04        0
1.346781e+04 -3.573744e+04        0
       0        0        0

2.306454e+05 1.347122e+04        0
1.347122e+04 -3.681622e+04        0
       0        0        0

1.715738e+05 3.609342e+04        0
3.609342e+04 -3.643607e+04        0
       0        0        0

1.124036e+05 5.306520e+04        0
5.306520e+04 -3.614584e+04        0
       0        0        0

5.314844e+04 6.438931e+04        0
6.438931e+04 -3.595929e+04        0
       0        0        0

-6.184090e+03 7.005521e+04        0
7.005521e+04 -3.588134e+04        0
       0        0        0

-6.559917e+04 7.005252e+04        0
7.005252e+04 -3.590354e+04        0
       0        0        0

-1.251079e+05 6.438188e+04        0
6.438188e+04 -3.601101e+04        0
       0        0        0

-1.847147e+05 5.305500e+04        0
5.305500e+04 -3.619441e+04        0
       0        0        0

-2.444102e+05 3.608373e+04        0
3.608373e+04 -3.645709e+04        0
       0        0        0

-3.041789e+05 1.346663e+04        0
1.346663e+04 -3.681067e+04        0
       0        0        0

2.042076e+05 1.346265e+04        0
1.346265e+04 -3.779791e+04        0
       0        0        0

1.507980e+05 3.607324e+04        0
3.607324e+04 -3.739057e+04        0
       0        0        0

9.727229e+04 5.305573e+04        0
5.305573e+04 -3.707527e+04        0
       0        0        0

4.367109e+04 6.440686e+04        0
6.440686e+04 -3.688479e+04        0
       0        0        0

-9.988327e+03 7.009497e+04        0
7.009497e+04 -3.682829e+04        0
       0        0        0

-6.372305e+04 7.009253e+04        0
7.009253e+04 -3.688441e+04        0
       0        0        0

-1.175652e+05 6.440013e+04        0
6.440013e+04 -3.701813e+04        0
       0        0        0

-1.715307e+05 5.304650e+04        0
5.304650e+04 -3.720698e+04        0
       0        0        0

-2.256004e+05 3.606448e+04        0
3.606448e+04 -3.745825e+04        0
       0        0        0

-2.797317e+05 1.345849e+04        0
1.345849e+04 -3.780270e+04        0
       0        0        0

1.778879e+05 1.343630e+04        0
1.343630e+04 -3.868483e+04        0
       0        0        0

1.301103e+05 3.601911e+04        0
3.601911e+04 -3.822878e+04        0
       0        0        0

8.219278e+04 5.303027e+04        0
5.303027e+04 -3.786922e+04        0
       0        0        0

3.423631e+04 6.444490e+04        0
6.444490e+04 -3.767819e+04        0
       0        0        0

-1.372621e+04 7.018298e+04        0
7.018298e+04 -3.767091e+04        0
       0        0        0

-6.174253e+04 7.018079e+04        0
7.018079e+04 -3.779888e+04        0
       0        0        0

-1.098940e+05 6.443888e+04        0
6.443888e+04 -3.798650e+04        0
       0        0        0

-1.582264e+05 5.302202e+04        0
5.302202e+04 -3.818352e+04        0
       0        0        0

-2.067044e+05 3.601127e+04        0
3.601127e+04 -3.840250e+04        0
       0        0        0

-2.552247e+05 1.343259e+04        0
1.343259e+04 -3.871328e+04        0
       0        0        0

1.517349e+05 1.336926e+04        0
1.336926e+04 -3.946680e+04        0
       0        0        0

1.095096e+05 3.589409e+04        0
3.589409e+04 -3.891993e+04        0
       0        0        0

6.712237e+04 5.297552e+04        0
5.297552e+04 -3.848241e+04        0
       0        0        0

2.479646e+04 6.452728e+04        0
6.452728e+04 -3.829946e+04        0
       0        0        0

-1.741560e+04 7.036858e+04        0
7.036858e+04 -3.839127e+04        0
       0        0        0

-5.963242e+04 7.036664e+04        0
7.036664e+04 -3.865756e+04        0
       0        0        0

-1.020399e+05 6.452196e+04        0
6.452196e+04 -3.894945e+04        0
       0        0        0

-1.447534e+05 5.296823e+04        0
5.296823e+04 -3.916344e+04        0
       0        0        0

-1.877156e+05 3.588719e+04        0
3.588719e+04 -3.931504e+04        0
       0        0        0

-2.307001e+05 1.336599e+04        0
1.336599e+04 -3.954613e+04        0
       0        0        0

1.258445e+05 1.321700e+04        0
1.321700e+04 -4.013027e+04        0
       0        0        0

8.898145e+04 3.563510e+04        0
3.563510e+04 -3.941993e+04        0
       0        0        0

5.197160e+04 5.287498e+04        0
5.287498e+04 -3.885613e+04        0
       0        0        0

1.526092e+04 6.469759e+04        0
6.469759e+04 -3.870191e+04        0
       0        0        0

-2.109079e+04 7.073223e+04        0
7.073223e+04 -3.896996e+04        0
       0        0        0

-5.735079e+04 7.073055e+04        0
7.073055e+04 -3.947222e+04        0
       0        0        0

-9.390627e+04 6.469297e+04        0
6.469297e+04 -3.994749e+04        0
       0        0        0

-1.310181e+05 5.286868e+04        0
5.286868e+04 -4.020144e+04        0
       0        0        0

-1.686169e+05 3.562916e+04        0
3.562916e+04 -4.023731e+04        0
       0        0        0

-2.062499e+05 1.321420e+04        0
1.321420e+04 -4.031110e+04        0
       0        0        0

1.003917e+05 1.290180e+04        0
1.290180e+04 -4.065924e+04        0
       0        0        0

6.847596e+04 3.515366e+04        0
3.515366e+04 -3.968370e+04        0
       0        0        0

3.657632e+04 5.272299e+04        0
5.272299e+04 -3.895126e+04        0
       0        0        0

5.483747e+03 6.502499e+04        0
6.502499e+04 -3.887266e+04        0
       0        0        0

-2.480376e+04 7.137668e+04        0
7.137668e+04 -3.940337e+04        0
       0        0        0

-5.483630e+04 7.137525e+04        0
7.137525e+04 -4.023710e+04        0
       0        0        0

-8.534069e+04 6.502108e+04        0
6.502108e+04 -4.098709e+04        0
       0        0        0

-1.168549e+05 5.271768e+04        0
5.271768e+04 -4.133509e+04        0
       0        0        0

-1.493612e+05 3.514869e+04        0
3.514869e+04 -4.121713e+04        0
       0        0        0

-1.820516e+05 1.289947e+04        0
1.289947e+04 -4.102670e+04        0
       0        0        0

7.565749e+04 1.230839e+04        0
1.230839e+04 -4.105071e+04        0
       0        0        0

4.785997e+04 3.437896e+04        0
3.437896e+04 -3.972272e+04        0
       0        0        0

2.068067e+04 5.257148e+04        0
5.257148e+04 -3.887702e+04        0
       0        0        0

-4.709438e+03 6.559008e+04        0
6.559008e+04 -3.896095e+04        0
       0        0        0

-2.860580e+04 7.235539e+04        0
7.235539e+04 -3.975783e+04        0
       0        0        0

-5.202348e+04 7.235424e+04        0
7.235424e+04 -4.087169e+04        0
       0        0        0

-7.616004e+04 6.558692e+04        0
6.558692e+04 -4.191026e+04        0
       0        0        0

-1.020092e+05 5.256719e+04        0
5.256719e+04 -4.245648e+04        0
       0        0        0

-1.298278e+05 3.437497e+04        0
3.437497e+04 -4.225551e+04        0
       0        0        0

-1.584033e+05 1.230655e+04        0
1.230655e+04 -4.171296e+04        0
       0        0        0

5.199449e+04 1.132878e+04        0
1.132878e+04 -4.134449e+04        0
       0        0        0

2.681825e+04 3.343809e+04        0
3.343809e+04 -3.984511e+04        0
       0        0        0

4.012035e+03 5.263224e+04        0
5.263224e+04 -3.924890e+04        0
       0        0        0

-1.537403e+04 6.639350e+04        0
6.639350e+04 -3.960254e+04        0
       0        0        0

-3.247141e+04 7.343681e+04        0
7.343681e+04 -4.028726e+04        0
       0        0        0

-4.891356e+04 7.343599e+04        0
7.343599e+04 -4.109782e+04        0
       0        0        0

-6.629308e+04 6.639121e+04        0
6.639121e+04 -4.206545e+04        0
       0        0        0

-8.621072e+04 5.262905e+04        0
5.262905e+04 -4.295248e+04        0
       0        0        0

-1.097301e+05 3.343508e+04        0
3.343508e+04 -4.307284e+04        0
       0        0        0

-1.357066e+05 1.132743e+04        0
1.132743e+04 -4.237915e+04        0
       0        0        0

2.949377e+04 1.014438e+04        0
1.014438e+04 -4.198775e+04        0
       0        0        0

4.800061e+03 3.317148e+04        0
3.317148e+04 -4.132501e+04        0
       0        0        0

-1.335250e+04 5.339331e+04        0
5.339331e+04 -4.218643e+04        0
       0        0        0

-2.601561e+04 6.696899e+04        0
6.696899e+04 -4.246756e+04        0
       0        0        0

-3.614733e+04 7.357717e+04        0
7.357717e+04 -4.156827e+04        0
       0        0        0

-4.571747e+04 7.357678e+04        0
7.357678e+04 -4.029657e+04        0
       0        0        0

-5.620194e+04 6.696780e+04        0
6.696780e+04 -3.975030e+04        0
       0        0        0

-6.953104e+04 5.339141e+04        0
5.339141e+04 -4.069817e+04        0
       0        0        0

-8.856444e+04 3.316947e+04        0
3.316947e+04 -4.244226e+04        0
       0        0        0

-1.141696e+05 1.014346e+04        0
1.014346e+04 -4.269491e+04        0
       0        0        0

6.817643e+03 1.056097e+04        0
1.056097e+04 -4.406671e+04        0
       0        0        0

-1.865694e+04 3.638801e+04        0
3.638801e+04 -4.971147e+04        0
       0        0        0

-2.956196e+04 5.482524e+04        0
5.482524e+04 -5.293997e+04        0
       0        0        0

-3.502570e+04 6.534650e+04        0
6.534650e+04 -5.050259e+04        0
       0        0        0

-3.907369e+04 7.016103e+04        0
7.016103e+04 -4.451564e+04        0
       0        0        0

-4.292559e+04 7.016118e+04        0
7.016118e+04 -3.748363e+04        0
       0        0        0

-4.743134e+04 6.534675e+04        0
6.534675e+04 -3.195439e+04        0
       0        0        0

-5.378268e+04 5.482517e+04        0
5.482517e+04 -3.040469e+04        0
       0        0        0

-6.591085e+04 3.638724e+04        0
3.638724e+04 -3.485700e+04        0
       0        0        0

-9.267947e+04 1.056033e+04        0
1.056033e+04 -4.179849e+04        0
       0        0        0

-2.349567e+04 2.405904e+04        0
2.405904e+04 -6.257715e+04        0
       0        0        0

-3.816346e+04 4.505627e+04        0
4.505627e+04 -8.088460e+04        0
       0        0        0

-3.951146e+04 5.292732e+04        0
5.292732e+04 -7.905716e+04        0
       0        0        0

-4.010635e+04 5.678778e+04        0
5.678778e+04 -6.706904e+04        0
       0        0        0

-4.052125e+04 5.847751e+04        0
5.847751e+04 -5.003767e+04        0
       0        0        0

-4.116533e+04 5.847818e+04        0
5.847818e+04 -3.164880e+04        0
       0        0        0

-4.216656e+04 5.678960e+04        0
5.678960e+04 -1.520295e+04        0
       0        0        0

-4.394959e+04 5.292971e+04        0
5.292971e+04 -4.401945e+03        0
       0        0        0

-4.709637e+04 4.505825e+04        0
4.505825e+04 -4.373118e+03        0
       0        0        0

-6.398511e+04 2.405897e+04        0
2.405897e+04 -2.490370e+04        0
       0        0        0

POINT_DATA     451
VECTORS DISPLACEMENT_8.000000e-02 double
0.000000e+00    0.000000e+00    0.000000e+00
0.000000e+00    0.000000e+00    0.000000e+00
0.000000e+00    0.000000e+00    0.000000e+00
0.000000e+00    0.000000e+00    0.000000e+00
0.000000e+00    0.000000e+00    0.000000e+00
0.000000e+00    0.000000e+00    0.000000e+00
0.000000e+00    0.000000e+00    0.000000e+00
0.000000e+00    0.000000e+00    0.000000e+00
0.000000e+00    0.000000e+00    0.000000e+00
0.000000e+00    0.000000e+00    0.000000e+00
0.000000e+00    0.000000e+00    0.000000e+00
-9.053062e-07    -6.581655e-07    0.000000e+00
-5.736308e-07    -3.301305e-07    0.000000e+00
-4.092935e-07    -1.710612e-07    0.000000e+00
-2.642562e-07    -8.470362e-08    0.000000e+00
-1.302842e-07    -4.000954e-08    0.000000e+00
-2.291314e-20    -2.611313e-08    0.000000e+00
1.302842e-07    -4.000954e-08    0.000000e+00
2.642562e-07    -8.470362e-08    0.000000e+00
4.092935e-07    -1.710612e-07    0.000000e+00
5.736308e-07    -3.301305e-07    0.000000e+00
9.053062e-07    -6.581655e-07    0.000000e+00
-1.708121e-06    -1.094591e-06    0.000000e+00
-1.248569e-06    -7.920173e-07    0.000000e+00
-8.763709e-07    -5.563177e-07    0.000000e+00
-5.652958e-07    -4.105202e-07    0.000000e+00
-2.776424e-07    -3.310766e-07    0.000000e+00
-4.846865e-20    -3.058424e-07    0.000000e+00
2.776424e-07    -3.310766e-07    0.000000e+00
5.652958e-07    -4.105202e-07    0.000000e+00
8.763709e-07    -5.563177e-07    0.000000e+00
1.248569e-06    -7.920173e-07    0.000000e+00
1.708121e-06    -1.094591e-06    0.000000e+00
-2.484089e-06    -1.637264e-06    0.000000e+00
-1.898641e-06    -1.334027e-06    0.000000e+00
-1.366155e-06    -1.094930e-06    0.000000e+00
-8.844209e-07    -9.262795e-07    0.000000e+00
-4.351760e-07    -8.290727e-07    0.000000e+00
-7.648112e-20    -7.974081e-07    0.000000e+00
4.351760e-07    -8.290727e-07    0.000000e+00
8.844209e-07    -9.262795e-07    0.000000e+00
1.366155e-06    -1.094930e-06    0.000000e+00
1.898641e-06    -1.334027e-06    0.000000e+00
2.484089e-06    -1.637264e-06    0.000000e+00
-3.251467e-06    -2.306990e-06    0.000000e+00
-2.527285e-06    -2.010673e-06    0.000000e+00
-1.845350e-06    -1.775562e-06    0.000000e+00
-1.204940e-06    -1.605893e-06    0.000000e+00
-5.948193e-07    -1.504051e-06    0.000000e+00
-1.053960e-19    -1.470280e-06    0.000000e+00
5.948193e-07    -1.504051e-06    0.000000e+00
1.204940e-06    -1.605893e-06    0.000000e+00
1.845350e-06    -1.775562e-06    0.000000e+00
2.527285e-06    -2.010673e-06    0.000000e+00
3.251467e-06    -2.306990e-06    0.000000e+00
-4.005855e-06    -3.121798e-06    0.000000e+00
-3.137607e-06    -2.832395e-06    0.000000e+00
-2.309299e-06    -2.604383e-06    0.000000e+00
-1.516967e-06    -2.439178e-06    0.000000e+00
-7.514397e-07    -2.339167e-06    0.000000e+00
-1.353003e-19    -2.305689e-06    0.000000e+00
7.514397e-07    -2.339167e-06    0.000000e+00
1.516967e-06    -2.439178e-06    0.000000e+00
2.309299e-06    -2.604383e-06    0.000000e+00
3.137607e-06    -2.832395e-06    0.000000e+00
4.005855e-06    -3.121798e-06    0.000000e+00
-4.743805e-06    -4.083799e-06    0.000000e+00
-3.730829e-06    -3.802051e-06    0.000000e+00
-2.757964e-06    -3.581248e-06    0.000000e+00
-1.818367e-06    -3.421889e-06    0.000000e+00
-9.028582e-07    -3.325434e-06    0.000000e+00
-1.658729e-19    -3.293134e-06    0.000000e+00
9.028582e-07    -3.325434e-06    0.000000e+00
1.818367e-06    -3.421889e-06    0.000000e+00
2.757964e-06    -3.581248e-06    0.000000e+00
3.730829e-06    -3.802051e-06    0.000000e+00
4.743805e-06    -4.083799e-06    0.000000e+00
-5.462847e-06    -5.191360e-06    0.000000e+00
-4.307167e-06    -4.917583e-06    0.000000e+00
-3.192200e-06    -4.703806e-06    0.000000e+00
-2.109293e-06    -4.550144e-06    0.000000e+00
-1.048840e-06    -4.457403e-06    0.000000e+00
-1.947382e-19    -4.426382e-06    0.000000e+00
1.048840e-06    -4.457403e-06    0.000000e+00
2.109293e-06    -4.550144e-06    0.000000e+00
3.192200e-06    -4.703806e-06    0.000000e+00
4.307167e-06    -4.917583e-06    0.000000e+00
5.462847e-06    -5.191360e-06    0.000000e+00
-6.161616e-06    -6.440979e-06    0.000000e+00
-4.866549e-06    -6.175359e-06    0.000000e+00
-3.612686e-06    -5.968377e-06    0.000000e+00
-2.390395e-06    -5.820034e-06    0.000000e+00
-1.189694e-06    -5.730726e-06    0.000000e+00
-2.230079e-19    -5.700895e-06    0.000000e+00
1.189694e-06    -5.730726e-06    0.000000e+00
2.390395e-06    -5.820034e-06    0.000000e+00
3.612686e-06    -5.968377e-06    0.000000e+00
4.866549e-06    -6.175359e-06    0.000000e+00
6.161616e-06    -6.440979e-06    0.000000e+00
-6.839409e-06    -7.828538e-06    0.000000e+00
-5.408870e-06    -7.571162e-06    0.000000e+00
-4.019842e-06    -7.370817e-06    0.000000e+00
-2.662211e-06    -7.227479e-06    0.000000e+00
-1.325759e-06    -7.141326e-06    0.000000e+00
-2.517011e-19    -7.112577e-06    0.000000e+00
1.325759e-06    -7.141326e-06    0.000000e+00
2.662211e-06    -7.227479e-06    0.000000e+00
4.019842e-06    -7.370817e-06    0.000000e+00
5.408870e-06    -7.571162e-06    0.000000e+00
6.839409e-06    -7.828538e-06    0.000000e+00
-7.495895e-06    -9.349718e-06    0.000000e+00
-5.934055e-06    -9.100624e-06    0.000000e+00
-4.413894e-06    -8.906823e-06    0.000000e+00
-2.925081e-06    -8.768294e-06    0.000000e+00
-1.457267e-06    -8.685108e-06    0.000000e+00
-2.807650e-19    -8.657365e-06    0.000000e+00
1.457267e-06    -8.685108e-06    0.000000e+00
2.925081e-06    -8.768294e-06    0.000000e+00
4.413894e-06    -8.906823e-06    0.000000e+00
5.934055e-06    -9.100624e-06    0.000000e+00
7.495895e-06    -9.349718e-06    0.000000e+00
-8.130930e-06    -1.100016e-05    0.000000e+00
-6.442063e-06    -1.075936e-05    0.000000e+00
-4.794954e-06    -1.057206e-05    0.000000e+00
-3.179187e-06    -1.043823e-05    0.000000e+00
-1.584352e-06    -1.035791e-05    0.000000e+00
-3.041378e-19    -1.033113e-05    0.000000e+00
1.584352e-06    -1.035791e-05    0.000000e+00
3.179187e-06    -1.043823e-05    0.000000e+00
4.794954e-06    -1.057206e-05    0.000000e+00
6.442063e-06    -1.075936e-05    0.000000e+00
8.130930e-06    -1.100016e-05    0.000000e+00
-8.744461e-06    -1.277552e-05    0.000000e+00
-6.932869e-06    -1.254302e-05    0.000000e+00
-5.163072e-06    -1.236219e-05    0.000000e+00
-3.424622e-06    -1.223301e-05    0.000000e+00
-1.707081e-06    -1.215549e-05    0.000000e+00
-3.307134e-19    -1.212965e-05    0.000000e+00
1.707081e-06    -1.215549e-05    0.000000e+00
3.424622e-06    -1.223301e-05    0.000000e+00
5.163072e-06    -1.236219e-05    0.000000e+00
6.932869e-06    -1.254302e-05    0.000000e+00
8.744461e-06    -1.277552e-05    0.000000e+00
-9.336469e-06    -1.467145e-05    0.000000e+00
-7.406463e-06    -1.444726e-05    0.000000e+00
-5.518267e-06    -1.427289e-05    0.000000e+00
-3.661424e-06    -1.414834e-05    0.000000e+00
-1.825486e-06    -1.407360e-05    0.000000e+00
-3.624772e-19    -1.404869e-05    0.000000e+00
1.825486e-06    -1.407360e-05    0.000000e+00
3.661424e-06    -1.414834e-05    0.000000e+00
5.518267e-06    -1.427289e-05    0.000000e+00
7.406463e-06    -1.444726e-05    0.000000e+00
9.336469e-06    -1.467145e-05    0.000000e+00
-9.906950e-06    -1.668365e-05    0.000000e+00
-7.862840e-06    -1.646776e-05    0.000000e+00
-5.860547e-06    -1.629985e-05    0.000000e+00
-3.889611e-06    -1.617991e-05    0.000000e+00
-1.939579e-06    -1.610795e-05    0.000000e+00
-3.803178e-19    -1.608396e-05    0.000000e+00
1.939579e-06    -1.610795e-05    0.000000e+00
3.889611e-06    -1.617991e-05    0.000000e+00
5.860547e-06    -1.629985e-05    0.000000e+00
7.862840e-06    -1.646776e-05    0.000000e+00
9.906950e-06    -1.668365e-05    0.000000e+00
-1.045590e-05    -1.880780e-05    0.000000e+00
-8.302000e-06    -1.860021e-05    0.000000e+00
-6.189913e-06    -1.843876e-05    0.000000e+00
-4.109188e-06    -1.832343e-05    0.000000e+00
-2.049367e-06    -1.825424e-05    0.000000e+00
-3.981055e-19    -1.823117e-05    0.000000e+00
2.049367e-06    -1.825424e-05    0.000000e+00
4.109188e-06    -1.832343e-05    0.000000e+00
6.189913e-06    -1.843876e-05    0.000000e+00
8.302000e-06    -1.860021e-05    0.000000e+00
1.045590e-05    -1.880780e-05    0.000000e+00
-1.098333e-05    -2.103958e-05    0.000000e+00
-8.723941e-06    -2.084030e-05    0.000000e+00
-6.506367e-06    -2.068530e-05    0.000000e+00
-4.320155e-06    -2.057459e-05    0.000000e+00
-2.154851e-06    -2.050816e-05    0.000000e+00
-4.100698e-19    -2.048602e-05    0.000000e+00
2.154851e-06    -2.050816e-05    0.000000e+00
4.320155e-06    -2.057459e-05    0.000000e+00
6.506367e-06    -2.068530e-05    0.000000e+00
8.723941e-06    -2.084030e-05    0.000000e+00
1.098333e-05    -2.103958e-05    0.000000e+00
-1.148924e-05    -2.337470e-05    0.000000e+00
-9.128662e-06    -2.318372e-05    0.000000e+00
-6.809907e-06    -2.303518e-05    0.000000e+00
-4.522515e-06    -2.292908e-05    0.000000e+00
-2.256030e-06    -2.286542e-05    0.000000e+00
-4.095404e-19    -2.284420e-05    0.000000e+00
2.256030e-06    -2.286542e-05    0.000000e+00
4.522515e-06    -2.292908e-05    0.000000e+00
6.809907e-06    -2.303518e-05    0.000000e+00
9.128662e-06    -2.318372e-05    0.000000e+00
1.148924e-05    -2.337470e-05    0.000000e+00
-1.197362e-05    -2.580885e-05    0.000000e+00
-9.516165e-06    -2.562617e-05    0.000000e+00
-7.100533e-06    -2.548409e-05    0.000000e+00
-4.716265e-06    -2.538260e-05    0.000000e+00
-2.352905e-06    -2.532171e-05    0.000000e+00
-4.198107e-19    -2.530141e-05    0.000000e+00
2.352905e-06    -2.532171e-05    0.000000e+00
4.716265e-06    -2.538260e-05    0.000000e+00
7.100533e-06    -2.548409e-05    0.000000e+00
9.516165e-06    -2.562617e-05    0.000000e+00
1.197362e-05    -2.580885e-05    0.000000e+00
-1.243647e-05    -2.833773e-05    0.000000e+00
-9.886449e-06    -2.816335e-05    0.000000e+00
-7.378245e-06    -2.802772e-05    0.000000e+00
-4.901406e-06    -2.793085e-05    0.000000e+00
-2.445476e-06    -2.787272e-05    0.000000e+00
-4.396101e-19    -2.785335e-05    0.000000e+00
2.445476e-06    -2.787272e-05    0.000000e+00
4.901406e-06    -2.793085e-05    0.000000e+00
7.378245e-06    -2.802772e-05    0.000000e+00
9.886449e-06    -2.816335e-05    0.000000e+00
1.243647e-05    -2.833773e-05    0.000000e+00
-1.287780e-05    -3.095702e-05    0.000000e+00
-1.023951e-05    -3.079094e-05    0.000000e+00
-7.643043e-06    -3.066177e-05    0.000000e+00
-5.077937e-06    -3.056951e-05    0.000000e+00
-2.533741e-06    -3.051415e-05    0.000000e+00
-4.724326e-19    -3.049570e-05    0.000000e+00
2.533741e-06    -3.051415e-05    0.000000e+00
5.077937e-06    -3.056951e-05    0.000000e+00
7.643043e-06    -3.066177e-05    0.000000e+00
1.023951e-05    -3.079094e-05    0.000000e+00
1.287780e-05    -3.095702e-05    0.000000e+00
-1.329761e-05    -3.366243e-05    0.000000e+00
-1.057536e-05    -3.350466e-05    0.000000e+00
-7.894926e-06    -3.338194e-05    0.000000e+00
-5.245859e-06    -3.329429e-05    0.000000e+00
-2.617702e-06    -3.324170e-05    0.000000e+00
-5.212429e-19    -3.322417e-05    0.000000e+00
2.617702e-06    -3.324170e-05    0.000000e+00
5.245859e-06    -3.329429e-05    0.000000e+00
7.894926e-06    -3.338194e-05    0.000000e+00
1.057536e-05    -3.350466e-05    0.000000e+00
1.329761e-05    -3.366243e-05    0.000000e+00
-1.369589e-05    -3.644965e-05    0.000000e+00
-1.089398e-05    -3.630018e-05    0.000000e+00
-8.133894e-06    -3.618392e-05    0.000000e+00
-5.405171e-06    -3.610088e-05    0.000000e+00
-2.697358e-06    -3.605106e-05    0.000000e+00
-5.561830e-19    -3.603445e-05    0.000000e+00
2.697358e-06    -3.605106e-05    0.000000e+00
5.405171e-06    -3.610088e-05    0.000000e+00
8.133894e-06    -3.618392e-05    0.000000e+00
1.089398e-05    -3.630018e-05    0.000000e+00
1.369589e-05    -3.644965e-05    0.000000e+00
-1.407265e-05    -3.931437e-05    0.000000e+00
-1.119539e-05    -3.917320e-05    0.000000e+00
-8.359947e-06    -3.906340e-05    0.000000e+00
-5.555873e-06    -3.898498e-05    0.000000e+00
-2.772709e-06    -3.893792e-05    0.000000e+00
-5.840292e-19    -3.892224e-05    0.000000e+00
2.772709e-06    -3.893792e-05    0.000000e+00
5.555873e-06    -3.898498e-05    0.000000e+00
8.359947e-06    -3.906340e-05    0.000000e+00
1.119539e-05    -3.917320e-05    0.000000e+00
1.407265e-05    -3.931437e-05    0.000000e+00
-1.442788e-05    -4.225229e-05    0.000000e+00
-1.147957e-05    -4.211943e-05    0.000000e+00
-8.573085e-06    -4.201609e-05    0.000000e+00
-5.697965e-06    -4.194227e-05    0.000000e+00
-2.843755e-06    -4.189798e-05    0.000000e+00
-6.166400e-19    -4.188322e-05    0.000000e+00
2.843755e-06    -4.189798e-05    0.000000e+00
5.697965e-06    -4.194227e-05    0.000000e+00
8.573085e-06    -4.201609e-05    0.000000e+00
1.147957e-05    -4.211943e-05    0.000000e+00
1.442788e-05    -4.225229e-05    0.000000e+00
-1.476159e-05    -4.525911e-05    0.000000e+00
-1.174654e-05    -4.513455e-05    0.000000e+00
-8.773308e-06    -4.503767e-05    0.000000e+00
-5.831447e-06    -4.496846e-05    0.000000e+00
-2.910496e-06    -4.492694e-05    0.000000e+00
-6.297690e-19    -4.491310e-05    0.000000e+00
2.910496e-06    -4.492694e-05    0.000000e+00
5.831447e-06    -4.496846e-05    0.000000e+00
8.773308e-06    -4.503767e-05    0.000000e+00
1.174654e-05    -4.513455e-05    0.000000e+00
1.476159e-05    -4.525911e-05    0.000000e+00
-1.507376e-05    -4.833052e-05    0.000000e+00
-1.199628e-05    -4.821426e-05    0.000000e+00
-8.960616e-06    -4.812384e-05    0.000000e+00
-5.956319e-06    -4.805925e-05    0.000000e+00
-2.972932e-06    -4.802049e-05    0.000000e+00
-6.407804e-19    -4.800757e-05    0.000000e+00
2.972932e-06    -4.802049e-05    0.000000e+00
5.956319e-06    -4.805925e-05    0.000000e+00
8.960616e-06    -4.812384e-05    0.000000e+00
1.199628e-05    -4.821426e-05    0.000000e+00
1.507376e-05    -4.833052e-05    0.000000e+00
-1.536442e-05    -5.146221e-05    0.000000e+00
-1.222880e-05    -5.135426e-05    0.000000e+00
-9.135009e-06    -5.127029e-05    0.000000e+00
-6.072582e-06    -5.121031e-05    0.000000e+00
-3.031064e-06    -5.117433e-05    0.000000e+00
-6.515801e-19    -5.116233e-05    0.000000e+00
3.031064e-06    -5.117433e-05    0.000000e+00
6.072582e-06    -5.121031e-05    0.000000e+00
9.135009e-06    -5.127029e-05    0.000000e+00
1.222880e-05    -5.135426e-05    0.000000e+00
1.536442e-05    -5.146221e-05    0.000000e+00
-1.563354e-05    -5.464988e-05    0.000000e+00
-1.244410e-05    -5.455023e-05    0.000000e+00
-9.296486e-06    -5.447272e-05    0.000000e+00
-6.180233e-06    -5.441736e-05    0.000000e+00
-3.084889e-06    -5.438414e-05    0.000000e+00
-6.395099e-19    -5.437307e-05    0.000000e+00
3.084889e-06    -5.438414e-05    0.000000e+00
6.180233e-06    -5.441736e-05    0.000000e+00
9.296486e-06    -5.447272e-05    0.000000e+00
1.244410e-05    -5.455023e-05    0.000000e+00
1.563354e-05    -5.464988e-05    0.000000e+00
-1.588113e-05    -5.788922e-05    0.000000e+00
-1.264218e-05    -5.779787e-05    0.000000e+00
-9.445047e-06    -5.772682e-05    0.000000e+00
-6.279271e-06    -5.767608e-05    0.000000e+00
-3.134406e-06    -5.764564e-05    0.000000e+00
-6.350630e-19    -5.763550e-05    0.000000e+00
3.134406e-06    -5.764564e-05    0.000000e+00
6.279271e-06    -5.767608e-05    0.000000e+00
9.445047e-06    -5.772682e-05    0.000000e+00
1.264218e-05    -5.779787e-05    0.000000e+00
1.588113e-05    -5.788922e-05    0.000000e+00
-1.610719e-05    -6.117591e-05    0.000000e+00
-1.282304e-05    -6.109286e-05    0.000000e+00
-9.580687e-06    -6.102828e-05    0.000000e+00
-6.369686e-06    -6.098217e-05    0.000000e+00
-3.179607e-06    -6.095453e-05    0.000000e+00
-6.617445e-19    -6.094531e-05    0.000000e+00
3.179607e-06    -6.095453e-05    0.000000e+00
6.369686e-06    -6.098217e-05    0.000000e+00
9.580687e-06    -6.102828e-05    0.000000e+00
1.282304e-05    -6.109286e-05    0.000000e+00
1.610719e-05    -6.117591e-05    0.000000e+00
-1.631174e-05    -6.450562e-05    0.000000e+00
-1.298669e-05    -6.443088e-05    0.000000e+00
-9.703396e-06    -6.437278e-05    0.000000e+00
-6.451455e-06    -6.433134e-05    0.000000e+00
-3.220474e-06    -6.430651e-05    0.000000e+00
-6.856732e-19    -6.429825e-05    0.000000e+00
3.220474e-06    -6.430651e-05    0.000000e+00
6.451455e-06    -6.433134e-05    0.000000e+00
9.703396e-06    -6.437278e-05    0.000000e+00
1.298669e-05    -6.443088e-05    0.000000e+00
1.631174e-05    -6.450562e-05    0.000000e+00
-1.649479e-05    -6.787403e-05    0.000000e+00
-1.313314e-05    -6.780758e-05    0.000000e+00
-9.813143e-06    -6.775599e-05    0.000000e+00
-6.524523e-06    -6.771928e-05    0.000000e+00
-3.256965e-06    -6.769735e-05    0.000000e+00
-7.434832e-19    -6.769005e-05    0.000000e+00
3.256965e-06    -6.769735e-05    0.000000e+00
6.524523e-06    -6.771928e-05    0.000000e+00
9.813143e-06    -6.775599e-05    0.000000e+00
1.313314e-05    -6.780758e-05    0.000000e+00
1.649479e-05    -6.787403e-05    0.000000e+00
-1.665643e-05    -7.127679e-05    0.000000e+00
-1.326242e-05    -7.121861e-05    0.000000e+00
-9.909862e-06    -7.117359e-05    0.000000e+00
-6.588778e-06    -7.114174e-05    0.000000e+00
-3.288998e-06    -7.112281e-05    0.000000e+00
-8.040460e-19    -7.111654e-05    0.000000e+00
3.288998e-06    -7.112281e-05    0.000000e+00
6.588778e-06    -7.114174e-05    0.000000e+00
9.909862e-06    -7.117359e-05    0.000000e+00
1.326242e-05    -7.121861e-05    0.000000e+00
1.665643e-05    -7.127679e-05    0.000000e+00
-1.679685e-05    -7.470955e-05    0.000000e+00
-1.337457e-05    -7.465960e-05    0.000000e+00
-9.993414e-06    -7.462125e-05    0.000000e+00
-6.644002e-06    -7.459446e-05    0.000000e+00
-3.316421e-06    -7.457874e-05    0.000000e+00
-8.271277e-19    -7.457357e-05    0.000000e+00
3.316421e-06    -7.457874e-05    0.000000e+00
6.644002e-06    -7.459446e-05    0.000000e+00
9.993414e-06    -7.462125e-05    0.000000e+00
1.337457e-05    -7.465960e-05    0.000000e+00
1.679685e-05    -7.470955e-05    0.000000e+00
-1.691648e-05    -7.816808e-05    0.000000e+00
-1.346967e-05    -7.812624e-05    0.000000e+00
-1.006353e-05    -7.809473e-05    0.000000e+00
-6.689834e-06    -7.807331e-05    0.000000e+00
-3.338998e-06    -7.806102e-05    0.000000e+00
-8.584679e-19    -7.805703e-05    0.000000e+00
3.338998e-06    -7.806102e-05    0.000000e+00
6.689834e-06    -7.807331e-05    0.000000e+00
1.006353e-05    -7.809473e-05    0.000000e+00
1.346967e-05    -7.812624e-05    0.000000e+00
1.691648e-05    -7.816808e-05    0.000000e+00
-1.701619e-05    -8.164850e-05    0.000000e+00
-1.354779e-05    -8.161455e-05    0.000000e+00
-1.011975e-05    -8.159005e-05    0.000000e+00
-6.725777e-06    -8.157420e-05    0.000000e+00
-3.356451e-06    -8.156543e-05    0.000000e+00
-9.012431e-19    -8.156263e-05    0.000000e+00
3.356451e-06    -8.156543e-05    0.000000e+00
6.725777e-06    -8.157420e-05    0.000000e+00
1.011975e-05    -8.159005e-05    0.000000e+00
1.354779e-05    -8.161455e-05    0.000000e+00
1.701619e-05    -8.164850e-05    0.000000e+00
-1.709754e-05    -8.514791e-05    0.000000e+00
-1.360887e-05    -8.512146e-05    0.000000e+00
-1.016149e-05    -8.510389e-05    0.000000e+00
-6.751467e-06    -8.509315e-05    0.000000e+00
-3.368695e-06    -8.508719e-05    0.000000e+00
-8.597384e-19    -8.508524e-05    0.000000e+00
3.368695e-06    -8.508719e-05    0.000000e+00
6.751467e-06    -8.509315e-05    0.000000e+00
1.016149e-05    -8.510389e-05    0.000000e+00
1.360887e-05    -8.512146e-05    0.000000e+00
1.709754e-05    -8.514791e-05    0.000000e+00
-1.716299e-05    -8.866626e-05    0.000000e+00
-1.365245e-05    -8.864641e-05    0.000000e+00
-1.018856e-05    -8.863439e-05    0.000000e+00
-6.767623e-06    -8.862569e-05    0.000000e+00
-3.376391e-06    -8.861974e-05    0.000000e+00
-7.890112e-19    -8.861759e-05    0.000000e+00
3.376391e-06    -8.861974e-05    0.000000e+00
6.767623e-06    -8.862569e-05    0.000000e+00
1.018856e-05    -8.863439e-05    0.000000e+00
1.365245e-05    -8.864641e-05    0.000000e+00
1.716299e-05    -8.866626e-05    0.000000e+00
-1.721412e-05    -9.220990e-05    0.000000e+00
-1.367773e-05    -9.219559e-05    0.000000e+00
-1.020407e-05    -9.218091e-05    0.000000e+00
-6.777884e-06    -9.216457e-05    0.000000e+00
-3.381614e-06    -9.215237e-05    0.000000e+00
-7.843525e-19    -9.214791e-05    0.000000e+00
3.381614e-06    -9.215237e-05    0.000000e+00
6.777884e-06    -9.216457e-05    0.000000e+00
1.020407e-05    -9.218091e-05    0.000000e+00
1.367773e-05    -9.219559e-05    0.000000e+00
1.721412e-05    -9.220990e-05    0.000000e+00
-1.724118e-05    -9.581071e-05    0.000000e+00
-1.369374e-05    -9.578317e-05    0.000000e+00
-1.021979e-05    -9.573675e-05    0.000000e+00
-6.789874e-06    -9.569485e-05    0.000000e+00
-3.388098e-06    -9.566693e-05    0.000000e+00
-7.877406e-19    -9.565720e-05    0.000000e+00
3.388098e-06    -9.566693e-05    0.000000e+00
6.789874e-06    -9.569485e-05    0.000000e+00
1.021979e-05    -9.573675e-05    0.000000e+00
1.369374e-05    -9.578317e-05    0.000000e+00
1.724118e-05    -9.581071e-05    0.000000e+00

CELL_DATA      400
TENSORS Element_Stress8.000000e-02 double
1.443260e+06 2.022923e+05        0
2.022923e+05 3.299953e+05        0
       0        0        0

9.860571e+05 1.037383e+05        0
1.037383e+05 2.827120e+05        0
       0        0        0

6.859478e+05 3.409259e+04        0
3.409259e+04 2.180350e+05        0
       0        0        0

4.044112e+05 -2.848645e+03        0
-2.848645e+03 1.340152e+05        0
       0        0        0

1.339035e+05 -1.974392e+04        0
-1.974392e+04 4.516326e+04        0
       0        0        0

-1.338811e+05 -1.974007e+04        0
-1.974007e+04 -4.516832e+04        0
       0        0        0

-4.041120e+05 -2.849108e+03        0
-2.849108e+03 -1.339117e+05        0
       0        0        0

-6.850605e+05 3.404744e+04        0
3.404744e+04 -2.177025e+05        0
       0        0        0

-9.841791e+05 1.035568e+05        0
1.035568e+05 -2.819926e+05        0
       0        0        0

-1.439346e+06 2.017826e+05        0
2.017826e+05 -3.286421e+05        0
       0        0        0

1.301824e+06 3.297654e+04        0
3.297654e+04 3.267727e+03        0
       0        0        0

1.048456e+06 9.564653e+04        0
9.564653e+04 1.020275e+05        0
       0        0        0

7.202262e+05 7.849357e+04        0
7.849357e+04 1.043392e+05        0
       0        0        0

4.254278e+05 6.010001e+04        0
6.010001e+04 7.297932e+04        0
       0        0        0

1.403069e+05 5.011950e+04        0
5.011950e+04 2.552765e+04        0
       0        0        0

-1.409595e+05 5.010797e+04        0
5.010797e+04 -2.621397e+04        0
       0        0        0

-4.257634e+05 6.005886e+04        0
6.005886e+04 -7.355269e+04        0
       0        0        0

-7.198828e+05 7.840543e+04        0
7.840543e+04 -1.046654e+05        0
       0        0        0

-1.046868e+06 9.549717e+04        0
9.549717e+04 -1.018690e+05        0
       0        0        0

-1.298929e+06 3.292205e+04        0
3.292205e+04 -2.576928e+03        0
       0        0        0

1.256752e+06 1.221962e+04        0
1.221962e+04 5.352537e+03        0
       0        0        0

1.008408e+06 5.417076e+04        0
5.417076e+04 1.411037e+04        0
       0        0        0

7.254768e+05 8.052150e+04        0
8.052150e+04 3.383288e+04        0
       0        0        0

4.309123e+05 8.521290e+04        0
8.521290e+04 2.875029e+04        0
       0        0        0

1.423423e+05 8.516057e+04        0
8.516057e+04 1.036568e+04        0
       0        0        0

-1.444384e+05 8.514302e+04        0
8.514302e+04 -1.249853e+04        0
       0        0        0

-4.326739e+05 8.516061e+04        0
8.516061e+04 -3.076366e+04        0
       0        0        0

-7.265271e+05 8.044031e+04        0
8.044031e+04 -3.557862e+04        0
       0        0        0

-1.008392e+06 5.409853e+04        0
5.409853e+04 -1.542565e+04        0
       0        0        0

-1.255510e+06 1.219955e+04        0
1.219955e+04 -6.167692e+03        0
       0        0        0

1.226248e+06 1.131416e+04        0
1.131416e+04 -2.780719e+03        0
       0        0        0

9.730892e+05 4.398389e+04        0
4.398389e+04 -1.098842e+03        0
       0        0        0

7.034852e+05 7.329604e+04        0
7.329604e+04 2.828680e+03        0
       0        0        0

4.232965e+05 9.086422e+04        0
9.086422e+04 5.197273e+03        0
       0        0        0

1.396254e+05 9.781064e+04        0
9.781064e+04 1.097716e+03        0
       0        0        0

-1.438198e+05 9.779207e+04        0
9.779207e+04 -5.328746e+03        0
       0        0        0

-4.271601e+05 9.081284e+04        0
9.081284e+04 -9.306542e+03        0
       0        0        0

-7.066806e+05 7.322837e+04        0
7.322837e+04 -6.680638e+03        0
       0        0        0

-9.752938e+05 4.392843e+04        0
4.392843e+04 -2.348744e+03        0
       0        0        0

-1.227130e+06 1.129655e+04        0
1.129655e+04 -6.551313e+01        0
       0        0        0

1.197514e+06 1.357958e+04        0
1.357958e+04 -3.688760e+03        0
       0        0        0

9.406689e+05 4.319577e+04        0
4.319577e+04 -6.000514e+03        0
       0        0        0

6.781504e+05 7.060420e+04        0
7.060420e+04 -5.753539e+03        0
       0        0        0

4.082639e+05 9.010159e+04        0
9.010159e+04 -4.466225e+03        0
       0        0        0

1.342077e+05 9.978284e+04        0
9.978284e+04 -3.574014e+03        0
       0        0        0

-1.410530e+05 9.976503e+04        0
9.976503e+04 -3.305914e+03        0
       0        0        0

-4.147979e+05 9.005365e+04        0
9.005365e+04 -2.297779e+03        0
       0        0        0

-6.840606e+05 7.054222e+04        0
7.054222e+04 -7.692699e+02        0
       0        0        0

-9.456398e+05 4.314343e+04        0
4.314343e+04 -1.355073e+02        0
       0        0        0

-1.201189e+06 1.355884e+04        0
1.355884e+04 -1.865376e+03        0
       0        0        0

1.166433e+06 1.552942e+04        0
1.552942e+04 -5.118786e+03        0
       0        0        0

9.107582e+05 4.474891e+04        0
4.474891e+04 -7.143580e+03        0
       0        0        0

6.534009e+05 7.007440e+04        0
7.007440e+04 -8.193368e+03        0
       0        0        0

3.921258e+05 8.862012e+04        0
8.862012e+04 -7.540281e+03        0
       0        0        0

1.277184e+05 9.828924e+04        0
9.828924e+04 -5.956082e+03        0
       0        0        0

-1.376950e+05 9.827248e+04        0
9.827248e+04 -4.052831e+03        0
       0        0        0

-4.018167e+05 8.857491e+04        0
8.857491e+04 -2.364723e+03        0
       0        0        0

-6.625189e+05 7.001515e+04        0
7.001515e+04 -1.496307e+03        0
       0        0        0

-9.190070e+05 4.469629e+04        0
4.469629e+04 -2.201796e+03        0
       0        0        0

-1.173481e+06 1.550629e+04        0
1.550629e+04 -3.717547e+03        0
       0        0        0

1.133160e+06 1.676221e+04        0
1.676221e+04 -6.701253e+03        0
       0        0        0

8.817325e+05 4.625896e+04        0
4.625896e+04 -8.105402e+03        0
       0        0        0

6.300821e+05 7.027730e+04        0
7.027730e+04 -9.064074e+03        0
       0        0        0

3.765501e+05 8.748697e+04        0
8.748697e+04 -8.842847e+03        0
       0        0        0

1.212158e+05 9.647512e+04        0
9.647512e+04 -7.600290e+03        0
       0        0        0

-1.347539e+05 9.645925e+04        0
9.645925e+04 -5.967928e+03        0
       0        0        0

-3.898327e+05 8.744386e+04        0
8.744386e+04 -4.639217e+03        0
       0        0        0

-6.428513e+05 7.021973e+04        0
7.021973e+04 -4.240095e+03        0
       0        0        0

-8.937216e+05 4.620612e+04        0
4.620612e+04 -4.916533e+03        0
       0        0        0

-1.144080e+06 1.673790e+04        0
1.673790e+04 -5.912985e+03        0
       0        0        0

1.098360e+06 1.744228e+04        0
1.744228e+04 -8.616868e+03        0
       0        0        0

8.529663e+05 4.726188e+04        0
4.726188e+04 -9.438961e+03        0
       0        0        0

6.077538e+05 7.057017e+04        0
7.057017e+04 -1.008846e+04        0
       0        0        0

3.617545e+05 8.680779e+04        0
8.680779e+04 -1.003240e+04        0
       0        0        0

1.148581e+05 9.517665e+04        0
9.517665e+04 -9.282409e+03        0
       0        0        0

-1.323466e+05 9.516149e+04        0
9.516149e+04 -8.234072e+03        0
       0        0        0

-3.790204e+05 8.676635e+04        0
8.676635e+04 -7.419844e+03        0
       0        0        0

-6.245721e+05 7.051410e+04        0
7.051410e+04 -7.231356e+03        0
       0        0        0

-8.691056e+05 4.720945e+04        0
4.720945e+04 -7.672041e+03        0
       0        0        0

-1.113576e+06 1.741769e+04        0
1.741769e+04 -8.196852e+03        0
       0        0        0

1.062637e+06 1.778276e+04        0
1.778276e+04 -1.079076e+04        0
       0        0        0

8.241818e+05 4.782610e+04        0
4.782610e+04 -1.122542e+04        0
       0        0        0

5.859608e+05 7.078468e+04        0
7.078468e+04 -1.159496e+04        0
       0        0        0

3.474699e+05 8.644796e+04        0
8.644796e+04 -1.159488e+04        0
       0        0        0

1.085988e+05 9.441520e+04        0
9.441520e+04 -1.119538e+04        0
       0        0        0

-1.303863e+05 9.440063e+04        0
9.440063e+04 -1.061834e+04        0
       0        0        0

-3.690692e+05 8.640796e+04        0
8.640796e+04 -1.017882e+04        0
       0        0        0

-6.071815e+05 7.073015e+04        0
7.073015e+04 -1.009594e+04        0
       0        0        0

-8.448290e+05 4.777464e+04        0
4.777464e+04 -1.033450e+04        0
       0        0        0

-1.082507e+06 1.775844e+04        0
1.775844e+04 -1.058273e+04        0
       0        0        0

1.026381e+06 1.793886e+04        0
1.793886e+04 -1.317147e+04        0
       0        0        0

7.952901e+05 4.811046e+04        0
4.811046e+04 -1.336750e+04        0
       0        0        0

5.643862e+05 7.091084e+04        0
7.091084e+04 -1.354555e+04        0
       0        0        0

3.334314e+05 8.627460e+04        0
8.627460e+04 -1.354957e+04        0
       0        0        0

1.023509e+05 9.401975e+04        0
9.401975e+04 -1.335314e+04        0
       0        0        0

-1.287460e+05 9.400570e+04        0
9.400570e+04 -1.306639e+04        0
       0        0        0

-3.596728e+05 8.623593e+04        0
8.623593e+04 -1.285503e+04        0
       0        0        0

-5.903185e+05 7.085793e+04        0
7.085793e+04 -1.282713e+04        0
       0        0        0

-8.207542e+05 4.806031e+04        0
4.806031e+04 -1.295244e+04        0
       0        0        0

-1.051212e+06 1.791510e+04        0
1.791510e+04 -1.306977e+04        0
       0        0        0

9.898201e+05 1.800385e+04        0
1.800385e+04 -1.571194e+04        0
       0        0        0

7.662736e+05 4.824083e+04        0
4.824083e+04 -1.576391e+04        0
       0        0        0

5.428565e+05 7.097610e+04        0
7.097610e+04 -1.581988e+04        0
       0        0        0

3.194655e+05 8.619819e+04        0
8.619819e+04 -1.580813e+04        0
       0        0        0

9.605765e+04 9.383337e+04        0
9.383337e+04 -1.571187e+04        0
       0        0        0

-1.273281e+05 9.381980e+04        0
9.381980e+04 -1.558140e+04        0
       0        0        0

-3.506163e+05 8.616082e+04        0
8.616082e+04 -1.549525e+04        0
       0        0        0

-5.737666e+05 7.092486e+04        0
7.092486e+04 -1.550207e+04        0
       0        0        0

-7.968188e+05 4.819218e+04        0
4.819218e+04 -1.558194e+04        0
       0        0        0

-1.019872e+06 1.798078e+04        0
1.798078e+04 -1.565881e+04        0
       0        0        0

9.530763e+05 1.802764e+04        0
1.802764e+04 -1.837671e+04        0
       0        0        0

7.371428e+05 4.829483e+04        0
4.829483e+04 -1.833671e+04        0
       0        0        0

5.212918e+05 7.100651e+04        0
7.100651e+04 -1.831414e+04        0
       0        0        0

3.054828e+05 8.616775e+04        0
8.616775e+04 -1.827968e+04        0
       0        0        0

8.969315e+04 9.375353e+04        0
9.375353e+04 -1.822465e+04        0
       0        0        0

-1.260665e+05 9.374043e+04        0
9.374043e+04 -1.817001e+04        0
       0        0        0

-3.417697e+05 8.613166e+04        0
8.613166e+04 -1.814962e+04        0
       0        0        0

-5.574046e+05 7.095698e+04        0
7.095698e+04 -1.818297e+04        0
       0        0        0

-7.729907e+05 4.824778e+04        0
4.824778e+04 -1.825852e+04        0
       0        0        0

-9.885645e+05 1.800532e+04        0
1.800532e+04 -1.834285e+04        0
       0        0        0

9.162165e+05 1.803455e+04        0
1.803455e+04 -2.113783e+04        0
       0        0        0

7.079164e+05 4.831431e+04        0
4.831431e+04 -2.103246e+04        0
       0        0        0

4.996649e+05 7.101920e+04        0
7.101920e+04 -2.095532e+04        0
       0        0        0

2.914476e+05 8.615721e+04        0
8.615721e+04 -2.089663e+04        0
       0        0        0

8.325317e+04 9.372310e+04        0
9.372310e+04 -2.085273e+04        0
       0        0        0

-1.249176e+05 9.371047e+04        0
9.371047e+04 -2.083155e+04        0
       0        0        0

-3.330578e+05 8.612238e+04        0
8.612238e+04 -2.084608e+04        0
       0        0        0

-5.411653e+05 7.097139e+04        0
7.097139e+04 -2.090284e+04        0
       0        0        0

-7.492484e+05 4.826888e+04        0
4.826888e+04 -2.099538e+04        0
       0        0        0

-9.573176e+05 1.801300e+04        0
1.801300e+04 -2.110983e+04        0
       0        0        0

8.792791e+05 1.803539e+04        0
1.803539e+04 -2.397223e+04        0
       0        0        0

6.786151e+05 4.831968e+04        0
4.831968e+04 -2.381438e+04        0
       0        0        0

4.779748e+05 7.102370e+04        0
7.102370e+04 -2.369503e+04        0
       0        0        0

2.773535e+05 8.615440e+04        0
8.615440e+04 -2.361252e+04        0
       0        0        0

7.674553e+04 9.371351e+04        0
9.371351e+04 -2.356593e+04        0
       0        0        0

-1.238510e+05 9.370133e+04        0
9.370133e+04 -2.355795e+04        0
       0        0        0

-3.244357e+05 8.612084e+04        0
8.612084e+04 -2.359275e+04        0
       0        0        0

-5.250092e+05 7.097763e+04        0
7.097763e+04 -2.367160e+04        0
       0        0        0

-7.255741e+05 4.827590e+04        0
4.827590e+04 -2.379080e+04        0
       0        0        0

-9.261312e+05 1.801463e+04        0
1.801463e+04 -2.394455e+04        0
       0        0        0

8.422895e+05 1.803453e+04        0
1.803453e+04 -2.685969e+04        0
       0        0        0

6.492587e+05 4.832002e+04        0
4.832002e+04 -2.665562e+04        0
       0        0        0

4.562323e+05 7.102478e+04        0
7.102478e+04 -2.650025e+04        0
       0        0        0

2.632083e+05 8.615416e+04        0
8.615416e+04 -2.639492e+04        0
       0        0        0

7.018386e+04 9.371171e+04        0
9.371171e+04 -2.634004e+04        0
       0        0        0

-1.228433e+05 9.369999e+04        0
9.369999e+04 -2.633647e+04        0
       0        0        0

-3.158744e+05 8.612186e+04        0
8.612186e+04 -2.638504e+04        0
       0        0        0

-5.089101e+05 7.098045e+04        0
7.098045e+04 -2.648523e+04        0
       0        0        0

-7.019507e+05 4.827789e+04        0
4.827789e+04 -2.663464e+04        0
       0        0        0

-8.949937e+05 1.801455e+04        0
1.801455e+04 -2.683040e+04        0
       0        0        0

8.052675e+05 1.803349e+04        0
1.803349e+04 -2.978172e+04        0
       0        0        0

6.198661e+05 4.831897e+04        0
4.831897e+04 -2.953477e+04        0
       0        0        0

4.344527e+05 7.102464e+04        0
7.102464e+04 -2.934664e+04        0
       0        0        0

2.490260e+05 8.615455e+04        0
8.615455e+04 -2.921957e+04        0
       0        0        0

6.358409e+04 9.371234e+04        0
9.371234e+04 -2.915455e+04        0
       0        0        0

-1.218749e+05 9.370109e+04        0
9.370109e+04 -2.915197e+04        0
       0        0        0

-3.073520e+05 8.612351e+04        0
8.612351e+04 -2.921163e+04        0
       0        0        0

-4.928478e+05 7.098204e+04        0
7.098204e+04 -2.933249e+04        0
       0        0        0

-6.783613e+05 4.827849e+04        0
4.827849e+04 -2.951275e+04        0
       0        0        0

-8.638896e+05 1.801429e+04        0
1.801429e+04 -2.975040e+04        0
       0        0        0

7.682305e+05 1.803266e+04        0
1.803266e+04 -3.272098e+04        0
       0        0        0

5.904548e+05 4.831781e+04        0
4.831781e+04 -3.243330e+04        0
       0        0        0

4.126527e+05 7.102416e+04        0
7.102416e+04 -3.221439e+04        0
       0        0        0

2.348225e+05 8.615495e+04        0
8.615495e+04 -3.206661e+04        0
       0        0        0

5.696275e+04 9.371346e+04        0
9.371346e+04 -3.199120e+04        0
       0        0        0

-1.209279e+05 9.370266e+04        0
9.370266e+04 -3.198849e+04        0
       0        0        0

-2.988504e+05 8.612518e+04        0
8.612518e+04 -3.205810e+04        0
       0        0        0

-4.768047e+05 7.098330e+04        0
7.098330e+04 -3.219897e+04        0
       0        0        0

-6.547895e+05 4.827898e+04        0
4.827898e+04 -3.240948e+04        0
       0        0        0

-8.328020e+05 1.801424e+04        0
1.801424e+04 -3.268775e+04        0
       0        0        0

7.311948e+05 1.803206e+04        0
1.803206e+04 -3.566097e+04        0
       0        0        0

5.610417e+05 4.831686e+04        0
4.831686e+04 -3.533433e+04        0
       0        0        0

3.908487e+05 7.102367e+04        0
7.102367e+04 -3.508612e+04        0
       0        0        0

2.206140e+05 8.615526e+04        0
8.615526e+04 -3.491860e+04        0
       0        0        0

5.033614e+04 9.371451e+04        0
9.371451e+04 -3.483310e+04        0
       0        0        0

-1.199860e+05 9.370417e+04        0
9.370417e+04 -3.483004e+04        0
       0        0        0

-2.903530e+05 8.612676e+04        0
8.612676e+04 -3.490907e+04        0
       0        0        0

-4.607644e+05 7.098455e+04        0
7.098455e+04 -3.506919e+04        0
       0        0        0

-6.312190e+05 4.827969e+04        0
4.827969e+04 -3.530887e+04        0
       0        0        0

-8.017143e+05 1.801443e+04        0
1.801443e+04 -3.562613e+04        0
       0        0        0

6.941757e+05 1.803164e+04        0
1.803164e+04 -3.858594e+04        0
       0        0        0

5.316424e+05 4.831615e+04        0
4.831615e+04 -3.822201e+04        0
       0        0        0

3.690567e+05 7.102327e+04        0
7.102327e+04 -3.794580e+04        0
       0        0        0

2.064164e+05 8.615550e+04        0
8.615550e+04 -3.775949e+04        0
       0        0        0

4.372002e+04 9.371540e+04        0
9.371540e+04 -3.766439e+04        0
       0        0        0

-1.190333e+05 9.370553e+04        0
9.370553e+04 -3.766101e+04        0
       0        0        0

-2.818439e+05 8.612826e+04        0
8.612826e+04 -3.774909e+04        0
       0        0        0

-4.447114e+05 7.098589e+04        0
7.098589e+04 -3.792770e+04        0
       0        0        0

-6.076344e+05 4.828062e+04        0
4.828062e+04 -3.819531e+04        0
       0        0        0

-7.706106e+05 1.801479e+04        0
1.801479e+04 -3.854984e+04        0
       0        0        0

6.571882e+05 1.803133e+04        0
1.803133e+04 -4.148086e+04        0
       0        0        0

5.022723e+05 4.831561e+04        0
4.831561e+04 -4.108130e+04        0
       0        0        0

3.472918e+05 7.102298e+04        0
7.102298e+04 -4.077837e+04        0
       0        0        0

1.922448e+05 8.615573e+04        0
8.615573e+04 -4.057415e+04        0
       0        0        0

3.712950e+04 9.371621e+04        0
9.371621e+04 -4.046997e+04        0
       0        0        0

-1.180548e+05 9.370679e+04        0
9.370679e+04 -4.046637e+04        0
       0        0        0

-2.733084e+05 8.612976e+04        0
8.612976e+04 -4.056316e+04        0
       0        0        0

-4.286308e+05 7.098734e+04        0
7.098734e+04 -4.075947e+04        0
       0        0        0

-5.840206e+05 4.828174e+04        0
4.828174e+04 -4.105375e+04        0
       0        0        0

-7.394757e+05 1.801527e+04        0
1.801527e+04 -4.144382e+04        0
       0        0        0

6.202464e+05 1.803109e+04        0
1.803109e+04 -4.433135e+04        0
       0        0        0

4.729455e+05 4.831521e+04        0
4.831521e+04 -4.389785e+04        0
       0        0        0

3.255687e+05 7.102280e+04        0
7.102280e+04 -4.356947e+04        0
       0        0        0

1.781137e+05 8.615599e+04        0
8.615599e+04 -4.334825e+04        0
       0        0        0

3.057899e+04 9.371700e+04        0
9.371700e+04 -4.323548e+04        0
       0        0        0

-1.170362e+05 9.370804e+04        0
9.370804e+04 -4.323174e+04        0
       0        0        0

-2.647322e+05 8.613129e+04        0
8.613129e+04 -4.333689e+04        0
       0        0        0

-4.125083e+05 7.098889e+04        0
7.098889e+04 -4.355008e+04        0
       0        0        0

-5.603632e+05 4.828300e+04        0
4.828300e+04 -4.386977e+04        0
       0        0        0

-7.082949e+05 1.801581e+04        0
1.801581e+04 -4.429370e+04        0
       0        0        0

5.833641e+05 1.803090e+04        0
1.803090e+04 -4.712373e+04        0
       0        0        0

4.436758e+05 4.831493e+04        0
4.831493e+04 -4.665801e+04        0
       0        0        0

3.039009e+05 7.102272e+04        0
7.102272e+04 -4.630549e+04        0
       0        0        0

1.640368e+05 8.615630e+04        0
8.615630e+04 -4.606814e+04        0
       0        0        0

2.408221e+04 9.371779e+04        0
9.371779e+04 -4.594725e+04        0
       0        0        0

-1.159639e+05 9.370929e+04        0
9.370929e+04 -4.594342e+04        0
       0        0        0

-2.561016e+05 8.613287e+04        0
8.613287e+04 -4.605655e+04        0
       0        0        0

-3.963302e+05 7.099055e+04        0
7.099055e+04 -4.628581e+04        0
       0        0        0

-5.366485e+05 4.828436e+04        0
4.828436e+04 -4.662966e+04        0
       0        0        0

-6.770546e+05 1.801640e+04        0
1.801640e+04 -4.708578e+04        0
       0        0        0

5.465540e+05 1.803076e+04        0
1.803076e+04 -4.984501e+04        0
       0        0        0

4.144762e+05 4.831476e+04        0
4.831476e+04 -4.934881e+04        0
       0        0        0

2.823015e+05 7.102273e+04        0
7.102273e+04 -4.897346e+04        0
       0        0        0

1.500273e+05 8.615666e+04        0
8.615666e+04 -4.872086e+04        0
       0        0        0

1.765217e+04 9.371858e+04        0
9.371858e+04 -4.859228e+04        0
       0        0        0

-1.148248e+05 9.371054e+04        0
9.371054e+04 -4.858837e+04        0
       0        0        0

-2.474036e+05 8.613449e+04        0
8.613449e+04 -4.870908e+04        0
       0        0        0

-3.800836e+05 7.099230e+04        0
7.099230e+04 -4.895360e+04        0
       0        0        0

-5.128636e+05 4.828584e+04        0
4.828584e+04 -4.932038e+04        0
       0        0        0

-6.457417e+05 1.801705e+04        0
1.801705e+04 -4.980705e+04        0
       0        0        0

5.098284e+05 1.803071e+04        0
1.803071e+04 -5.248288e+04        0
       0        0        0

3.853590e+05 4.831474e+04        0
4.831474e+04 -5.195797e+04        0
       0        0        0

2.607829e+05 7.102286e+04        0
7.102286e+04 -5.156111e+04        0
       0        0        0

1.360975e+05 8.615705e+04        0
8.615705e+04 -5.129412e+04        0
       0        0        0

1.130123e+04 9.371936e+04        0
9.371936e+04 -5.115829e+04        0
       0        0        0

-1.136067e+05 9.371177e+04        0
9.371177e+04 -5.115428e+04        0
       0        0        0

-2.386260e+05 8.613615e+04        0
8.613615e+04 -5.128213e+04        0
       0        0        0

-3.637562e+05 7.099417e+04        0
7.099417e+04 -5.154109e+04        0
       0        0        0

-4.889960e+05 4.828747e+04        0
4.828747e+04 -5.192958e+04        0
       0        0        0

-6.143437e+05 1.801778e+04        0
1.801778e+04 -5.244517e+04        0
       0        0        0

4.731988e+05 1.803078e+04        0
1.803078e+04 -5.502570e+04        0
       0        0        0

3.563358e+05 4.831490e+04        0
4.831490e+04 -5.447385e+04        0
       0        0        0

2.393568e+05 7.102309e+04        0
7.102309e+04 -5.405680e+04        0
       0        0        0

1.222591e+05 8.615743e+04        0
8.615743e+04 -5.377629e+04        0
       0        0        0

5.041044e+03 9.372006e+04        0
9.372006e+04 -5.363361e+04        0
       0        0        0

-1.122979e+05 9.371293e+04        0
9.371293e+04 -5.362952e+04        0
       0        0        0

-2.297574e+05 8.613780e+04        0
8.613780e+04 -5.376407e+04        0
       0        0        0

-3.473365e+05 7.099614e+04        0
7.099614e+04 -5.403661e+04        0
       0        0        0

-4.650341e+05 4.828929e+04        0
4.828929e+04 -5.444560e+04        0
       0        0        0

-5.828488e+05 1.801864e+04        0
1.801864e+04 -5.498851e+04        0
       0        0        0

4.366760e+05 1.803103e+04        0
1.803103e+04 -5.746252e+04        0
       0        0        0

3.274176e+05 4.831527e+04        0
4.831527e+04 -5.688548e+04        0
       0        0        0

2.180343e+05 7.102339e+04        0
7.102339e+04 -5.644948e+04        0
       0        0        0

1.085231e+05 8.615778e+04        0
8.615778e+04 -5.615626e+04        0
       0        0        0

-1.117404e+03 9.372070e+04        0
9.372070e+04 -5.600725e+04        0
       0        0        0

-1.108875e+05 9.371403e+04        0
9.371403e+04 -5.600319e+04        0
       0        0        0

-2.207867e+05 8.613941e+04        0
8.613941e+04 -5.614411e+04        0
       0        0        0

-3.308137e+05 7.099818e+04        0
7.099818e+04 -5.642935e+04        0
       0        0        0

-4.409671e+05 4.829131e+04        0
4.829131e+04 -5.685751e+04        0
       0        0        0

-5.512458e+05 1.801967e+04        0
1.801967e+04 -5.742610e+04        0
       0        0        0

4.002699e+05 1.803148e+04        0
1.803148e+04 -5.978301e+04        0
       0        0        0

2.986149e+05 4.831572e+04        0
4.831572e+04 -5.918233e+04        0
       0        0        0

1.968258e+05 7.102358e+04        0
7.102358e+04 -5.872837e+04        0
       0        0        0

9.489983e+04 8.615813e+04        0
8.615813e+04 -5.842325e+04        0
       0        0        0

-7.163904e+03 9.372153e+04        0
9.372153e+04 -5.826870e+04        0
       0        0        0

-1.093653e+05 9.371533e+04        0
9.371533e+04 -5.826528e+04        0
       0        0        0

-2.117036e+05 8.614103e+04        0
8.614103e+04 -5.841250e+04        0
       0        0        0

-3.141774e+05 7.100011e+04        0
7.100011e+04 -5.870952e+04        0
       0        0        0

-4.167848e+05 4.829341e+04        0
4.829341e+04 -5.915527e+04        0
       0        0        0

-5.195243e+05 1.802090e+04        0
1.802090e+04 -5.974767e+04        0
       0        0        0

3.639903e+05 1.803196e+04        0
1.803196e+04 -6.197743e+04        0
       0        0        0

2.699375e+05 4.831559e+04        0
4.831559e+04 -6.135404e+04        0
       0        0        0

1.757407e+05 7.102318e+04        0
7.102318e+04 -6.088241e+04        0
       0        0        0

8.139821e+04 8.615877e+04        0
8.615877e+04 -6.056614e+04        0
       0        0        0

-1.308919e+04 9.372359e+04        0
9.372359e+04 -6.040776e+04        0
       0        0        0

-1.077213e+05 9.371784e+04        0
9.371784e+04 -6.040687e+04        0
       0        0        0

-2.024982e+05 8.614293e+04        0
8.614293e+04 -6.056121e+04        0
       0        0        0

-2.974181e+05 7.100144e+04        0
7.100144e+04 -6.086902e+04        0
       0        0        0

-3.924778e+05 4.829493e+04        0
4.829493e+04 -6.133002e+04        0
       0        0        0

-4.876746e+05 1.802216e+04        0
1.802216e+04 -6.194374e+04        0
       0        0        0

3.278470e+05 1.803169e+04        0
1.803169e+04 -6.403636e+04        0
       0        0        0

2.413951e+05 4.831288e+04        0
4.831288e+04 -6.338963e+04        0
       0        0        0

1.547865e+05 7.102091e+04        0
7.102091e+04 -6.289892e+04        0
       0        0        0

6.802506e+04 8.616075e+04        0
8.616075e+04 -6.257231e+04        0
       0        0        0

-1.888539e+04 9.372985e+04        0
9.372985e+04 -6.241397e+04        0
       0        0        0

-1.059458e+05 9.372456e+04        0
9.372456e+04 -6.242066e+04        0
       0        0        0

-1.931593e+05 8.614618e+04        0
8.614618e+04 -6.258514e+04        0
       0        0        0

-2.805256e+05 7.100091e+04        0
7.100091e+04 -6.290276e+04        0
       0        0        0

-3.680380e+05 4.829388e+04        0
4.829388e+04 -6.337491e+04        0
       0        0        0

-4.556885e+05 1.802268e+04        0
1.802268e+04 -6.400572e+04        0
       0        0        0

2.918520e+05 1.802829e+04        0
1.802829e+04 -6.595044e+04        0
       0        0        0

2.129968e+05 4.830239e+04        0
4.830239e+04 -6.527596e+04        0
       0        0        0

1.339675e+05 7.101392e+04        0
7.101392e+04 -6.476111e+04        0
       0        0        0

5.478255e+04 8.616698e+04        0
8.616698e+04 -6.442521e+04        0
       0        0        0

-2.454710e+04 9.374787e+04        0
9.374787e+04 -6.427570e+04        0
       0        0        0

-1.040276e+05 9.374304e+04        0
9.374304e+04 -6.430194e+04        0
       0        0        0

-1.836730e+05 8.615367e+04        0
8.615367e+04 -6.448452e+04        0
       0        0        0

-2.634876e+05 7.099566e+04        0
7.099566e+04 -6.481122e+04        0
       0        0        0

-3.434579e+05 4.828504e+04        0
4.828504e+04 -6.528663e+04        0
       0        0        0

-4.235615e+05 1.802006e+04        0
1.802006e+04 -6.592629e+04        0
       0        0        0

2.560237e+05 1.801553e+04        0
1.801553e+04 -6.770958e+04        0
       0        0        0

1.847511e+05 4.827200e+04        0
4.827200e+04 -6.699493e+04        0
       0        0        0

1.132793e+05 7.099633e+04        0
7.099633e+04 -6.644360e+04        0
       0        0        0

4.166325e+04 8.618457e+04        0
8.618457e+04 -6.610041e+04        0
       0        0        0

-3.007346e+04 9.379477e+04        0
9.379477e+04 -6.597852e+04        0
       0        0        0

-1.019528e+05 9.379040e+04        0
9.379040e+04 -6.605014e+04        0
       0        0        0

-1.740168e+05 8.617253e+04        0
8.617253e+04 -6.626891e+04        0
       0        0        0

-2.462853e+05 7.097981e+04        0
7.097981e+04 -6.660504e+04        0
       0        0        0

-3.187314e+05 4.825631e+04        0
4.825631e+04 -6.706837e+04        0
       0        0        0

-3.912965e+05 1.800809e+04        0
1.800809e+04 -6.770007e+04        0
       0        0        0

2.203960e+05 1.797895e+04        0
1.797895e+04 -6.930195e+04        0
       0        0        0

1.566646e+05 4.819604e+04        0
4.819604e+04 -6.851902e+04        0
       0        0        0

9.270085e+04 7.095714e+04        0
7.095714e+04 -6.790597e+04        0
       0        0        0

2.864047e+04 8.622930e+04        0
8.622930e+04 -6.756018e+04        0
       0        0        0

-3.547207e+04 9.390589e+04        0
9.390589e+04 -6.750309e+04        0
       0        0        0

-9.969993e+04 9.390197e+04        0
9.390197e+04 -6.767080e+04        0
       0        0        0

-1.641507e+05 8.621852e+04        0
8.621852e+04 -6.796271e+04        0
       0        0        0

-2.288844e+05 7.094236e+04        0
7.094236e+04 -6.831178e+04        0
       0        0        0

-2.938519e+05 4.818202e+04        0
4.818202e+04 -6.873474e+04        0
       0        0        0

-3.589134e+05 1.797230e+04        0
1.797230e+04 -6.932498e+04        0
       0        0        0

1.850357e+05 1.788788e+04        0
1.788788e+04 -7.071249e+04        0
       0        0        0

1.287372e+05 4.802514e+04        0
4.802514e+04 -6.980587e+04        0
       0        0        0

7.217629e+04 7.087853e+04        0
7.087853e+04 -6.908635e+04        0
       0        0        0

1.565208e+04 8.633305e+04        0
8.633305e+04 -6.874944e+04        0
       0        0        0

-4.076514e+04 9.414721e+04        0
9.414721e+04 -6.882375e+04        0
       0        0        0

-9.723360e+04 9.414374e+04        0
9.414374e+04 -6.917645e+04        0
       0        0        0

-1.540008e+05 8.632352e+04        0
8.632352e+04 -6.960901e+04        0
       0        0        0

-2.112189e+05 7.086550e+04        0
7.086550e+04 -6.998283e+04        0
       0        0        0

-2.688094e+05 4.801280e+04        0
4.801280e+04 -7.031817e+04        0
       0        0        0

-3.264673e+05 1.788204e+04        0
1.788204e+04 -7.080454e+04        0
       0        0        0

1.500719e+05 1.768281e+04        0
1.768281e+04 -7.192225e+04        0
       0        0        0

1.009501e+05 4.767492e+04        0
4.767492e+04 -7.079592e+04        0
       0        0        0

5.158694e+04 7.073847e+04        0
7.073847e+04 -6.990533e+04        0
       0        0        0

2.578288e+03 8.655410e+04        0
8.655410e+04 -6.960440e+04        0
       0        0        0

-4.599684e+04 9.462635e+04        0
9.462635e+04 -6.991285e+04        0
       0        0        0

-9.449609e+04 9.462334e+04        0
9.462334e+04 -7.058115e+04        0
       0        0        0

-1.434360e+05 8.654583e+04        0
8.654583e+04 -7.126059e+04        0
       0        0        0

-1.931629e+05 7.072720e+04        0
7.072720e+04 -7.169043e+04        0
       0        0        0

-2.435806e+05 4.766429e+04        0
4.766429e+04 -7.187349e+04        0
       0        0        0

-2.940808e+05 1.767780e+04        0
1.767780e+04 -7.215106e+04        0
       0        0        0

1.157379e+05 1.725976e+04        0
1.725976e+04 -7.291043e+04        0
       0        0        0

7.323625e+04 4.702707e+04        0
4.702707e+04 -7.142951e+04        0
       0        0        0

3.071371e+04 7.052936e+04        0
7.052936e+04 -7.031023e+04        0
       0        0        0

-1.077459e+04 8.698494e+04        0
8.698494e+04 -7.010637e+04        0
       0        0        0

-5.123453e+04 9.548070e+04        0
9.548070e+04 -7.076343e+04        0
       0        0        0

-9.140325e+04 9.547814e+04        0
9.547814e+04 -7.187508e+04        0
       0        0        0

-1.322515e+05 8.697795e+04        0
8.697795e+04 -7.292469e+04        0
       0        0        0

-1.744946e+05 7.051986e+04        0
7.051986e+04 -7.348453e+04        0
       0        0        0

-2.181032e+05 4.701817e+04        0
4.701817e+04 -7.346528e+04        0
       0        0        0

-2.619917e+05 1.725560e+04        0
1.725560e+04 -7.338992e+04        0
       0        0        0

8.240593e+04 1.646463e+04        0
1.646463e+04 -7.367689e+04        0
       0        0        0

4.541468e+04 4.598683e+04        0
4.598683e+04 -7.172482e+04        0
       0        0        0

9.214169e+03 7.032064e+04        0
7.032064e+04 -7.044736e+04        0
       0        0        0

-2.463779e+04 8.773339e+04        0
8.773339e+04 -7.045290e+04        0
       0        0        0

-5.654364e+04 9.678181e+04        0
9.678181e+04 -7.146100e+04        0
       0        0        0

-8.786435e+04 9.677976e+04        0
9.677976e+04 -7.294744e+04        0
       0        0        0

-1.202002e+05 8.772774e+04        0
8.772774e+04 -7.438814e+04        0
       0        0        0

-1.548738e+05 7.031296e+04        0
7.031296e+04 -7.522117e+04        0
       0        0        0

-1.922188e+05 4.597969e+04        0
4.597969e+04 -7.509779e+04        0
       0        0        0

-2.306025e+05 1.646134e+04        0
1.646134e+04 -7.455172e+04        0
       0        0        0

5.053649e+04 1.515292e+04        0
1.515292e+04 -7.428600e+04        0
       0        0        0

1.705755e+04 4.472412e+04        0
4.472412e+04 -7.210026e+04        0
       0        0        0

-1.327677e+04 7.039547e+04        0
7.039547e+04 -7.114021e+04        0
       0        0        0

-3.908186e+04 8.880030e+04        0
8.880030e+04 -7.149049e+04        0
       0        0        0

-6.188461e+04 9.822013e+04        0
9.822013e+04 -7.233958e+04        0
       0        0        0

-8.387555e+04 9.821866e+04        0
9.821866e+04 -7.342079e+04        0
       0        0        0

-1.071833e+05 8.879620e+04        0
8.879620e+04 -7.477622e+04        0
       0        0        0

-1.339398e+05 7.038975e+04        0
7.038975e+04 -7.608114e+04        0
       0        0        0

-1.655505e+05 4.471874e+04        0
4.471874e+04 -7.640363e+04        0
       0        0        0

-2.004618e+05 1.515050e+04        0
1.515050e+04 -7.565997e+04        0
       0        0        0

2.022517e+04 1.356717e+04        0
1.356717e+04 -7.536210e+04        0
       0        0        0

-1.258224e+04 4.436263e+04        0
4.436263e+04 -7.427019e+04        0
       0        0        0

-3.665486e+04 7.140639e+04        0
7.140639e+04 -7.522166e+04        0
       0        0        0

-5.343845e+04 8.956227e+04        0
8.956227e+04 -7.544510e+04        0
       0        0        0

-6.690926e+04 9.840005e+04        0
9.840005e+04 -7.416065e+04        0
       0        0        0

-7.970930e+04 9.839934e+04        0
9.839934e+04 -7.245798e+04        0
       0        0        0

-9.381141e+04 8.956014e+04        0
8.956014e+04 -7.180532e+04        0
       0        0        0

-1.117869e+05 7.140301e+04        0
7.140301e+04 -7.322197e+04        0
       0        0        0

-1.374359e+05 4.435903e+04        0
4.435903e+04 -7.575310e+04        0
       0        0        0

-1.718745e+05 1.356553e+04        0
1.356553e+04 -7.629942e+04        0
       0        0        0

-1.036716e+04 1.412189e+04        0
1.412189e+04 -7.840839e+04        0
       0        0        0

-4.413237e+04 4.865818e+04        0
4.865818e+04 -8.566392e+04        0
       0        0        0

-5.843645e+04 7.331411e+04        0
7.331411e+04 -8.970369e+04        0
       0        0        0

-6.554242e+04 8.738506e+04        0
8.738506e+04 -8.624257e+04        0
       0        0        0

-7.085325e+04 9.382426e+04        0
9.382426e+04 -7.813183e+04        0
       0        0        0

-7.600559e+04 9.382452e+04        0
9.382452e+04 -6.872700e+04        0
       0        0        0

-8.213561e+04 8.738551e+04        0
8.738551e+04 -6.143536e+04        0
       0        0        0

-9.083001e+04 7.331398e+04        0
7.331398e+04 -5.956281e+04        0
       0        0        0

-1.073230e+05 4.865680e+04        0
4.865680e+04 -6.579261e+04        0
       0        0        0

-1.434038e+05 1.412076e+04        0
1.412076e+04 -7.536858e+04        0
       0        0        0

-5.126462e+04 3.216780e+04        0
3.216780e+04 -1.035225e+05        0
       0        0        0

-7.037261e+04 6.024341e+04        0
6.024341e+04 -1.275012e+05        0
       0        0        0

-7.176815e+04 7.076941e+04        0
7.076941e+04 -1.246520e+05        0
       0        0        0

-7.229540e+04 7.593280e+04        0
7.593280e+04 -1.083530e+05        0
       0        0        0

-7.271834e+04 7.819317e+04        0
7.819317e+04 -8.544493e+04        0
       0        0        0

-7.358045e+04 7.819437e+04        0
7.819437e+04 -6.085367e+04        0
       0        0        0

-7.505272e+04 7.593605e+04        0
7.593605e+04 -3.899350e+04        0
       0        0        0

-7.770623e+04 7.077369e+04        0
7.077369e+04 -2.481885e+04        0
       0        0        0

-8.232065e+04 6.024694e+04        0
6.024694e+04 -2.518829e+04        0
       0        0        0

-1.054028e+05 3.216766e+04        0
3.216766e+04 -5.314499e+04        0
       0        0        0

POINT_DATA     451
VECTORS DISPLACEMENT_1.000000e-01 double
0.000000e+00    0.000000e+00    0.000000e+00
0.000000e+00    0.000000e+00    0.000000e+00
0.000000e+00    0.000000e+00    0.000000e+00
0.000000e+00    0.000000e+00    0.000000e+00
0.000000e+00    0.000000e+00    0.000000e+00
0.000000e+00    0.000000e+00    0.000000e+00
0.000000e+00    0.000000e+00    0.000000e+00
0.000000e+00    0.000000e+00    0.000000e+00
0.000000e+00    0.000000e+00    0.000000e+00
0.000000e+00    0.000000e+00    0.000000e+00
0.000000e+00    0.000000e+00    0.000000e+00
-1.133888e-06    -8.243550e-07    0.000000e+00
-7.184627e-07    -4.134960e-07    0.000000e+00
-5.126315e-07    -2.142660e-07    0.000000e+00
-3.309747e-07    -1.061063e-07    0.000000e+00
-1.631777e-07    -5.012881e-08    0.000000e+00
-3.888440e-20    -3.272417e-08    0.000000e+00
1.631777e-07    -5.012881e-08    0.000000e+00
3.309747e-07    -1.061063e-07    0.000000e+00
5.126315e-07    -2.142660e-07    0.000000e+00
7.184627e-07    -4.134960e-07    0.000000e+00
1.133888e-06    -8.243550e-07    0.000000e+00
-2.139401e-06    -1.370986e-06    0.000000e+00
-1.563810e-06    -9.920178e-07    0.000000e+00
-1.097635e-06    -6.968097e-07    0.000000e+00
-7.080192e-07    -5.142027e-07    0.000000e+00
-3.477400e-07    -4.147023e-07    0.000000e+00
-8.215227e-20    -3.830974e-07    0.000000e+00
3.477400e-07    -4.147023e-07    0.000000e+00
7.080192e-07    -5.142027e-07    0.000000e+00
1.097635e-06    -6.968097e-07    0.000000e+00
1.563810e-06    -9.920178e-07    0.000000e+00
2.139401e-06    -1.370986e-06    0.000000e+00
-3.111284e-06    -2.050688e-06    0.000000e+00
-2.378010e-06    -1.670891e-06    0.000000e+00
-1.711077e-06    -1.371429e-06    0.000000e+00
-1.107715e-06    -1.160199e-06    0.000000e+00
-5.450464e-07    -1.038451e-06    0.000000e+00
-1.293545e-19    -9.987918e-07    0.000000e+00
5.450464e-07    -1.038451e-06    0.000000e+00
1.107715e-06    -1.160199e-06    0.000000e+00
1.711077e-06    -1.371429e-06    0.000000e+00
2.378010e-06    -1.670891e-06    0.000000e+00
3.111284e-06    -2.050688e-06    0.000000e+00
-4.072404e-06    -2.889522e-06    0.000000e+00
-3.165370e-06    -2.518393e-06    0.000000e+00
-2.311257e-06    -2.223924e-06    0.000000e+00
-1.509156e-06    -2.011419e-06    0.000000e+00
-7.449950e-07    -1.883864e-06    0.000000e+00
-1.785056e-19    -1.841568e-06    0.000000e+00
7.449950e-07    -1.883864e-06    0.000000e+00
1.509156e-06    -2.011419e-06    0.000000e+00
2.311257e-06    -2.223924e-06    0.000000e+00
3.165370e-06    -2.518393e-06    0.000000e+00
4.072404e-06    -2.889522e-06    0.000000e+00
-5.017251e-06    -3.910066e-06    0.000000e+00
-3.929779e-06    -3.547599e-06    0.000000e+00
-2.892338e-06    -3.262021e-06    0.000000e+00
-1.899959e-06    -3.055108e-06    0.000000e+00
-9.411570e-07    -2.929847e-06    0.000000e+00
-2.293739e-19    -2.887918e-06    0.000000e+00
9.411570e-07    -2.929847e-06    0.000000e+00
1.899959e-06    -3.055108e-06    0.000000e+00
2.892338e-06    -3.262021e-06    0.000000e+00
3.929779e-06    -3.547599e-06    0.000000e+00
5.017251e-06    -3.910066e-06    0.000000e+00
-5.941507e-06    -5.114964e-06    0.000000e+00
-4.672769e-06    -4.762086e-06    0.000000e+00
-3.454275e-06    -4.485539e-06    0.000000e+00
-2.277452e-06    -4.285947e-06    0.000000e+00
-1.130803e-06    -4.165141e-06    0.000000e+00
-2.812943e-19    -4.124687e-06    0.000000e+00
1.130803e-06    -4.165141e-06    0.000000e+00
2.277452e-06    -4.285947e-06    0.000000e+00
3.454275e-06    -4.485539e-06    0.000000e+00
4.672769e-06    -4.762086e-06    0.000000e+00
5.941507e-06    -5.114964e-06    0.000000e+00
-6.842077e-06    -6.502171e-06    0.000000e+00
-5.394609e-06    -6.159277e-06    0.000000e+00
-3.998137e-06    -5.891530e-06    0.000000e+00
-2.641825e-06    -5.699076e-06    0.000000e+00
-1.313639e-06    -5.582922e-06    0.000000e+00
-3.295488e-19    -5.544069e-06    0.000000e+00
1.313639e-06    -5.582922e-06    0.000000e+00
2.641825e-06    -5.699076e-06    0.000000e+00
3.998137e-06    -5.891530e-06    0.000000e+00
5.394609e-06    -6.159277e-06    0.000000e+00
6.842077e-06    -6.502171e-06    0.000000e+00
-7.717254e-06    -8.067298e-06    0.000000e+00
-6.095208e-06    -7.734622e-06    0.000000e+00
-4.524776e-06    -7.475387e-06    0.000000e+00
-2.993892e-06    -7.289595e-06    0.000000e+00
-1.490053e-06    -7.177741e-06    0.000000e+00
-3.775120e-19    -7.140379e-06    0.000000e+00
1.490053e-06    -7.177741e-06    0.000000e+00
2.993892e-06    -7.289595e-06    0.000000e+00
4.524776e-06    -7.475387e-06    0.000000e+00
6.095208e-06    -7.734622e-06    0.000000e+00
7.717254e-06    -8.067298e-06    0.000000e+00
-8.566154e-06    -9.805188e-06    0.000000e+00
-6.774437e-06    -9.482839e-06    0.000000e+00
-5.034719e-06    -9.231918e-06    0.000000e+00
-3.334329e-06    -9.052395e-06    0.000000e+00
-1.660468e-06    -8.944493e-06    0.000000e+00
-4.275134e-19    -8.908485e-06    0.000000e+00
1.660468e-06    -8.944493e-06    0.000000e+00
3.334329e-06    -9.052395e-06    0.000000e+00
5.034719e-06    -9.231918e-06    0.000000e+00
6.774437e-06    -9.482839e-06    0.000000e+00
8.566154e-06    -9.805188e-06    0.000000e+00
-9.388365e-06    -1.171043e-05    0.000000e+00
-7.432203e-06    -1.139846e-05    0.000000e+00
-5.528247e-06    -1.115573e-05    0.000000e+00
-3.663558e-06    -1.098223e-05    0.000000e+00
-1.825174e-06    -1.087805e-05    0.000000e+00
-4.786266e-19    -1.084330e-05    0.000000e+00
1.825174e-06    -1.087805e-05    0.000000e+00
3.663558e-06    -1.098223e-05    0.000000e+00
5.528247e-06    -1.115573e-05    0.000000e+00
7.432203e-06    -1.139846e-05    0.000000e+00
9.388365e-06    -1.171043e-05    0.000000e+00
-1.018371e-05    -1.377757e-05    0.000000e+00
-8.068450e-06    -1.347599e-05    0.000000e+00
-6.005501e-06    -1.324140e-05    0.000000e+00
-3.981811e-06    -1.307379e-05    0.000000e+00
-1.984339e-06    -1.297319e-05    0.000000e+00
-5.234134e-19    -1.293965e-05    0.000000e+00
1.984339e-06    -1.297319e-05    0.000000e+00
3.981811e-06    -1.307379e-05    0.000000e+00
6.005501e-06    -1.324140e-05    0.000000e+00
8.068450e-06    -1.347599e-05    0.000000e+00
1.018371e-05    -1.377757e-05    0.000000e+00
-1.095211e-05    -1.600115e-05    0.000000e+00
-8.683150e-06    -1.570997e-05    0.000000e+00
-6.466543e-06    -1.548349e-05    0.000000e+00
-4.289201e-06    -1.532170e-05    0.000000e+00
-2.138049e-06    -1.522462e-05    0.000000e+00
-5.669827e-19    -1.519225e-05    0.000000e+00
2.138049e-06    -1.522462e-05    0.000000e+00
4.289201e-06    -1.532170e-05    0.000000e+00
6.466543e-06    -1.548349e-05    0.000000e+00
8.683150e-06    -1.570997e-05    0.000000e+00
1.095211e-05    -1.600115e-05    0.000000e+00
-1.169356e-05    -1.837575e-05    0.000000e+00
-9.276291e-06    -1.809497e-05    0.000000e+00
-6.911398e-06    -1.787658e-05    0.000000e+00
-4.585778e-06    -1.772059e-05    0.000000e+00
-2.286342e-06    -1.762699e-05    0.000000e+00
-6.182282e-19    -1.759579e-05    0.000000e+00
2.286342e-06    -1.762699e-05    0.000000e+00
4.585778e-06    -1.772059e-05    0.000000e+00
6.911398e-06    -1.787658e-05    0.000000e+00
9.276291e-06    -1.809497e-05    0.000000e+00
1.169356e-05    -1.837575e-05    0.000000e+00
-1.240804e-05    -2.089596e-05    0.000000e+00
-9.847866e-06    -2.062557e-05    0.000000e+00
-7.340076e-06    -2.041528e-05    0.000000e+00
-4.871563e-06    -2.026507e-05    0.000000e+00
-2.429236e-06    -2.017494e-05    0.000000e+00
-6.534859e-19    -2.014490e-05    0.000000e+00
2.429236e-06    -2.017494e-05    0.000000e+00
4.871563e-06    -2.026507e-05    0.000000e+00
7.340076e-06    -2.041528e-05    0.000000e+00
9.847866e-06    -2.062557e-05    0.000000e+00
1.240804e-05    -2.089596e-05    0.000000e+00
-1.309555e-05    -2.355637e-05    0.000000e+00
-1.039787e-05    -2.329639e-05    0.000000e+00
-7.752578e-06    -2.309418e-05    0.000000e+00
-5.146564e-06    -2.294975e-05    0.000000e+00
-2.566735e-06    -2.286309e-05    0.000000e+00
-6.866261e-19    -2.283420e-05    0.000000e+00
2.566735e-06    -2.286309e-05    0.000000e+00
5.146564e-06    -2.294975e-05    0.000000e+00
7.752578e-06    -2.309418e-05    0.000000e+00
1.039787e-05    -2.329639e-05    0.000000e+00
1.309555e-05    -2.355637e-05    0.000000e+00
-1.375610e-05    -2.635159e-05    0.000000e+00
-1.092631e-05    -2.610201e-05    0.000000e+00
-8.148906e-06    -2.590789e-05    0.000000e+00
-5.410781e-06    -2.576923e-05    0.000000e+00
-2.698844e-06    -2.568604e-05    0.000000e+00
-7.123547e-19    -2.565831e-05    0.000000e+00
2.698844e-06    -2.568604e-05    0.000000e+00
5.410781e-06    -2.576923e-05    0.000000e+00
8.148906e-06    -2.590789e-05    0.000000e+00
1.092631e-05    -2.610201e-05    0.000000e+00
1.375610e-05    -2.635159e-05    0.000000e+00
-1.438969e-05    -2.927623e-05    0.000000e+00
-1.143319e-05    -2.903704e-05    0.000000e+00
-8.529058e-06    -2.885101e-05    0.000000e+00
-5.664215e-06    -2.871813e-05    0.000000e+00
-2.825560e-06    -2.863840e-05    0.000000e+00
-7.231544e-19    -2.861183e-05    0.000000e+00
2.825560e-06    -2.863840e-05    0.000000e+00
5.664215e-06    -2.871813e-05    0.000000e+00
8.529058e-06    -2.885101e-05    0.000000e+00
1.143319e-05    -2.903704e-05    0.000000e+00
1.438969e-05    -2.927623e-05    0.000000e+00
-1.499632e-05    -3.232488e-05    0.000000e+00
-1.191849e-05    -3.209610e-05    0.000000e+00
-8.893035e-06    -3.191815e-05    0.000000e+00
-5.906865e-06    -3.179105e-05    0.000000e+00
-2.946885e-06    -3.171479e-05    0.000000e+00
-7.423185e-19    -3.168937e-05    0.000000e+00
2.946885e-06    -3.171479e-05    0.000000e+00
5.906865e-06    -3.179105e-05    0.000000e+00
8.893035e-06    -3.191815e-05    0.000000e+00
1.191849e-05    -3.209610e-05    0.000000e+00
1.499632e-05    -3.232488e-05    0.000000e+00
-1.557599e-05    -3.549217e-05    0.000000e+00
-1.238222e-05    -3.527378e-05    0.000000e+00
-9.240836e-06    -3.510393e-05    0.000000e+00
-6.138732e-06    -3.498260e-05    0.000000e+00
-3.062819e-06    -3.490981e-05    0.000000e+00
-7.738705e-19    -3.488554e-05    0.000000e+00
3.062819e-06    -3.490981e-05    0.000000e+00
6.138732e-06    -3.498260e-05    0.000000e+00
9.240836e-06    -3.510393e-05    0.000000e+00
1.238222e-05    -3.527378e-05    0.000000e+00
1.557599e-05    -3.549217e-05    0.000000e+00
-1.612870e-05    -3.877270e-05    0.000000e+00
-1.282439e-05    -3.856471e-05    0.000000e+00
-9.572460e-06    -3.840294e-05    0.000000e+00
-6.359815e-06    -3.828739e-05    0.000000e+00
-3.173360e-06    -3.821806e-05    0.000000e+00
-8.205632e-19    -3.819495e-05    0.000000e+00
3.173360e-06    -3.821806e-05    0.000000e+00
6.359815e-06    -3.828739e-05    0.000000e+00
9.572460e-06    -3.840294e-05    0.000000e+00
1.282439e-05    -3.856471e-05    0.000000e+00
1.612870e-05    -3.877270e-05    0.000000e+00
-1.665445e-05    -4.216107e-05    0.000000e+00
-1.324499e-05    -4.196348e-05    0.000000e+00
-9.887909e-06    -4.180980e-05    0.000000e+00
-6.570114e-06    -4.170003e-05    0.000000e+00
-3.278510e-06    -4.163416e-05    0.000000e+00
-8.906551e-19    -4.161221e-05    0.000000e+00
3.278510e-06    -4.163416e-05    0.000000e+00
6.570114e-06    -4.170003e-05    0.000000e+00
9.887909e-06    -4.180980e-05    0.000000e+00
1.324499e-05    -4.196348e-05    0.000000e+00
1.665445e-05    -4.216107e-05    0.000000e+00
-1.715324e-05    -4.565189e-05    0.000000e+00
-1.364402e-05    -4.546470e-05    0.000000e+00
-1.018718e-05    -4.531911e-05    0.000000e+00
-6.769629e-06    -4.521512e-05    0.000000e+00
-3.378267e-06    -4.515272e-05    0.000000e+00
-9.448653e-19    -4.513192e-05    0.000000e+00
3.378267e-06    -4.515272e-05    0.000000e+00
6.769629e-06    -4.521512e-05    0.000000e+00
1.018718e-05    -4.531911e-05    0.000000e+00
1.364402e-05    -4.546470e-05    0.000000e+00
1.715324e-05    -4.565189e-05    0.000000e+00
-1.762506e-05    -4.923978e-05    0.000000e+00
-1.402148e-05    -4.906299e-05    0.000000e+00
-1.047028e-05    -4.892549e-05    0.000000e+00
-6.958360e-06    -4.882727e-05    0.000000e+00
-3.472633e-06    -4.876834e-05    0.000000e+00
-9.812877e-19    -4.874869e-05    0.000000e+00
3.472633e-06    -4.876834e-05    0.000000e+00
6.958360e-06    -4.882727e-05    0.000000e+00
1.047028e-05    -4.892549e-05    0.000000e+00
1.402148e-05    -4.906299e-05    0.000000e+00
1.762506e-05    -4.923978e-05    0.000000e+00
-1.806993e-05    -5.291934e-05    0.000000e+00
-1.437737e-05    -5.275295e-05    0.000000e+00
-1.073720e-05    -5.262353e-05    0.000000e+00
-7.136307e-06    -5.253109e-05    0.000000e+00
-3.561606e-06    -5.247563e-05    0.000000e+00
-1.030627e-18    -5.245714e-05    0.000000e+00
3.561606e-06    -5.247563e-05    0.000000e+00
7.136307e-06    -5.253109e-05    0.000000e+00
1.073720e-05    -5.262353e-05    0.000000e+00
1.437737e-05    -5.275295e-05    0.000000e+00
1.806993e-05    -5.291934e-05    0.000000e+00
-1.848784e-05    -5.668517e-05    0.000000e+00
-1.471170e-05    -5.652918e-05    0.000000e+00
-1.098794e-05    -5.640785e-05    0.000000e+00
-7.303470e-06    -5.632119e-05    0.000000e+00
-3.645188e-06    -5.626919e-05    0.000000e+00
-1.049262e-18    -5.625186e-05    0.000000e+00
3.645188e-06    -5.626919e-05    0.000000e+00
7.303470e-06    -5.632119e-05    0.000000e+00
1.098794e-05    -5.640785e-05    0.000000e+00
1.471170e-05    -5.652918e-05    0.000000e+00
1.848784e-05    -5.668517e-05    0.000000e+00
-1.887878e-05    -6.053189e-05    0.000000e+00
-1.502445e-05    -6.038630e-05    0.000000e+00
-1.122251e-05    -6.027306e-05    0.000000e+00
-7.459850e-06    -6.019217e-05    0.000000e+00
-3.723378e-06    -6.014364e-05    0.000000e+00
-1.068109e-18    -6.012746e-05    0.000000e+00
3.723378e-06    -6.014364e-05    0.000000e+00
7.459850e-06    -6.019217e-05    0.000000e+00
1.122251e-05    -6.027306e-05    0.000000e+00
1.502445e-05    -6.038630e-05    0.000000e+00
1.887878e-05    -6.053189e-05    0.000000e+00
-1.924276e-05    -6.445411e-05    0.000000e+00
-1.531564e-05    -6.431891e-05    0.000000e+00
-1.144090e-05    -6.421376e-05    0.000000e+00
-7.605446e-06    -6.413865e-05    0.000000e+00
-3.796176e-06    -6.409359e-05    0.000000e+00
-1.081873e-18    -6.407856e-05    0.000000e+00
3.796176e-06    -6.409359e-05    0.000000e+00
7.605446e-06    -6.413865e-05    0.000000e+00
1.144090e-05    -6.421376e-05    0.000000e+00
1.531564e-05    -6.431891e-05    0.000000e+00
1.924276e-05    -6.445411e-05    0.000000e+00
-1.957978e-05    -6.844641e-05    0.000000e+00
-1.558526e-05    -6.832162e-05    0.000000e+00
-1.164312e-05    -6.822456e-05    0.000000e+00
-7.740258e-06    -6.815523e-05    0.000000e+00
-3.863582e-06    -6.811363e-05    0.000000e+00
-1.067897e-18    -6.809977e-05    0.000000e+00
3.863582e-06    -6.811363e-05    0.000000e+00
7.740258e-06    -6.815523e-05    0.000000e+00
1.164312e-05    -6.822456e-05    0.000000e+00
1.558526e-05    -6.832162e-05    0.000000e+00
1.957978e-05    -6.844641e-05    0.000000e+00
-1.988983e-05    -7.250342e-05    0.000000e+00
-1.583331e-05    -7.238903e-05    0.000000e+00
-1.182916e-05    -7.230006e-05    0.000000e+00
-7.864281e-06    -7.223652e-05    0.000000e+00
-3.925591e-06    -7.219840e-05    0.000000e+00
-1.061121e-18    -7.218569e-05    0.000000e+00
3.925591e-06    -7.219840e-05    0.000000e+00
7.864281e-06    -7.223652e-05    0.000000e+00
1.182916e-05    -7.230006e-05    0.000000e+00
1.583331e-05    -7.238903e-05    0.000000e+00
1.988983e-05    -7.250342e-05    0.000000e+00
-2.017292e-05    -7.661973e-05    0.000000e+00
-1.605980e-05    -7.651574e-05    0.000000e+00
-1.199902e-05    -7.643486e-05    0.000000e+00
-7.977505e-06    -7.637712e-05    0.000000e+00
-3.982196e-06    -7.634250e-05    0.000000e+00
-1.094790e-18    -7.633096e-05    0.000000e+00
3.982196e-06    -7.634250e-05    0.000000e+00
7.977505e-06    -7.637712e-05    0.000000e+00
1.199902e-05    -7.643486e-05    0.000000e+00
1.605980e-05    -7.651574e-05    0.000000e+00
2.017292e-05    -7.661973e-05    0.000000e+00
-2.042906e-05    -8.078991e-05    0.000000e+00
-1.626473e-05    -8.069632e-05    0.000000e+00
-1.215268e-05    -8.062356e-05    0.000000e+00
-8.079901e-06    -8.057166e-05    0.000000e+00
-4.033372e-06    -8.054057e-05    0.000000e+00
-1.131213e-18    -8.053022e-05    0.000000e+00
4.033372e-06    -8.054057e-05    0.000000e+00
8.079901e-06    -8.057166e-05    0.000000e+00
1.215268e-05    -8.062356e-05    0.000000e+00
1.626473e-05    -8.069632e-05    0.000000e+00
2.042906e-05    -8.078991e-05    0.000000e+00
-2.065828e-05    -8.500855e-05    0.000000e+00
-1.644812e-05    -8.492534e-05    0.000000e+00
-1.229011e-05    -8.486074e-05    0.000000e+00
-8.171401e-06    -8.481476e-05    0.000000e+00
-4.079068e-06    -8.478729e-05    0.000000e+00
-1.204057e-18    -8.477816e-05    0.000000e+00
4.079068e-06    -8.478729e-05    0.000000e+00
8.171401e-06    -8.481476e-05    0.000000e+00
1.229011e-05    -8.486074e-05    0.000000e+00
1.644812e-05    -8.492534e-05    0.000000e+00
2.065828e-05    -8.500855e-05    0.000000e+00
-2.086068e-05    -8.927019e-05    0.000000e+00
-1.661000e-05    -8.919734e-05    0.000000e+00
-1.241123e-05    -8.914096e-05    0.000000e+00
-8.251863e-06    -8.910107e-05    0.000000e+00
-4.119181e-06    -8.907737e-05    0.000000e+00
-1.276479e-18    -8.906952e-05    0.000000e+00
4.119181e-06    -8.907737e-05    0.000000e+00
8.251863e-06    -8.910107e-05    0.000000e+00
1.241123e-05    -8.914096e-05    0.000000e+00
1.661000e-05    -8.919734e-05    0.000000e+00
2.086068e-05    -8.927019e-05    0.000000e+00
-2.103652e-05    -9.356940e-05    0.000000e+00
-1.675044e-05    -9.350685e-05    0.000000e+00
-1.251585e-05    -9.345883e-05    0.000000e+00
-8.321017e-06    -9.342529e-05    0.000000e+00
-4.153521e-06    -9.340560e-05    0.000000e+00
-1.309089e-18    -9.339913e-05    0.000000e+00
4.153521e-06    -9.340560e-05    0.000000e+00
8.321017e-06    -9.342529e-05    0.000000e+00
1.251585e-05    -9.345883e-05    0.000000e+00
1.675044e-05    -9.350685e-05    0.000000e+00
2.103652e-05    -9.356940e-05    0.000000e+00
-2.118632e-05    -9.790089e-05    0.000000e+00
-1.686952e-05    -9.784849e-05    0.000000e+00
-1.260365e-05    -9.780903e-05    0.000000e+00
-8.378408e-06    -9.778220e-05    0.000000e+00
-4.181792e-06    -9.776682e-05    0.000000e+00
-1.361605e-18    -9.776183e-05    0.000000e+00
4.181792e-06    -9.776682e-05    0.000000e+00
8.378408e-06    -9.778220e-05    0.000000e+00
1.260365e-05    -9.780903e-05    0.000000e+00
1.686952e-05    -9.784849e-05    0.000000e+00
2.118632e-05    -9.790089e-05    0.000000e+00
-2.131117e-05    -1.022598e-04    0.000000e+00
-1.696734e-05    -1.022173e-04    0.000000e+00
-1.267406e-05    -1.021866e-04    0.000000e+00
-8.423417e-06    -1.021667e-04    0.000000e+00
-4.203647e-06    -1.021557e-04    0.000000e+00
-1.412427e-18    -1.021522e-04    0.000000e+00
4.203647e-06    -1.021557e-04    0.000000e+00
8.423417e-06    -1.021667e-04    0.000000e+00
1.267406e-05    -1.021866e-04    0.000000e+00
1.696734e-05    -1.022173e-04    0.000000e+00
2.131117e-05    -1.022598e-04    0.000000e+00
-2.141304e-05    -1.066424e-04    0.000000e+00
-1.704382e-05    -1.066093e-04    0.000000e+00
-1.272632e-05    -1.065873e-04    0.000000e+00
-8.455587e-06    -1.065739e-04    0.000000e+00
-4.218980e-06    -1.065664e-04    0.000000e+00
-1.352712e-18    -1.065640e-04    0.000000e+00
4.218980e-06    -1.065664e-04    0.000000e+00
8.455587e-06    -1.065739e-04    0.000000e+00
1.272632e-05    -1.065873e-04    0.000000e+00
1.704382e-05    -1.066093e-04    0.000000e+00
2.141304e-05    -1.066424e-04    0.000000e+00
-2.149499e-05    -1.110488e-04    0.000000e+00
-1.709840e-05    -1.110239e-04    0.000000e+00
-1.276021e-05    -1.110089e-04    0.000000e+00
-8.475817e-06    -1.109980e-04    0.000000e+00
-4.228617e-06    -1.109905e-04    0.000000e+00
-1.268432e-18    -1.109879e-04    0.000000e+00
4.228617e-06    -1.109905e-04    0.000000e+00
8.475817e-06    -1.109980e-04    0.000000e+00
1.276021e-05    -1.110089e-04    0.000000e+00
1.709840e-05    -1.110239e-04    0.000000e+00
2.149499e-05    -1.110488e-04    0.000000e+00
-2.155901e-05    -1.154868e-04    0.000000e+00
-1.713005e-05    -1.154689e-04    0.000000e+00
-1.277963e-05    -1.154505e-04    0.000000e+00
-8.488667e-06    -1.154301e-04    0.000000e+00
-4.235157e-06    -1.154148e-04    0.000000e+00
-1.256997e-18    -1.154092e-04    0.000000e+00
4.235157e-06    -1.154148e-04    0.000000e+00
8.488667e-06    -1.154301e-04    0.000000e+00
1.277963e-05    -1.154505e-04    0.000000e+00
1.713005e-05    -1.154689e-04    0.000000e+00
2.155901e-05    -1.154868e-04    0.000000e+00
-2.159289e-05    -1.199965e-04    0.000000e+00
-1.715010e-05    -1.199620e-04    0.000000e+00
-1.279932e-05    -1.199038e-04    0.000000e+00
-8.503680e-06    -1.198514e-04    0.000000e+00
-4.243277e-06    -1.198164e-04    0.000000e+00
-1.254879e-18    -1.198042e-04    0.000000e+00
4.243277e-06    -1.198164e-04    0.000000e+00
8.503680e-06    -1.198514e-04    0.000000e+00
1.279932e-05    -1.199038e-04    0.000000e+00
1.715010e-05    -1.199620e-04    0.000000e+00
2.159289e-05    -1.199965e-04    0.000000e+00

CELL_DATA      400
TENSORS Element_Stress1.000000e-01 double
1.808287e+06 2.534545e+05        0
2.534545e+05 4.135308e+05        0
       0        0        0

1.235316e+06 1.299674e+05        0
1.299674e+05 3.542068e+05        0
       0        0        0

8.592756e+05 4.271717e+04        0
4.271717e+04 2.731380e+05        0
       0        0        0

5.065632e+05 -3.557125e+03        0
-3.557125e+03 1.678681e+05        0
       0        0        0

1.677146e+05 -2.471832e+04        0
-2.471832e+04 5.656535e+04        0
       0        0        0

-1.676793e+05 -2.471228e+04        0
-2.471228e+04 -5.657331e+04        0
       0        0        0

-5.060938e+05 -3.557861e+03        0
-3.557861e+03 -1.677057e+05        0
       0        0        0

-8.578837e+05 4.264633e+04        0
4.264633e+04 -2.726164e+05        0
       0        0        0

-1.232370e+06 1.296827e+05        0
1.296827e+05 -3.530784e+05        0
       0        0        0

-1.802147e+06 2.526550e+05        0
2.526550e+05 -4.114079e+05        0
       0        0        0

1.630972e+06 4.131531e+04        0
4.131531e+04 4.202460e+03        0
       0        0        0

1.313421e+06 1.198280e+05        0
1.198280e+05 1.278145e+05        0
       0        0        0

9.021213e+05 9.833605e+04        0
9.833605e+04 1.306328e+05        0
       0        0        0

5.327848e+05 7.529188e+04        0
7.529188e+04 9.131546e+04        0
       0        0        0

1.756276e+05 6.278719e+04        0
6.278719e+04 3.186466e+04        0
       0        0        0

-1.766514e+05 6.276910e+04        0
6.276910e+04 -3.294135e+04        0
       0        0        0

-5.333114e+05 7.522731e+04        0
7.522731e+04 -9.221496e+04        0
       0        0        0

-9.015826e+05 9.819777e+04        0
9.819777e+04 -1.311446e+05        0
       0        0        0

-1.310932e+06 1.195936e+05        0
1.195936e+05 -1.275659e+05        0
       0        0        0

-1.626430e+06 4.122982e+04        0
4.122982e+04 -3.118949e+03        0
       0        0        0

1.574251e+06 1.531133e+04        0
1.531133e+04 6.574983e+03        0
       0        0        0

1.263011e+06 6.786734e+04        0
6.786734e+04 1.746547e+04        0
       0        0        0

9.084753e+05 1.008751e+05        0
1.008751e+05 4.209986e+04        0
       0        0        0

5.394276e+05 1.067476e+05        0
1.067476e+05 3.569151e+04        0
       0        0        0

1.779483e+05 1.066771e+05        0
1.066771e+05 1.264581e+04        0
       0        0        0

-1.812366e+05 1.066496e+05        0
1.066496e+05 -1.599170e+04        0
       0        0        0

-5.421911e+05 1.066656e+05        0
1.066656e+05 -3.884999e+04        0
       0        0        0

-9.101231e+05 1.007477e+05        0
1.007477e+05 -4.483855e+04        0
       0        0        0

-1.262984e+06 6.775403e+04        0
6.775403e+04 -1.952893e+04        0
       0        0        0

-1.572302e+06 1.527985e+04        0
1.527985e+04 -7.853966e+03        0
       0        0        0

1.535702e+06 1.417648e+04        0
1.417648e+04 -3.933700e+03        0
       0        0        0

1.218418e+06 5.510529e+04        0
5.510529e+04 -1.921857e+03        0
       0        0        0

8.805893e+05 9.182308e+04        0
9.182308e+04 2.933769e+03        0
       0        0        0

5.295551e+05 1.138259e+05        0
1.138259e+05 5.859873e+03        0
       0        0        0

1.742132e+05 1.225217e+05        0
1.225217e+05 7.059241e+02        0
       0        0        0

-1.807932e+05 1.224926e+05        0
1.224926e+05 -7.343265e+03        0
       0        0        0

-5.356162e+05 1.137453e+05        0
1.137453e+05 -1.230623e+04        0
       0        0        0

-8.856021e+05 9.171691e+04        0
9.171691e+04 -8.976524e+03        0
       0        0        0

-1.221877e+06 5.501827e+04        0
5.501827e+04 -3.486624e+03        0
       0        0        0

-1.537086e+06 1.414884e+04        0
1.414884e+04 -5.315189e+02        0
       0        0        0

1.499264e+06 1.701416e+04        0
1.701416e+04 -5.499974e+03        0
       0        0        0

1.177370e+06 5.411735e+04        0
5.411735e+04 -8.487016e+03        0
       0        0        0

8.484254e+05 8.845051e+04        0
8.845051e+04 -8.238347e+03        0
       0        0        0

5.103032e+05 1.128703e+05        0
1.128703e+05 -6.663747e+03        0
       0        0        0

1.670080e+05 1.249920e+05        0
1.249920e+05 -5.564333e+03        0
       0        0        0

-1.777463e+05 1.249640e+05        0
1.249640e+05 -5.228343e+03        0
       0        0        0

-5.205531e+05 1.127951e+05        0
1.127951e+05 -3.947105e+03        0
       0        0        0

-8.576971e+05 8.835327e+04        0
8.835327e+04 -1.994197e+03        0
       0        0        0

-1.185168e+06 5.403523e+04        0
5.403523e+04 -1.138853e+03        0
       0        0        0

-1.505031e+06 1.698164e+04        0
1.698164e+04 -3.213193e+03        0
       0        0        0

1.459796e+06 1.945658e+04        0
1.945658e+04 -7.810899e+03        0
       0        0        0

1.139384e+06 5.606245e+04        0
5.606245e+04 -1.042689e+04        0
       0        0        0

8.169164e+05 8.778633e+04        0
8.778633e+04 -1.179555e+04        0
       0        0        0

4.895893e+05 1.110143e+05        0
1.110143e+05 -1.101100e+04        0
       0        0        0

1.583845e+05 1.231211e+05        0
1.231211e+05 -9.042695e+03        0
       0        0        0

-1.740349e+05 1.230948e+05        0
1.230948e+05 -6.658389e+03        0
       0        0        0

-5.047916e+05 1.109433e+05        0
1.109433e+05 -4.527112e+03        0
       0        0        0

-8.312201e+05 8.769337e+04        0
8.769337e+04 -3.404844e+03        0
       0        0        0

-1.152324e+06 5.597989e+04        0
5.597989e+04 -4.233493e+03        0
       0        0        0

-1.470853e+06 1.942029e+04        0
1.942029e+04 -6.051070e+03        0
       0        0        0

1.417503e+06 2.100075e+04        0
2.100075e+04 -1.039117e+04        0
       0        0        0

1.102433e+06 5.795362e+04        0
5.795362e+04 -1.221361e+04        0
       0        0        0

7.871292e+05 8.803999e+04        0
8.803999e+04 -1.345815e+04        0
       0        0        0

4.695111e+05 1.095945e+05        0
1.095945e+05 -1.320837e+04        0
       0        0        0

1.496763e+05 1.208487e+05        0
1.208487e+05 -1.166489e+04        0
       0        0        0

-1.709137e+05 1.208238e+05        0
1.208238e+05 -9.619596e+03        0
       0        0        0

-4.903476e+05 1.095269e+05        0
1.095269e+05 -7.941010e+03        0
       0        0        0

-8.071604e+05 8.794967e+04        0
8.794967e+04 -7.412235e+03        0
       0        0        0

-1.121241e+06 5.787071e+04        0
5.787071e+04 -8.214146e+03        0
       0        0        0

-1.434634e+06 2.096260e+04        0
2.096260e+04 -9.397167e+03        0
       0        0        0

1.373231e+06 2.185250e+04        0
2.185250e+04 -1.345537e+04        0
       0        0        0

1.065742e+06 5.920953e+04        0
5.920953e+04 -1.453112e+04        0
       0        0        0

7.585195e+05 8.840635e+04        0
8.840635e+04 -1.537662e+04        0
       0        0        0

4.503480e+05 1.087434e+05        0
1.087434e+05 -1.532628e+04        0
       0        0        0

1.410883e+05 1.192220e+05        0
1.192220e+05 -1.439603e+04        0
       0        0        0

-1.685223e+05 1.191982e+05        0
1.191982e+05 -1.308196e+04        0
       0        0        0

-4.774328e+05 1.086783e+05        0
1.086783e+05 -1.205098e+04        0
       0        0        0

-7.849024e+05 8.831838e+04        0
8.831838e+04 -1.179300e+04        0
       0        0        0

-1.091060e+06 5.912727e+04        0
5.912727e+04 -1.231104e+04        0
       0        0        0

-1.397100e+06 2.181392e+04        0
2.181392e+04 -1.292060e+04        0
       0        0        0

1.327745e+06 2.227884e+04        0
2.227884e+04 -1.690001e+04        0
       0        0        0

1.028972e+06 5.991587e+04        0
5.991587e+04 -1.747275e+04        0
       0        0        0

7.305246e+05 8.867453e+04        0
8.867453e+04 -1.795506e+04        0
       0        0        0

4.317695e+05 1.082922e+05        0
1.082922e+05 -1.796677e+04        0
       0        0        0

1.325682e+05 1.182679e+05        0
1.182679e+05 -1.747145e+04        0
       0        0        0

-1.667461e+05 1.182451e+05        0
1.182451e+05 -1.674743e+04        0
       0        0        0

-4.656521e+05 1.082294e+05        0
1.082294e+05 -1.618936e+04        0
       0        0        0

-7.638134e+05 8.858898e+04        0
8.858898e+04 -1.607127e+04        0
       0        0        0

-1.061362e+06 5.983514e+04        0
5.983514e+04 -1.634825e+04        0
       0        0        0

-1.358916e+06 2.224068e+04        0
2.224068e+04 -1.662871e+04        0
       0        0        0

1.281545e+06 2.247419e+04        0
2.247419e+04 -2.065233e+04        0
       0        0        0

9.920194e+05 6.027162e+04        0
6.027162e+04 -2.090893e+04        0
       0        0        0

7.027542e+05 8.883199e+04        0
8.883199e+04 -2.113882e+04        0
       0        0        0

4.134505e+05 1.080745e+05        0
1.080745e+05 -2.114738e+04        0
       0        0        0

1.240138e+05 1.177722e+05        0
1.177722e+05 -2.090220e+04        0
       0        0        0

-1.654192e+05 1.177501e+05        0
1.177501e+05 -2.054154e+04        0
       0        0        0

-4.546149e+05 1.080138e+05        0
1.080138e+05 -2.027296e+04        0
       0        0        0

-7.434338e+05 8.874898e+04        0
8.874898e+04 -2.023157e+04        0
       0        0        0

-1.031965e+06 6.019295e+04        0
6.019295e+04 -2.037885e+04        0
       0        0        0

-1.320498e+06 2.243691e+04        0
2.243691e+04 -2.051218e+04        0
       0        0        0

1.234921e+06 2.255540e+04        0
2.255540e+04 -2.464608e+04        0
       0        0        0

9.548685e+05 6.043444e+04        0
6.043444e+04 -2.470563e+04        0
       0        0        0

6.749982e+05 8.891312e+04        0
8.891312e+04 -2.477029e+04        0
       0        0        0

3.951802e+05 1.079781e+05        0
1.079781e+05 -2.475090e+04        0
       0        0        0

1.153602e+05 1.175382e+05        0
1.175382e+05 -2.462698e+04        0
       0        0        0

-1.644132e+05 1.175169e+05        0
1.175169e+05 -2.446183e+04        0
       0        0        0

-4.440457e+05 1.079195e+05        0
1.079195e+05 -2.435382e+04        0
       0        0        0

-7.234862e+05 8.883274e+04        0
8.883274e+04 -2.436367e+04        0
       0        0        0

-1.002784e+06 6.035812e+04        0
6.035812e+04 -2.446594e+04        0
       0        0        0

-1.282062e+06 2.251920e+04        0
2.251920e+04 -2.456475e+04        0
       0        0        0

1.188034e+06 2.258498e+04        0
2.258498e+04 -2.883010e+04        0
       0        0        0

9.175394e+05 6.050156e+04        0
6.050156e+04 -2.875854e+04        0
       0        0        0

6.471630e+05 8.895056e+04        0
8.895056e+04 -2.871286e+04        0
       0        0        0

3.768532e+05 1.079394e+05        0
1.079394e+05 -2.865703e+04        0
       0        0        0

1.065815e+05 1.174376e+05        0
1.174376e+05 -2.858065e+04        0
       0        0        0

-1.636390e+05 1.174171e+05        0
1.174171e+05 -2.851025e+04        0
       0        0        0

-4.337753e+05 1.078827e+05        0
1.078827e+05 -2.848827e+04        0
       0        0        0

-7.038119e+05 8.887286e+04        0
8.887286e+04 -2.853891e+04        0
       0        0        0

-9.737730e+05 6.042774e+04        0
6.042774e+04 -2.864730e+04        0
       0        0        0

-1.243704e+06 2.254996e+04        0
2.254996e+04 -2.877097e+04        0
       0        0        0

1.140974e+06 2.259339e+04        0
2.259339e+04 -3.316306e+04        0
       0        0        0

8.800623e+05 6.052540e+04        0
6.052540e+04 -3.299432e+04        0
       0        0        0

6.192208e+05 8.896574e+04        0
8.896574e+04 -3.286878e+04        0
       0        0        0

3.584310e+05 1.079254e+05        0
1.079254e+05 -3.277486e+04        0
       0        0        0

9.767861e+04 1.173989e+05        0
1.173989e+05 -3.270845e+04        0
       0        0        0

-1.630357e+05 1.173790e+05        0
1.173790e+05 -3.267974e+04        0
       0        0        0

-4.237031e+05 1.078708e+05        0
1.078708e+05 -3.270505e+04        0
       0        0        0

-6.843206e+05 8.889074e+04        0
8.889074e+04 -3.279233e+04        0
       0        0        0

-9.448983e+05 6.045414e+04        0
6.045414e+04 -3.293312e+04        0
       0        0        0

-1.205448e+06 2.255959e+04        0
2.255959e+04 -3.310941e+04        0
       0        0        0

1.093796e+06 2.259420e+04        0
2.259420e+04 -3.760998e+04        0
       0        0        0

8.424690e+05 6.053153e+04        0
6.053153e+04 -3.736082e+04        0
       0        0        0

5.911764e+05 8.897061e+04        0
8.897061e+04 -3.717132e+04        0
       0        0        0

3.399116e+05 1.079211e+05        0
1.079211e+05 -3.704012e+04        0
       0        0        0

8.866732e+04 1.173861e+05        0
1.173861e+05 -3.696652e+04        0
       0        0        0

-1.625591e+05 1.173670e+05        0
1.173670e+05 -3.695415e+04        0
       0        0        0

-4.137670e+05 1.078684e+05        0
1.078684e+05 -3.700826e+04        0
       0        0        0

-6.649568e+05 8.889833e+04        0
8.889833e+04 -3.713027e+04        0
       0        0        0

-9.161315e+05 6.046285e+04        0
6.046285e+04 -3.731514e+04        0
       0        0        0

-1.167291e+06 2.256163e+04        0
2.256163e+04 -3.755499e+04        0
       0        0        0

1.046536e+06 2.259287e+04        0
2.259287e+04 -4.213971e+04        0
       0        0        0

8.047903e+05 6.053133e+04        0
6.053133e+04 -4.181855e+04        0
       0        0        0

5.630494e+05 8.897115e+04        0
8.897115e+04 -4.157330e+04        0
       0        0        0

3.213108e+05 1.079199e+05        0
1.079199e+05 -4.140635e+04        0
       0        0        0

7.957058e+04 1.173831e+05        0
1.173831e+05 -4.131868e+04        0
       0        0        0

-1.621741e+05 1.173647e+05        0
1.173647e+05 -4.131163e+04        0
       0        0        0

-4.039247e+05 1.078693e+05        0
1.078693e+05 -4.138631e+04        0
       0        0        0

-6.456819e+05 8.890160e+04        0
8.890160e+04 -4.154185e+04        0
       0        0        0

-8.874453e+05 6.046523e+04        0
6.046523e+04 -4.177484e+04        0
       0        0        0

-1.129211e+06 2.256152e+04        0
2.256152e+04 -4.208110e+04        0
       0        0        0

9.992266e+05 2.259128e+04        0
2.259128e+04 -4.672347e+04        0
       0        0        0

7.670554e+05 6.052934e+04        0
6.052934e+04 -4.633506e+04        0
       0        0        0

5.348644e+05 8.897008e+04        0
8.897008e+04 -4.603857e+04        0
       0        0        0

3.026516e+05 1.079195e+05        0
1.079195e+05 -4.583751e+04        0
       0        0        0

7.041399e+04 1.173830e+05        0
1.173830e+05 -4.573362e+04        0
       0        0        0

-1.618506e+05 1.173653e+05        0
1.173653e+05 -4.572765e+04        0
       0        0        0

-3.941435e+05 1.078708e+05        0
1.078708e+05 -4.581938e+04        0
       0        0        0

-6.264649e+05 8.890326e+04        0
8.890326e+04 -4.600736e+04        0
       0        0        0

-8.588131e+05 6.046585e+04        0
6.046585e+04 -4.628890e+04        0
       0        0        0

-1.091184e+06 2.256117e+04        0
2.256117e+04 -4.666086e+04        0
       0        0        0

9.518935e+05 2.258994e+04        0
2.258994e+04 -5.133412e+04        0
       0        0        0

7.292919e+05 6.052717e+04        0
6.052717e+04 -5.088173e+04        0
       0        0        0

5.066479e+05 8.896854e+04        0
8.896854e+04 -5.053691e+04        0
       0        0        0

2.839593e+05 1.079190e+05        0
1.079190e+05 -5.030333e+04        0
       0        0        0

6.122367e+04 1.173835e+05        0
1.173835e+05 -5.018305e+04        0
       0        0        0

-1.615608e+05 1.173665e+05        0
1.173665e+05 -5.017677e+04        0
       0        0        0

-3.843949e+05 1.078723e+05        0
1.078723e+05 -5.028403e+04        0
       0        0        0

-6.072783e+05 8.890444e+04        0
8.890444e+04 -5.050333e+04        0
       0        0        0

-8.302089e+05 6.046627e+04        0
6.046627e+04 -5.083227e+04        0
       0        0        0

-1.053182e+06 2.256106e+04        0
2.256106e+04 -5.126785e+04        0
       0        0        0

9.045625e+05 2.258889e+04        0
2.258889e+04 -5.594584e+04        0
       0        0        0

6.915258e+05 6.052523e+04        0
6.052523e+04 -5.543223e+04        0
       0        0        0

4.784257e+05 8.896693e+04        0
8.896693e+04 -5.504135e+04        0
       0        0        0

2.652596e+05 1.079183e+05        0
1.079183e+05 -5.477677e+04        0
       0        0        0

5.202523e+04 1.173837e+05        0
1.173837e+05 -5.464064e+04        0
       0        0        0

-1.612788e+05 1.173675e+05        0
1.173675e+05 -5.463377e+04        0
       0        0        0

-3.746530e+05 1.078736e+05        0
1.078736e+05 -5.475577e+04        0
       0        0        0

-5.880966e+05 8.890556e+04        0
8.890556e+04 -5.500523e+04        0
       0        0        0

-8.016072e+05 6.046692e+04        0
6.046692e+04 -5.537982e+04        0
       0        0        0

-1.015181e+06 2.256124e+04        0
2.256124e+04 -5.587646e+04        0
       0        0        0

8.572582e+05 2.258804e+04        0
2.258804e+04 -6.053390e+04        0
       0        0        0

6.537821e+05 6.052354e+04        0
6.052354e+04 -5.996173e+04        0
       0        0        0

4.502228e+05 8.896537e+04        0
8.896537e+04 -5.952685e+04        0
       0        0        0

2.465772e+05 1.079174e+05        0
1.079174e+05 -5.923272e+04        0
       0        0        0

4.284340e+04 1.173837e+05        0
1.173837e+05 -5.908152e+04        0
       0        0        0

-1.609800e+05 1.173682e+05        0
1.173682e+05 -5.907413e+04        0
       0        0        0

-3.648932e+05 1.078747e+05        0
1.078747e+05 -5.921030e+04        0
       0        0        0

-5.688952e+05 8.890673e+04        0
8.890673e+04 -5.948869e+04        0
       0        0        0

-7.729837e+05 6.046782e+04        0
6.046782e+04 -5.990702e+04        0
       0        0        0

-9.771550e+05 2.256162e+04        0
2.256162e+04 -6.046203e+04        0
       0        0        0

8.100040e+05 2.258731e+04        0
2.258731e+04 -6.507470e+04        0
       0        0        0

6.160845e+05 6.052203e+04        0
6.052203e+04 -6.444662e+04        0
       0        0        0

4.220629e+05 8.896388e+04        0
8.896388e+04 -6.396977e+04        0
       0        0        0

2.279361e+05 1.079165e+05        0
1.079165e+05 -6.364752e+04        0
       0        0        0

3.370185e+04 1.173836e+05        0
1.173836e+05 -6.348202e+04        0
       0        0        0

-1.606409e+05 1.173688e+05        0
1.173688e+05 -6.347426e+04        0
       0        0        0

-3.550921e+05 1.078758e+05        0
1.078758e+05 -6.362406e+04        0
       0        0        0

-5.496509e+05 8.890797e+04        0
8.890797e+04 -6.393015e+04        0
       0        0        0

-7.443148e+05 6.046890e+04        0
6.046890e+04 -6.439024e+04        0
       0        0        0

-9.390803e+05 2.256211e+04        0
2.256211e+04 -6.500097e+04        0
       0        0        0

7.628222e+05 2.258665e+04        0
2.258665e+04 -6.954571e+04        0
       0        0        0

5.784554e+05 6.052065e+04        0
6.052065e+04 -6.886439e+04        0
       0        0        0

3.939687e+05 8.896246e+04        0
8.896246e+04 -6.834760e+04        0
       0        0        0

2.093587e+05 1.079155e+05        0
1.079155e+05 -6.799863e+04        0
       0        0        0

2.462319e+04 1.173833e+05        0
1.173833e+05 -6.781963e+04        0
       0        0        0

-1.602388e+05 1.173692e+05        0
1.173692e+05 -6.781162e+04        0
       0        0        0

-3.452273e+05 1.078768e+05        0
1.078768e+05 -6.797449e+04        0
       0        0        0

-5.303411e+05 8.890927e+04        0
8.890927e+04 -6.830703e+04        0
       0        0        0

-7.155780e+05 6.047011e+04        0
6.047011e+04 -6.880691e+04        0
       0        0        0

-9.009344e+05 2.256268e+04        0
2.256268e+04 -6.947072e+04        0
       0        0        0

7.157342e+05 2.258604e+04        0
2.258604e+04 -7.392547e+04        0
       0        0        0

5.409165e+05 6.051936e+04        0
6.051936e+04 -7.319363e+04        0
       0        0        0

3.659618e+05 8.896109e+04        0
8.896109e+04 -7.263895e+04        0
       0        0        0

1.908667e+05 1.079145e+05        0
1.079145e+05 -7.226465e+04        0
       0        0        0

1.562893e+04 1.173829e+05        0
1.173829e+05 -7.207289e+04        0
       0        0        0

-1.597524e+05 1.173695e+05        0
1.173695e+05 -7.206471e+04        0
       0        0        0

-3.352773e+05 1.078777e+05        0
1.078777e+05 -7.224006e+04        0
       0        0        0

-5.109445e+05 8.891064e+04        0
8.891064e+04 -7.259778e+04        0
       0        0        0

-6.867518e+05 6.047141e+04        0
6.047141e+04 -7.313552e+04        0
       0        0        0

-8.626957e+05 2.256330e+04        0
2.256330e+04 -7.384982e+04        0
       0        0        0

6.687604e+05 2.258548e+04        0
2.258548e+04 -7.819359e+04        0
       0        0        0

5.034881e+05 6.051817e+04        0
6.051817e+04 -7.741397e+04        0
       0        0        0

3.380627e+05 8.895979e+04        0
8.895979e+04 -7.682347e+04        0
       0        0        0

1.724805e+05 1.079135e+05        0
1.079135e+05 -7.642524e+04        0
       0        0        0

6.739473e+03 1.173824e+05        0
1.173824e+05 -7.622142e+04        0
       0        0        0

-1.591614e+05 1.173698e+05        0
1.173698e+05 -7.621311e+04        0
       0        0        0

-3.252219e+05 1.078787e+05        0
1.078787e+05 -7.640033e+04        0
       0        0        0

-4.914408e+05 8.891206e+04        0
8.891206e+04 -7.678196e+04        0
       0        0        0

-6.578158e+05 6.047281e+04        0
6.047281e+04 -7.735565e+04        0
       0        0        0

-8.243436e+05 2.256397e+04        0
2.256397e+04 -7.811786e+04        0
       0        0        0

6.219200e+05 2.258501e+04        0
2.258501e+04 -8.233076e+04        0
       0        0        0

4.661896e+05 6.051712e+04        0
6.051712e+04 -8.150613e+04        0
       0        0        0

3.102907e+05 8.895855e+04        0
8.895855e+04 -8.088190e+04        0
       0        0        0

1.542196e+05 1.079124e+05        0
1.079124e+05 -8.046112e+04        0
       0        0        0

-2.025805e+03 1.173818e+05        0
1.173818e+05 -8.024593e+04        0
       0        0        0

-1.584464e+05 1.173699e+05        0
1.173699e+05 -8.023749e+04        0
       0        0        0

-3.150418e+05 1.078796e+05        0
1.078796e+05 -8.043593e+04        0
       0        0        0

-4.718107e+05 8.891355e+04        0
8.891355e+04 -8.084018e+04        0
       0        0        0

-6.287507e+05 6.047435e+04        0
6.047435e+04 -8.144792e+04        0
       0        0        0

-7.858589e+05 2.256473e+04        0
2.256473e+04 -8.225550e+04        0
       0        0        0

5.752310e+05 2.258467e+04        0
2.258467e+04 -8.631874e+04        0
       0        0        0

4.290391e+05 6.051625e+04        0
6.051625e+04 -8.545190e+04        0
       0        0        0

2.826642e+05 8.895738e+04        0
8.895738e+04 -8.479601e+04        0
       0        0        0

1.361023e+05 1.079112e+05        0
1.079112e+05 -8.435404e+04        0
       0        0        0

-1.064862e+04 1.173811e+05        0
1.173811e+05 -8.412816e+04        0
       0        0        0

-1.575893e+05 1.173699e+05        0
1.173699e+05 -8.411962e+04        0
       0        0        0

-3.047190e+05 1.078804e+05        0
1.078804e+05 -8.432862e+04        0
       0        0        0

-4.520361e+05 8.891511e+04        0
8.891511e+04 -8.475418e+04        0
       0        0        0

-5.995383e+05 6.047608e+04        0
6.047608e+04 -8.539405e+04        0
       0        0        0

-7.472230e+05 2.256562e+04        0
2.256562e+04 -8.624449e+04        0
       0        0        0

5.287105e+05 2.258454e+04        0
2.258454e+04 -9.014035e+04        0
       0        0        0

3.920540e+05 6.051560e+04        0
6.051560e+04 -8.923403e+04        0
       0        0        0

2.552006e+05 8.895622e+04        0
8.895622e+04 -8.854847e+04        0
       0        0        0

1.181460e+05 1.079099e+05        0
1.079099e+05 -8.808664e+04        0
       0        0        0

-1.911177e+04 1.173801e+05        0
1.173801e+05 -8.785086e+04        0
       0        0        0

-1.565728e+05 1.173697e+05        0
1.173697e+05 -8.784240e+04        0
       0        0        0

-2.942362e+05 1.078811e+05        0
1.078811e+05 -8.806140e+04        0
       0        0        0

-4.321000e+05 8.891667e+04        0
8.891667e+04 -8.850694e+04        0
       0        0        0

-5.701616e+05 6.047802e+04        0
6.047802e+04 -8.917691e+04        0
       0        0        0

-7.084185e+05 2.256672e+04        0
2.256672e+04 -9.006763e+04        0
       0        0        0

4.823742e+05 2.258464e+04        0
2.258464e+04 -9.377941e+04        0
       0        0        0

3.552507e+05 6.051499e+04        0
6.051499e+04 -9.283612e+04        0
       0        0        0

2.279161e+05 8.895486e+04        0
8.895486e+04 -9.212256e+04        0
       0        0        0

1.003666e+05 1.079086e+05        0
1.079086e+05 -9.164216e+04        0
       0        0        0

-2.739922e+04 1.173794e+05        0
1.173794e+05 -9.139765e+04        0
       0        0        0

-1.553810e+05 1.173696e+05        0
1.173696e+05 -9.139004e+04        0
       0        0        0

-2.835775e+05 1.078817e+05        0
1.078817e+05 -9.161887e+04        0
       0        0        0

-4.119864e+05 8.891804e+04        0
8.891804e+04 -9.208296e+04        0
       0        0        0

-5.406045e+05 6.048001e+04        0
6.048001e+04 -9.278066e+04        0
       0        0        0

-6.694291e+05 2.256804e+04        0
2.256804e+04 -9.370881e+04        0
       0        0        0

4.362374e+05 2.258476e+04        0
2.258476e+04 -9.722067e+04        0
       0        0        0

3.186446e+05 6.051362e+04        0
6.051362e+04 -9.624217e+04        0
       0        0        0

2.008256e+05 8.895267e+04        0
8.895267e+04 -9.550140e+04        0
       0        0        0

8.277841e+04 1.079075e+05        0
1.079075e+05 -9.500368e+04        0
       0        0        0

-3.549634e+04 1.173800e+05        0
1.173800e+05 -9.475272e+04        0
       0        0        0

-1.539983e+05 1.173710e+05        0
1.173710e+05 -9.474836e+04        0
       0        0        0

-2.727271e+05 1.078826e+05        0
1.078826e+05 -9.498792e+04        0
       0        0        0

-3.916801e+05 8.891858e+04        0
8.891858e+04 -9.546907e+04        0
       0        0        0

-5.108524e+05 6.048122e+04        0
6.048122e+04 -9.619118e+04        0
       0        0        0

-6.302397e+05 2.256939e+04        0
2.256939e+04 -9.715311e+04        0
       0        0        0

3.903153e+05 2.258393e+04        0
2.258393e+04 -1.004495e+05        0
       0        0        0

2.822504e+05 6.050897e+04        0
6.050897e+04 -9.943560e+04        0
       0        0        0

1.739414e+05 8.894809e+04        0
8.894809e+04 -9.866632e+04        0
       0        0        0

6.539285e+04 1.079080e+05        0
1.079080e+05 -9.815258e+04        0
       0        0        0

-4.339049e+04 1.173858e+05        0
1.173858e+05 -9.790019e+04        0
       0        0        0

-1.524097e+05 1.173775e+05        0
1.173775e+05 -9.790542e+04        0
       0        0        0

-2.616685e+05 1.078851e+05        0
1.078851e+05 -9.815937e+04        0
       0        0        0

-3.711657e+05 8.891672e+04        0
8.891672e+04 -9.865610e+04        0
       0        0        0

-4.808922e+05 6.047917e+04        0
6.047917e+04 -9.939707e+04        0
       0        0        0

-5.908373e+05 2.256979e+04        0
2.256979e+04 -1.003869e+05        0
       0        0        0

3.446254e+05 2.257915e+04        0
2.257915e+04 -1.034516e+05        0
       0        0        0

2.460823e+05 6.049452e+04        0
6.049452e+04 -1.023974e+05        0
       0        0        0

1.472712e+05 8.893753e+04        0
8.893753e+04 -1.015937e+05        0
       0        0        0

4.821519e+04 1.079137e+05        0
1.079137e+05 -1.010656e+05        0
       0        0        0

-5.107230e+04 1.174063e+05        0
1.174063e+05 -1.008229e+05        0
       0        0        0

-1.505988e+05 1.173987e+05        0
1.173987e+05 -1.008527e+05        0
       0        0        0

-2.503814e+05 1.078928e+05        0
1.078928e+05 -1.011309e+05        0
       0        0        0

-3.504252e+05 8.890889e+04        0
8.890889e+04 -1.016421e+05        0
       0        0        0

-4.507122e+05 6.046732e+04        0
6.046732e+04 -1.023916e+05        0
       0        0        0

-5.512134e+05 2.256625e+04        0
2.256625e+04 -1.033985e+05        0
       0        0        0

2.991935e+05 2.256264e+04        0
2.256264e+04 -1.062119e+05        0
       0        0        0

2.101534e+05 6.045511e+04        0
6.045511e+04 -1.051025e+05        0
       0        0        0

1.208122e+05 8.891361e+04        0
8.891361e+04 -1.042495e+05        0
       0        0        0

3.123844e+04 1.079336e+05        0
1.079336e+05 -1.037098e+05        0
       0        0        0

-5.853832e+04 1.174628e+05        0
1.174628e+05 -1.035005e+05        0
       0        0        0

-1.485457e+05 1.174560e+05        0
1.174560e+05 -1.035872e+05        0
       0        0        0

-2.388356e+05 1.079147e+05        0
1.079147e+05 -1.039122e+05        0
       0        0        0

-3.294327e+05 8.888770e+04        0
8.888770e+04 -1.044379e+05        0
       0        0        0

-4.203020e+05 6.043050e+04        0
6.043050e+04 -1.051764e+05        0
       0        0        0

-5.113694e+05 2.255097e+04        0
2.255097e+04 -1.061786e+05        0
       0        0        0

2.540642e+05 2.251628e+04        0
2.251628e+04 -1.087133e+05        0
       0        0        0

1.744739e+05 6.035859e+04        0
6.035859e+04 -1.075144e+05        0
       0        0        0

9.453969e+04 8.886257e+04        0
8.886257e+04 -1.065810e+05        0
       0        0        0

1.443134e+04 1.079873e+05        0
1.079873e+05 -1.060357e+05        0
       0        0        0

-6.579590e+04 1.175997e+05        0
1.175997e+05 -1.059064e+05        0
       0        0        0

-1.462212e+05 1.175935e+05        0
1.175935e+05 -1.061137e+05        0
       0        0        0

-2.269790e+05 1.079704e+05        0
1.079704e+05 -1.065317e+05        0
       0        0        0

-3.081434e+05 8.883940e+04        0
8.883940e+04 -1.070762e+05        0
       0        0        0

-3.896517e+05 6.033661e+04        0
6.033661e+04 -1.077677e+05        0
       0        0        0

-4.713280e+05 2.250586e+04        0
2.250586e+04 -1.087224e+05        0
       0        0        0

2.093227e+05 2.240169e+04        0
2.240169e+04 -1.109353e+05        0
       0        0        0

1.390452e+05 6.014315e+04        0
6.014315e+04 -1.095786e+05        0
       0        0        0

6.838562e+04 8.876212e+04        0
8.876212e+04 -1.085091e+05        0
       0        0        0

-2.282056e+03 1.081149e+05        0
1.081149e+05 -1.079727e+05        0
       0        0        0

-7.287079e+04 1.178994e+05        0
1.178994e+05 -1.080066e+05        0
       0        0        0

-1.435792e+05 1.178940e+05        0
1.178940e+05 -1.084457e+05        0
       0        0        0

-2.147167e+05 1.081000e+05        0
1.081000e+05 -1.090414e+05        0
       0        0        0

-2.864728e+05 8.874168e+04        0
8.874168e+04 -1.096196e+05        0
       0        0        0

-3.587471e+05 6.012380e+04        0
6.012380e+04 -1.102045e+05        0
       0        0        0

-4.311566e+05 2.239253e+04        0
2.239253e+04 -1.110326e+05        0
       0        0        0

1.651319e+05 2.214432e+04        0
2.214432e+04 -1.128530e+05        0
       0        0        0

1.038447e+05 5.970312e+04        0
5.970312e+04 -1.112198e+05        0
       0        0        0

4.220249e+04 8.858465e+04        0
8.858465e+04 -1.099334e+05        0
       0        0        0

-1.904998e+04 1.083893e+05        0
1.083893e+05 -1.094390e+05        0
       0        0        0

-7.981612e+04 1.184969e+05        0
1.184969e+05 -1.097643e+05        0
       0        0        0

-1.405451e+05 1.184922e+05        0
1.184922e+05 -1.105987e+05        0
       0        0        0

-2.018834e+05 1.083763e+05        0
1.083763e+05 -1.115058e+05        0
       0        0        0

-2.642623e+05 8.856696e+04        0
8.856696e+04 -1.121575e+05        0
       0        0        0

-3.275583e+05 5.968645e+04        0
5.968645e+04 -1.125548e+05        0
       0        0        0

-3.910073e+05 2.213646e+04        0
2.213646e+04 -1.131234e+05        0
       0        0        0

1.217833e+05 2.161400e+04        0
2.161400e+04 -1.144411e+05        0
       0        0        0

6.878744e+04 5.889035e+04        0
5.889035e+04 -1.123640e+05        0
       0        0        0

1.571640e+04 8.832063e+04        0
8.832063e+04 -1.107872e+05        0
       0        0        0

-3.611313e+04 1.089262e+05        0
1.089262e+05 -1.104094e+05        0
       0        0        0

-8.671362e+04 1.195641e+05        0
1.195641e+05 -1.111680e+05        0
       0        0        0

-1.370110e+05 1.195601e+05        0
1.195601e+05 -1.125578e+05        0
       0        0        0

-1.882204e+05 1.089153e+05        0
1.089153e+05 -1.139320e+05        0
       0        0        0

-2.412337e+05 8.830573e+04        0
8.830573e+04 -1.147518e+05        0
       0        0        0

-2.960080e+05 5.887640e+04        0
5.887640e+04 -1.149002e+05        0
       0        0        0

-3.511788e+05 2.160747e+04        0
2.160747e+04 -1.150274e+05        0
       0        0        0

7.973808e+04 2.061775e+04        0
2.061775e+04 -1.157044e+05        0
       0        0        0

3.364350e+04 5.758622e+04        0
5.758622e+04 -1.130375e+05        0
       0        0        0

-1.150179e+04 8.805701e+04        0
8.805701e+04 -1.112544e+05        0
       0        0        0

-5.375858e+04 1.098608e+05        0
1.098608e+05 -1.111289e+05        0
       0        0        0

-9.364120e+04 1.211906e+05        0
1.211906e+05 -1.123210e+05        0
       0        0        0

-1.328593e+05 1.211873e+05        0
1.211873e+05 -1.141803e+05        0
       0        0        0

-1.734162e+05 1.098519e+05        0
1.098519e+05 -1.160507e+05        0
       0        0        0

-2.169616e+05 8.804498e+04        0
8.804498e+04 -1.172229e+05        0
       0        0        0

-2.639016e+05 5.757502e+04        0
5.757502e+04 -1.172497e+05        0
       0        0        0

-3.121799e+05 2.061259e+04        0
2.061259e+04 -1.167877e+05        0
       0        0        0

3.955896e+04 1.897466e+04        0
1.897466e+04 -1.167373e+05        0
       0        0        0

-2.130945e+03 5.600343e+04        0
5.600343e+04 -1.137722e+05        0
       0        0        0

-3.990983e+04 8.814831e+04        0
8.814831e+04 -1.123664e+05        0
       0        0        0

-7.207017e+04 1.111940e+05        0
1.111940e+05 -1.126528e+05        0
       0        0        0

-1.005425e+05 1.229888e+05        0
1.229888e+05 -1.136344e+05        0
       0        0        0

-1.280783e+05 1.229865e+05        0
1.229865e+05 -1.149867e+05        0
       0        0        0

-1.573425e+05 1.111876e+05        0
1.111876e+05 -1.167624e+05        0
       0        0        0

-1.909948e+05 8.813936e+04        0
8.813936e+04 -1.185457e+05        0
       0        0        0

-2.307752e+05 5.599500e+04        0
5.599500e+04 -1.191512e+05        0
       0        0        0

-2.747115e+05 1.897086e+04        0
1.897086e+04 -1.184475e+05        0
       0        0        0

1.332664e+03 1.698839e+04        0
1.698839e+04 -1.183546e+05        0
       0        0        0

-3.948462e+04 5.554894e+04        0
5.554894e+04 -1.167281e+05        0
       0        0        0

-6.937562e+04 8.941156e+04        0
8.941156e+04 -1.176688e+05        0
       0        0        0

-9.020197e+04 1.121453e+05        0
1.121453e+05 -1.177590e+05        0
       0        0        0

-1.069695e+05 1.232114e+05        0
1.232114e+05 -1.160499e+05        0
       0        0        0

-1.229972e+05 1.232103e+05        0
1.232103e+05 -1.139169e+05        0
       0        0        0

-1.407547e+05 1.121420e+05        0
1.121420e+05 -1.131985e+05        0
       0        0        0

-1.634501e+05 8.940625e+04        0
8.940625e+04 -1.151598e+05        0
       0        0        0

-1.958130e+05 5.554328e+04        0
5.554328e+04 -1.185777e+05        0
       0        0        0

-2.391883e+05 1.698581e+04        0
1.698581e+04 -1.195201e+05        0
       0        0        0

-3.730698e+04 1.768212e+04        0
1.768212e+04 -1.225018e+05        0
       0        0        0

-7.921513e+04 6.092528e+04        0
6.092528e+04 -1.312189e+05        0
       0        0        0

-9.677843e+04 9.179748e+04        0
9.179748e+04 -1.359303e+05        0
       0        0        0

-1.054249e+05 1.094164e+05        0
1.094164e+05 -1.313451e+05        0
       0        0        0

-1.119457e+05 1.174794e+05        0
1.174794e+05 -1.210598e+05        0
       0        0        0

-1.183976e+05 1.174798e+05        0
1.174798e+05 -1.092835e+05        0
       0        0        0

-1.262030e+05 1.094171e+05        0
1.094171e+05 -1.002826e+05        0
       0        0        0

-1.373403e+05 9.179728e+04        0
9.179728e+04 -9.818851e+04        0
       0        0        0

-1.583360e+05 6.092311e+04        0
6.092311e+04 -1.063341e+05        0
       0        0        0

-2.038752e+05 1.768034e+04        0
1.768034e+04 -1.186898e+05        0
       0        0        0

-8.896940e+04 4.027607e+04        0
4.027607e+04 -1.544010e+05        0
       0        0        0

-1.122642e+05 7.542860e+04        0
7.542860e+04 -1.837953e+05        0
       0        0        0

-1.135029e+05 8.860847e+04        0
8.860847e+04 -1.797197e+05        0
       0        0        0

-1.138277e+05 9.507411e+04        0
9.507411e+04 -1.589763e+05        0
       0        0        0

-1.141923e+05 9.790488e+04        0
9.790488e+04 -1.301277e+05        0
       0        0        0

-1.152727e+05 9.790675e+04        0
9.790675e+04 -9.933695e+04        0
       0        0        0

-1.172827e+05 9.507921e+04        0
9.507921e+04 -7.213150e+04        0
       0        0        0

-1.209417e+05 8.861518e+04        0
8.861518e+04 -5.471941e+04        0
       0        0        0

-1.272279e+05 7.543414e+04        0
7.543414e+04 -5.569092e+04        0
       0        0        0

-1.567544e+05 4.027585e+04        0
4.027585e+04 -9.132292e+04        0
       0        0        0

POINT_DATA     451
VECTORS DISPLACEMENT_1.200000e-01 double
0.000000e+00    0.000000e+00    0.000000e+00
0.000000e+00    0.000000e+00    0.000000e+00
0.000000e+00    0.000000e+00    0.000000e+00
0.000000e+00    0.000000e+00    0.000000e+00
0.000000e+00    0.000000e+00    0.000000e+00
0.000000e+00    0.000000e+00    0.000000e+00
0.000000e+00    0.000000e+00    0.000000e+00
0.000000e+00    0.000000e+00    0.000000e+00
0.000000e+00    0.000000e+00    0.000000e+00
0.000000e+00    0.000000e+00    0.000000e+00
0.000000e+00    0.000000e+00    0.000000e+00
-1.362285e-06    -9.904055e-07    0.000000e+00
-8.631799e-07    -4.967886e-07    0.000000e+00
-6.158884e-07    -2.574289e-07    0.000000e+00
-3.976412e-07    -1.274834e-07    0.000000e+00
-1.960457e-07    -6.023089e-08    0.000000e+00
-3.921865e-20    -3.932059e-08    0.000000e+00
1.960457e-07    -6.023089e-08    0.000000e+00
3.976412e-07    -1.274834e-07    0.000000e+00
6.158884e-07    -2.574289e-07    0.000000e+00
8.631799e-07    -4.967886e-07    0.000000e+00
1.362285e-06    -9.904055e-07    0.000000e+00
-2.570334e-06    -1.647146e-06    0.000000e+00
-1.878801e-06    -1.191844e-06    0.000000e+00
-1.318726e-06    -8.371740e-07    0.000000e+00
-8.506317e-07    -6.177857e-07    0.000000e+00
-4.177833e-07    -4.982437e-07    0.000000e+00
-8.282394e-20    -4.602729e-07    0.000000e+00
4.177833e-07    -4.982437e-07    0.000000e+00
8.506317e-07    -6.177857e-07    0.000000e+00
1.318726e-06    -8.371740e-07    0.000000e+00
1.878801e-06    -1.191844e-06    0.000000e+00
2.570334e-06    -1.647146e-06    0.000000e+00
-3.737979e-06    -2.463762e-06    0.000000e+00
-2.857003e-06    -2.007465e-06    0.000000e+00
-2.055731e-06    -1.647684e-06    0.000000e+00
-1.330836e-06    -1.393907e-06    0.000000e+00
-6.548319e-07    -1.247636e-06    0.000000e+00
-1.305622e-19    -1.199989e-06    0.000000e+00
6.548319e-07    -1.247636e-06    0.000000e+00
1.330836e-06    -1.393907e-06    0.000000e+00
2.055731e-06    -1.647684e-06    0.000000e+00
2.857003e-06    -2.007465e-06    0.000000e+00
3.737979e-06    -2.463762e-06    0.000000e+00
-4.892692e-06    -3.471563e-06    0.000000e+00
-3.802955e-06    -3.025680e-06    0.000000e+00
-2.776801e-06    -2.671898e-06    0.000000e+00
-1.813137e-06    -2.416590e-06    0.000000e+00
-8.950548e-07    -2.263342e-06    0.000000e+00
-1.804180e-19    -2.212527e-06    0.000000e+00
8.950548e-07    -2.263342e-06    0.000000e+00
1.813137e-06    -2.416590e-06    0.000000e+00
2.776801e-06    -2.671898e-06    0.000000e+00
3.802955e-06    -3.025680e-06    0.000000e+00
4.892692e-06    -3.471563e-06    0.000000e+00
-6.027853e-06    -4.697674e-06    0.000000e+00
-4.721334e-06    -4.262198e-06    0.000000e+00
-3.474925e-06    -3.919098e-06    0.000000e+00
-2.282656e-06    -3.670508e-06    0.000000e+00
-1.130728e-06    -3.520017e-06    0.000000e+00
-2.313194e-19    -3.469642e-06    0.000000e+00
1.130728e-06    -3.520017e-06    0.000000e+00
2.282656e-06    -3.670508e-06    0.000000e+00
3.474925e-06    -3.919098e-06    0.000000e+00
4.721334e-06    -4.262198e-06    0.000000e+00
6.027853e-06    -4.697674e-06    0.000000e+00
-7.138274e-06    -6.145272e-06    0.000000e+00
-5.613979e-06    -5.721317e-06    0.000000e+00
-4.150048e-06    -5.389068e-06    0.000000e+00
-2.736184e-06    -5.149274e-06    0.000000e+00
-1.358573e-06    -5.004135e-06    0.000000e+00
-2.834913e-19    -4.955532e-06    0.000000e+00
1.358573e-06    -5.004135e-06    0.000000e+00
2.736184e-06    -5.149274e-06    0.000000e+00
4.150048e-06    -5.389068e-06    0.000000e+00
5.613979e-06    -5.721317e-06    0.000000e+00
7.138274e-06    -6.145272e-06    0.000000e+00
-8.220239e-06    -7.811900e-06    0.000000e+00
-6.481212e-06    -7.399940e-06    0.000000e+00
-4.803456e-06    -7.078264e-06    0.000000e+00
-3.173950e-06    -6.847046e-06    0.000000e+00
-1.578237e-06    -6.707496e-06    0.000000e+00
-3.328045e-19    -6.660817e-06    0.000000e+00
1.578237e-06    -6.707496e-06    0.000000e+00
3.173950e-06    -6.847046e-06    0.000000e+00
4.803456e-06    -7.078264e-06    0.000000e+00
6.481212e-06    -7.399940e-06    0.000000e+00
8.220239e-06    -7.811900e-06    0.000000e+00
-9.271693e-06    -9.692285e-06    0.000000e+00
-7.322926e-06    -9.292602e-06    0.000000e+00
-5.436171e-06    -8.981152e-06    0.000000e+00
-3.596931e-06    -8.757938e-06    0.000000e+00
-1.790184e-06    -8.623554e-06    0.000000e+00
-3.813501e-19    -8.578667e-06    0.000000e+00
1.790184e-06    -8.623554e-06    0.000000e+00
3.596931e-06    -8.757938e-06    0.000000e+00
5.436171e-06    -8.981152e-06    0.000000e+00
7.322926e-06    -9.292602e-06    0.000000e+00
9.271693e-06    -9.692285e-06    0.000000e+00
-1.029158e-05    -1.178023e-05    0.000000e+00
-8.138965e-06    -1.139296e-05    0.000000e+00
-6.048825e-06    -1.109149e-05    0.000000e+00
-4.005937e-06    -1.087581e-05    0.000000e+00
-1.994923e-06    -1.074618e-05    0.000000e+00
-4.313515e-19    -1.070292e-05    0.000000e+00
1.994923e-06    -1.074618e-05    0.000000e+00
4.005937e-06    -1.087581e-05    0.000000e+00
6.048825e-06    -1.109149e-05    0.000000e+00
8.138965e-06    -1.139296e-05    0.000000e+00
1.029158e-05    -1.178023e-05    0.000000e+00
-1.127940e-05    -1.406924e-05    0.000000e+00
-8.929215e-06    -1.369443e-05    0.000000e+00
-6.641759e-06    -1.340281e-05    0.000000e+00
-4.401479e-06    -1.319437e-05    0.000000e+00
-2.192804e-06    -1.306920e-05    0.000000e+00
-4.819088e-19    -1.302745e-05    0.000000e+00
2.192804e-06    -1.306920e-05    0.000000e+00
4.401479e-06    -1.319437e-05    0.000000e+00
6.641759e-06    -1.340281e-05    0.000000e+00
8.929215e-06    -1.369443e-05    0.000000e+00
1.127940e-05    -1.406924e-05    0.000000e+00
-1.223493e-05    -1.655275e-05    0.000000e+00
-9.693613e-06    -1.619042e-05    0.000000e+00
-7.215139e-06    -1.590858e-05    0.000000e+00
-4.783833e-06    -1.570721e-05    0.000000e+00
-2.384028e-06    -1.558635e-05    0.000000e+00
-5.224605e-19    -1.554605e-05    0.000000e+00
2.384028e-06    -1.558635e-05    0.000000e+00
4.783833e-06    -1.570721e-05    0.000000e+00
7.215139e-06    -1.590858e-05    0.000000e+00
9.693613e-06    -1.619042e-05    0.000000e+00
1.223493e-05    -1.655275e-05    0.000000e+00
-1.315810e-05    -1.922421e-05    0.000000e+00
-1.043212e-05    -1.887438e-05    0.000000e+00
-7.769042e-06    -1.860228e-05    0.000000e+00
-5.153136e-06    -1.840791e-05    0.000000e+00
-2.568697e-06    -1.829127e-05    0.000000e+00
-5.676180e-19    -1.825239e-05    0.000000e+00
2.568697e-06    -1.829127e-05    0.000000e+00
5.153136e-06    -1.840791e-05    0.000000e+00
7.769042e-06    -1.860228e-05    0.000000e+00
1.043212e-05    -1.887438e-05    0.000000e+00
1.315810e-05    -1.922421e-05    0.000000e+00
-1.404889e-05    -2.207711e-05    0.000000e+00
-1.114473e-05    -2.173977e-05    0.000000e+00
-8.303497e-06    -2.147740e-05    0.000000e+00
-5.509448e-06    -2.128999e-05    0.000000e+00
-2.746858e-06    -2.117754e-05    0.000000e+00
-6.189693e-19    -2.114005e-05    0.000000e+00
2.746858e-06    -2.117754e-05    0.000000e+00
5.509448e-06    -2.128999e-05    0.000000e+00
8.303497e-06    -2.147740e-05    0.000000e+00
1.114473e-05    -2.173977e-05    0.000000e+00
1.404889e-05    -2.207711e-05    0.000000e+00
-1.490727e-05    -2.510494e-05    0.000000e+00
-1.183143e-05    -2.478010e-05    0.000000e+00
-8.818515e-06    -2.452745e-05    0.000000e+00
-5.852794e-06    -2.434698e-05    0.000000e+00
-2.918532e-06    -2.423870e-05    0.000000e+00
-6.530624e-19    -2.420261e-05    0.000000e+00
2.918532e-06    -2.423870e-05    0.000000e+00
5.852794e-06    -2.434698e-05    0.000000e+00
8.818515e-06    -2.452745e-05    0.000000e+00
1.183143e-05    -2.478010e-05    0.000000e+00
1.490727e-05    -2.510494e-05    0.000000e+00
-1.573326e-05    -2.830122e-05    0.000000e+00
-1.249221e-05    -2.798887e-05    0.000000e+00
-9.314100e-06    -2.774594e-05    0.000000e+00
-6.183182e-06    -2.757241e-05    0.000000e+00
-3.083726e-06    -2.746830e-05    0.000000e+00
-6.855673e-19    -2.743360e-05    0.000000e+00
3.083726e-06    -2.746830e-05    0.000000e+00
6.183182e-06    -2.757241e-05    0.000000e+00
9.314100e-06    -2.774594e-05    0.000000e+00
1.249221e-05    -2.798887e-05    0.000000e+00
1.573326e-05    -2.830122e-05    0.000000e+00
-1.652685e-05    -3.165945e-05    0.000000e+00
-1.312708e-05    -3.135960e-05    0.000000e+00
-9.790251e-06    -3.112639e-05    0.000000e+00
-6.500615e-06    -3.095980e-05    0.000000e+00
-3.242442e-06    -3.085985e-05    0.000000e+00
-7.126723e-19    -3.082654e-05    0.000000e+00
3.242442e-06    -3.085985e-05    0.000000e+00
6.500615e-06    -3.095980e-05    0.000000e+00
9.790251e-06    -3.112639e-05    0.000000e+00
1.312708e-05    -3.135960e-05    0.000000e+00
1.652685e-05    -3.165945e-05    0.000000e+00
-1.728805e-05    -3.517317e-05    0.000000e+00
-1.373604e-05    -3.488581e-05    0.000000e+00
-1.024697e-05    -3.466231e-05    0.000000e+00
-6.805092e-06    -3.450267e-05    0.000000e+00
-3.394680e-06    -3.440689e-05    0.000000e+00
-7.133076e-19    -3.437496e-05    0.000000e+00
3.394680e-06    -3.440689e-05    0.000000e+00
6.805092e-06    -3.450267e-05    0.000000e+00
1.024697e-05    -3.466231e-05    0.000000e+00
1.373604e-05    -3.488581e-05    0.000000e+00
1.728805e-05    -3.517317e-05    0.000000e+00
-1.801686e-05    -3.883589e-05    0.000000e+00
-1.431909e-05    -3.856102e-05    0.000000e+00
-1.068425e-05    -3.834724e-05    0.000000e+00
-7.096614e-06    -3.819454e-05    0.000000e+00
-3.540441e-06    -3.810292e-05    0.000000e+00
-7.265425e-19    -3.807238e-05    0.000000e+00
3.540441e-06    -3.810292e-05    0.000000e+00
7.096614e-06    -3.819454e-05    0.000000e+00
1.068425e-05    -3.834724e-05    0.000000e+00
1.431909e-05    -3.856102e-05    0.000000e+00
1.801686e-05    -3.883589e-05    0.000000e+00
-1.871327e-05    -4.264113e-05    0.000000e+00
-1.487622e-05    -4.237876e-05    0.000000e+00
-1.110210e-05    -4.217469e-05    0.000000e+00
-7.375180e-06    -4.202893e-05    0.000000e+00
-3.679724e-06    -4.194147e-05    0.000000e+00
-7.574592e-19    -4.191232e-05    0.000000e+00
3.679724e-06    -4.194147e-05    0.000000e+00
7.375180e-06    -4.202893e-05    0.000000e+00
1.110210e-05    -4.217469e-05    0.000000e+00
1.487622e-05    -4.237876e-05    0.000000e+00
1.871327e-05    -4.264113e-05    0.000000e+00
-1.937730e-05    -4.658241e-05    0.000000e+00
-1.540744e-05    -4.633253e-05    0.000000e+00
-1.150052e-05    -4.613819e-05    0.000000e+00
-7.640790e-06    -4.599936e-05    0.000000e+00
-3.812528e-06    -4.591607e-05    0.000000e+00
-8.059518e-19    -4.588831e-05    0.000000e+00
3.812528e-06    -4.591607e-05    0.000000e+00
7.640790e-06    -4.599936e-05    0.000000e+00
1.150052e-05    -4.613819e-05    0.000000e+00
1.540744e-05    -4.633253e-05    0.000000e+00
1.937730e-05    -4.658241e-05    0.000000e+00
-2.000893e-05    -5.065326e-05    0.000000e+00
-1.591275e-05    -5.041588e-05    0.000000e+00
-1.187950e-05    -5.023125e-05    0.000000e+00
-7.893443e-06    -5.009937e-05    0.000000e+00
-3.938855e-06    -5.002024e-05    0.000000e+00
-8.749850e-19    -4.999386e-05    0.000000e+00
3.938855e-06    -5.002024e-05    0.000000e+00
7.893443e-06    -5.009937e-05    0.000000e+00
1.187950e-05    -5.023125e-05    0.000000e+00
1.591275e-05    -5.041588e-05    0.000000e+00
2.000893e-05    -5.065326e-05    0.000000e+00
-2.060817e-05    -5.484720e-05    0.000000e+00
-1.639214e-05    -5.462231e-05    0.000000e+00
-1.223904e-05    -5.444739e-05    0.000000e+00
-8.133140e-06    -5.432245e-05    0.000000e+00
-4.058703e-06    -5.424749e-05    0.000000e+00
-9.258070e-19    -5.422250e-05    0.000000e+00
4.058703e-06    -5.424749e-05    0.000000e+00
8.133140e-06    -5.432245e-05    0.000000e+00
1.223904e-05    -5.444739e-05    0.000000e+00
1.639214e-05    -5.462231e-05    0.000000e+00
2.060817e-05    -5.484720e-05    0.000000e+00
-2.117503e-05    -5.915774e-05    0.000000e+00
-1.684562e-05    -5.894535e-05    0.000000e+00
-1.257915e-05    -5.878015e-05    0.000000e+00
-8.359880e-06    -5.866215e-05    0.000000e+00
-4.172074e-06    -5.859135e-05    0.000000e+00
-9.637117e-19    -5.856775e-05    0.000000e+00
4.172074e-06    -5.859135e-05    0.000000e+00
8.359880e-06    -5.866215e-05    0.000000e+00
1.257915e-05    -5.878015e-05    0.000000e+00
1.684562e-05    -5.894535e-05    0.000000e+00
2.117503e-05    -5.915774e-05    0.000000e+00
-2.170948e-05    -6.357842e-05    0.000000e+00
-1.727319e-05    -6.337852e-05    0.000000e+00
-1.289983e-05    -6.322304e-05    0.000000e+00
-8.573665e-06    -6.311198e-05    0.000000e+00
-4.278966e-06    -6.304535e-05    0.000000e+00
-1.013898e-18    -6.302314e-05    0.000000e+00
4.278966e-06    -6.304535e-05    0.000000e+00
8.573665e-06    -6.311198e-05    0.000000e+00
1.289983e-05    -6.322304e-05    0.000000e+00
1.727319e-05    -6.337852e-05    0.000000e+00
2.170948e-05    -6.357842e-05    0.000000e+00
-2.221155e-05    -6.810275e-05    0.000000e+00
-1.767484e-05    -6.791534e-05    0.000000e+00
-1.320107e-05    -6.776958e-05    0.000000e+00
-8.774493e-06    -6.766546e-05    0.000000e+00
-4.379381e-06    -6.760299e-05    0.000000e+00
-1.029357e-18    -6.758217e-05    0.000000e+00
4.379381e-06    -6.760299e-05    0.000000e+00
8.774493e-06    -6.766546e-05    0.000000e+00
1.320107e-05    -6.776958e-05    0.000000e+00
1.767484e-05    -6.791534e-05    0.000000e+00
2.221155e-05    -6.810275e-05    0.000000e+00
-2.268123e-05    -7.272425e-05    0.000000e+00
-1.805059e-05    -7.254934e-05    0.000000e+00
-1.348288e-05    -7.241330e-05    0.000000e+00
-8.962366e-06    -7.231612e-05    0.000000e+00
-4.473317e-06    -7.225781e-05    0.000000e+00
-1.052650e-18    -7.223838e-05    0.000000e+00
4.473317e-06    -7.225781e-05    0.000000e+00
8.962366e-06    -7.231612e-05    0.000000e+00
1.348288e-05    -7.241330e-05    0.000000e+00
1.805059e-05    -7.254934e-05    0.000000e+00
2.268123e-05    -7.272425e-05    0.000000e+00
-2.311851e-05    -7.743645e-05    0.000000e+00
-1.840041e-05    -7.727403e-05    0.000000e+00
-1.374525e-05    -7.714771e-05    0.000000e+00
-9.137283e-06    -7.705747e-05    0.000000e+00
-4.560776e-06    -7.700333e-05    0.000000e+00
-1.060062e-18    -7.698528e-05    0.000000e+00
4.560776e-06    -7.700333e-05    0.000000e+00
9.137283e-06    -7.705747e-05    0.000000e+00
1.374525e-05    -7.714771e-05    0.000000e+00
1.840041e-05    -7.727403e-05    0.000000e+00
2.311851e-05    -7.743645e-05    0.000000e+00
-2.352339e-05    -8.223287e-05    0.000000e+00
-1.872433e-05    -8.208294e-05    0.000000e+00
-1.398819e-05    -8.196633e-05    0.000000e+00
-9.299244e-06    -8.188304e-05    0.000000e+00
-4.641756e-06    -8.183307e-05    0.000000e+00
-1.040156e-18    -8.181641e-05    0.000000e+00
4.641756e-06    -8.183307e-05    0.000000e+00
9.299244e-06    -8.188304e-05    0.000000e+00
1.398819e-05    -8.196633e-05    0.000000e+00
1.872433e-05    -8.208294e-05    0.000000e+00
2.352339e-05    -8.223287e-05    0.000000e+00
-2.389588e-05    -8.710701e-05    0.000000e+00
-1.902233e-05    -8.696958e-05    0.000000e+00
-1.421170e-05    -8.686269e-05    0.000000e+00
-9.448243e-06    -8.678635e-05    0.000000e+00
-4.716254e-06    -8.674055e-05    0.000000e+00
-1.031263e-18    -8.672529e-05    0.000000e+00
4.716254e-06    -8.674055e-05    0.000000e+00
9.448243e-06    -8.678635e-05    0.000000e+00
1.421170e-05    -8.686269e-05    0.000000e+00
1.902233e-05    -8.696958e-05    0.000000e+00
2.389588e-05    -8.710701e-05    0.000000e+00
-2.423598e-05    -9.205238e-05    0.000000e+00
-1.929443e-05    -9.192745e-05    0.000000e+00
-1.441576e-05    -9.183029e-05    0.000000e+00
-9.584269e-06    -9.176092e-05    0.000000e+00
-4.784257e-06    -9.171932e-05    0.000000e+00
-1.067262e-18    -9.170546e-05    0.000000e+00
4.784257e-06    -9.171932e-05    0.000000e+00
9.584269e-06    -9.176092e-05    0.000000e+00
1.441576e-05    -9.183029e-05    0.000000e+00
1.929443e-05    -9.192745e-05    0.000000e+00
2.423598e-05    -9.205238e-05    0.000000e+00
-2.454370e-05    -9.706249e-05    0.000000e+00
-1.954063e-05    -9.695004e-05    0.000000e+00
-1.460037e-05    -9.686264e-05    0.000000e+00
-9.707284e-06    -9.680029e-05    0.000000e+00
-4.845739e-06    -9.676294e-05    0.000000e+00
-1.109613e-18    -9.675050e-05    0.000000e+00
4.845739e-06    -9.676294e-05    0.000000e+00
9.707284e-06    -9.680029e-05    0.000000e+00
1.460037e-05    -9.686264e-05    0.000000e+00
1.954063e-05    -9.695004e-05    0.000000e+00
2.454370e-05    -9.706249e-05    0.000000e+00
-2.481907e-05    -1.021308e-04    0.000000e+00
-1.976094e-05    -1.020308e-04    0.000000e+00
-1.476547e-05    -1.019532e-04    0.000000e+00
-9.817210e-06    -1.018980e-04    0.000000e+00
-4.900637e-06    -1.018650e-04    0.000000e+00
-1.187540e-18    -1.018540e-04    0.000000e+00
4.900637e-06    -1.018650e-04    0.000000e+00
9.817210e-06    -1.018980e-04    0.000000e+00
1.476547e-05    -1.019532e-04    0.000000e+00
1.976094e-05    -1.020308e-04    0.000000e+00
2.481907e-05    -1.021308e-04    0.000000e+00
-2.506224e-05    -1.072508e-04    0.000000e+00
-1.995543e-05    -1.071633e-04    0.000000e+00
-1.491098e-05    -1.070955e-04    0.000000e+00
-9.913875e-06    -1.070476e-04    0.000000e+00
-4.948828e-06    -1.070191e-04    0.000000e+00
-1.274785e-18    -1.070097e-04    0.000000e+00
4.948828e-06    -1.070191e-04    0.000000e+00
9.913875e-06    -1.070476e-04    0.000000e+00
1.491098e-05    -1.070955e-04    0.000000e+00
1.995543e-05    -1.071633e-04    0.000000e+00
2.506224e-05    -1.072508e-04    0.000000e+00
-2.527348e-05    -1.124159e-04    0.000000e+00
-2.012414e-05    -1.123407e-04    0.000000e+00
-1.503667e-05    -1.122831e-04    0.000000e+00
-9.996955e-06    -1.122428e-04    0.000000e+00
-4.990083e-06    -1.122191e-04    0.000000e+00
-1.310783e-18    -1.122113e-04    0.000000e+00
4.990083e-06    -1.122191e-04    0.000000e+00
9.996955e-06    -1.122428e-04    0.000000e+00
1.503667e-05    -1.122831e-04    0.000000e+00
2.012414e-05    -1.123407e-04    0.000000e+00
2.527348e-05    -1.124159e-04    0.000000e+00
-2.545345e-05    -1.176198e-04    0.000000e+00
-2.026721e-05    -1.175568e-04    0.000000e+00
-1.514215e-05    -1.175094e-04    0.000000e+00
-1.006590e-05    -1.174772e-04    0.000000e+00
-5.024047e-06    -1.174587e-04    0.000000e+00
-1.381087e-18    -1.174527e-04    0.000000e+00
5.024047e-06    -1.174587e-04    0.000000e+00
1.006590e-05    -1.174772e-04    0.000000e+00
1.514215e-05    -1.175094e-04    0.000000e+00
2.026721e-05    -1.175568e-04    0.000000e+00
2.545345e-05    -1.176198e-04    0.000000e+00
-2.560344e-05    -1.228566e-04    0.000000e+00
-2.038472e-05    -1.228055e-04    0.000000e+00
-1.522673e-05    -1.227686e-04    0.000000e+00
-1.011998e-05    -1.227448e-04    0.000000e+00
-5.050303e-06    -1.227316e-04    0.000000e+00
-1.438262e-18    -1.227274e-04    0.000000e+00
5.050303e-06    -1.227316e-04    0.000000e+00
1.011998e-05    -1.227448e-04    0.000000e+00
1.522673e-05    -1.227686e-04    0.000000e+00
2.038472e-05    -1.228055e-04    0.000000e+00
2.560344e-05    -1.228566e-04    0.000000e+00
-2.572581e-05    -1.281219e-04    0.000000e+00
-2.047660e-05    -1.280822e-04    0.000000e+00
-1.528952e-05    -1.280557e-04    0.000000e+00
-1.015862e-05    -1.280396e-04    0.000000e+00
-5.068723e-06    -1.280306e-04    0.000000e+00
-1.364147e-18    -1.280277e-04    0.000000e+00
5.068723e-06    -1.280306e-04    0.000000e+00
1.015862e-05    -1.280396e-04    0.000000e+00
1.528952e-05    -1.280557e-04    0.000000e+00
2.047660e-05    -1.280822e-04    0.000000e+00
2.572581e-05    -1.281219e-04    0.000000e+00
-2.582426e-05    -1.334158e-04    0.000000e+00
-2.054217e-05    -1.333859e-04    0.000000e+00
-1.533024e-05    -1.333678e-04    0.000000e+00
-1.018293e-05    -1.333548e-04    0.000000e+00
-5.080301e-06    -1.333458e-04    0.000000e+00
-1.265467e-18    -1.333426e-04    0.000000e+00
5.080301e-06    -1.333458e-04    0.000000e+00
1.018293e-05    -1.333548e-04    0.000000e+00
1.533024e-05    -1.333678e-04    0.000000e+00
2.054217e-05    -1.333859e-04    0.000000e+00
2.582426e-05    -1.334158e-04    0.000000e+00
-2.590118e-05    -1.387477e-04    0.000000e+00
-2.058019e-05    -1.387262e-04    0.000000e+00
-1.535357e-05    -1.387041e-04    0.000000e+00
-1.019836e-05    -1.386795e-04    0.000000e+00
-5.088158e-06    -1.386611e-04    0.000000e+00
-1.254032e-18    -1.386544e-04    0.000000e+00
5.088158e-06    -1.386611e-04    0.000000e+00
1.019836e-05    -1.386795e-04    0.000000e+00
1.535357e-05    -1.387041e-04    0.000000e+00
2.058019e-05    -1.387262e-04    0.000000e+00
2.590118e-05    -1.387477e-04    0.000000e+00
-2.594189e-05    -1.441656e-04    0.000000e+00
-2.060428e-05    -1.441241e-04    0.000000e+00
-1.537722e-05    -1.440543e-04    0.000000e+00
-1.021640e-05    -1.439913e-04    0.000000e+00
-5.097913e-06    -1.439493e-04    0.000000e+00
-1.248527e-18    -1.439346e-04    0.000000e+00
5.097913e-06    -1.439493e-04    0.000000e+00
1.021640e-05    -1.439913e-04    0.000000e+00
1.537722e-05    -1.440543e-04    0.000000e+00
2.060428e-05    -1.441241e-04    0.000000e+00
2.594189e-05    -1.441656e-04    0.000000e+00

CELL_DATA      400
TENSORS Element_Stress1.200000e-01 double
2.173271e+06 3.046057e+05        0
3.046057e+05 4.970853e+05        0
       0        0        0

1.484498e+06 1.561830e+05        0
1.561830e+05 4.256905e+05        0
       0        0        0

1.032524e+06 5.133276e+04        0
5.133276e+04 3.282184e+05        0
       0        0        0

6.086544e+05 -4.270598e+03        0
-4.270598e+03 2.017008e+05        0
       0        0        0

2.015007e+05 -2.969489e+04        0
-2.969489e+04 6.795811e+04        0
       0        0        0

-2.014498e+05 -2.968617e+04        0
-2.968617e+04 -6.796960e+04        0
       0        0        0

-6.079770e+05 -4.271663e+03        0
-4.271663e+03 -2.014664e+05        0
       0        0        0

-1.030515e+06 5.123050e+04        0
5.123050e+04 -3.274655e+05        0
       0        0        0

-1.480246e+06 1.557720e+05        0
1.557720e+05 -4.240616e+05        0
       0        0        0

-2.164409e+06 3.034516e+05        0
3.034516e+05 -4.940210e+05        0
       0        0        0

1.960043e+06 4.964881e+04        0
4.964881e+04 5.180429e+03        0
       0        0        0

1.578280e+06 1.439952e+05        0
1.439952e+05 1.535902e+05        0
       0        0        0

1.083896e+06 1.181631e+05        0
1.181631e+05 1.568840e+05        0
       0        0        0

6.400368e+05 9.046850e+04        0
9.046850e+04 1.096001e+05        0
       0        0        0

2.108793e+05 7.543953e+04        0
7.543953e+04 3.815278e+04        0
       0        0        0

-2.123571e+05 7.541341e+04        0
7.541341e+04 -3.970692e+04        0
       0        0        0

-6.407970e+05 9.037530e+04        0
9.037530e+04 -1.108984e+05        0
       0        0        0

-1.083119e+06 1.179635e+05        0
1.179635e+05 -1.576228e+05        0
       0        0        0

-1.574686e+06 1.436570e+05        0
1.436570e+05 -1.532315e+05        0
       0        0        0

-1.953487e+06 4.952541e+04        0
4.952541e+04 -3.616512e+03        0
       0        0        0

1.891580e+06 1.840016e+04        0
1.840016e+04 7.744290e+03        0
       0        0        0

1.517415e+06 8.155351e+04        0
8.155351e+04 2.073354e+04        0
       0        0        0

1.091264e+06 1.212123e+05        0
1.212123e+05 5.024834e+04        0
       0        0        0

6.477464e+05 1.282625e+05        0
1.282625e+05 4.249844e+04        0
       0        0        0

2.133933e+05 1.281713e+05        0
1.281713e+05 1.478811e+04        0
       0        0        0

-2.181397e+05 1.281315e+05        0
1.281315e+05 -1.961768e+04        0
       0        0        0

-6.517353e+05 1.281441e+05        0
1.281441e+05 -4.705749e+04        0
       0        0        0

-1.093643e+06 1.210284e+05        0
1.210284e+05 -5.420146e+04        0
       0        0        0

-1.517377e+06 8.138994e+04        0
8.138994e+04 -2.371205e+04        0
       0        0        0

-1.888767e+06 1.835472e+04        0
1.835472e+04 -9.590486e+03        0
       0        0        0

1.844860e+06 1.703613e+04        0
1.703613e+04 -5.267539e+03        0
       0        0        0

1.463416e+06 6.621748e+04        0
6.621748e+04 -2.964445e+03        0
       0        0        0

1.057353e+06 1.103343e+05        0
1.103343e+05 2.792767e+03        0
       0        0        0

6.354855e+05 1.367664e+05        0
1.367664e+05 6.259737e+03        0
       0        0        0

2.085073e+05 1.472077e+05        0
1.472077e+05 4.484404e+01        0
       0        0        0

-2.180050e+05 1.471656e+05        0
1.471656e+05 -9.625362e+03        0
       0        0        0

-6.442342e+05 1.366500e+05        0
1.366500e+05 -1.556459e+04        0
       0        0        0

-1.064588e+06 1.101810e+05        0
1.101810e+05 -1.151507e+04        0
       0        0        0

-1.468409e+06 6.609188e+04        0
6.609188e+04 -4.842356e+03        0
       0        0        0

-1.846858e+06 1.699624e+04        0
1.699624e+04 -1.177766e+03        0
       0        0        0

1.800549e+06 2.044593e+04        0
2.044593e+04 -7.664395e+03        0
       0        0        0

1.413572e+06 6.502983e+04        0
6.502983e+04 -1.136318e+04        0
       0        0        0

1.018193e+06 1.062812e+05        0
1.062812e+05 -1.113732e+04        0
       0        0        0

6.118478e+05 1.356175e+05        0
1.356175e+05 -9.290766e+03        0
       0        0        0

1.993473e+05 1.501753e+05        0
1.501753e+05 -7.991325e+03        0
       0        0        0

-2.148472e+05 1.501350e+05        0
1.501350e+05 -7.587083e+03        0
       0        0        0

-6.266429e+05 1.355090e+05        0
1.355090e+05 -6.025204e+03        0
       0        0        0

-1.031576e+06 1.061408e+05        0
1.061408e+05 -3.632612e+03        0
       0        0        0

-1.424828e+06 6.491130e+04        0
6.491130e+04 -2.531095e+03        0
       0        0        0

-1.808873e+06 2.039898e+04        0
2.039898e+04 -4.912504e+03        0
       0        0        0

1.752487e+06 2.338072e+04        0
2.338072e+04 -1.106505e+04        0
       0        0        0

1.367310e+06 6.736667e+04        0
6.736667e+04 -1.430393e+04        0
       0        0        0

9.797265e+05 1.054826e+05        0
1.054826e+05 -1.601283e+04        0
       0        0        0

5.863612e+05 1.333871e+05        0
1.333871e+05 -1.511028e+04        0
       0        0        0

1.883921e+05 1.479274e+05        0
1.479274e+05 -1.276436e+04        0
       0        0        0

-2.109822e+05 1.478894e+05        0
1.478894e+05 -9.898926e+03        0
       0        0        0

-6.083046e+05 1.332847e+05        0
1.332847e+05 -7.317783e+03        0
       0        0        0

-1.000373e+06 1.053484e+05        0
1.053484e+05 -5.927780e+03        0
       0        0        0

-1.385988e+06 6.724751e+04        0
6.724751e+04 -6.857256e+03        0
       0        0        0

-1.768447e+06 2.332834e+04        0
2.332834e+04 -8.943732e+03        0
       0        0        0

1.700936e+06 2.523611e+04        0
2.523611e+04 -1.488349e+04        0
       0        0        0

1.322203e+06 6.963872e+04        0
6.963872e+04 -1.714940e+04        0
       0        0        0

9.432442e+05 1.057869e+05        0
1.057869e+05 -1.869710e+04        0
       0        0        0

5.615558e+05 1.316808e+05        0
1.316808e+05 -1.842962e+04        0
       0        0        0

1.772534e+05 1.451969e+05        0
1.451969e+05 -1.659044e+04        0
       0        0        0

-2.079079e+05 1.451610e+05        0
1.451610e+05 -1.413200e+04        0
       0        0        0

-5.916316e+05 1.315832e+05        0
1.315832e+05 -1.209780e+04        0
       0        0        0

-9.721575e+05 1.056566e+05        0
1.056566e+05 -1.142765e+04        0
       0        0        0

-1.349350e+06 6.951904e+04        0
6.951904e+04 -1.233648e+04        0
       0        0        0

-1.725664e+06 2.518104e+04        0
2.518104e+04 -1.367950e+04        0
       0        0        0

1.646926e+06 2.625944e+04        0
2.625944e+04 -1.936340e+04        0
       0        0        0

1.277331e+06 7.114742e+04        0
7.114742e+04 -2.071090e+04        0
       0        0        0

9.081010e+05 1.062266e+05        0
1.062266e+05 -2.176492e+04        0
       0        0        0

5.377754e+05 1.306577e+05        0
1.306577e+05 -2.172811e+04        0
       0        0        0

1.661853e+05 1.432423e+05        0
1.432423e+05 -2.062120e+04        0
       0        0        0

-2.057841e+05 1.432080e+05        0
1.432080e+05 -1.904098e+04        0
       0        0        0

-5.768702e+05 1.305639e+05        0
1.305639e+05 -1.778868e+04        0
       0        0        0

-9.461826e+05 1.060997e+05        0
1.060997e+05 -1.745219e+04        0
       0        0        0

-1.313875e+06 7.102868e+04        0
7.102868e+04 -1.803359e+04        0
       0        0        0

-1.681380e+06 2.620375e+04        0
2.620375e+04 -1.870825e+04        0
       0        0        0

1.591391e+06 2.677155e+04        0
2.677155e+04 -2.436876e+04        0
       0        0        0

1.232296e+06 7.199574e+04        0
7.199574e+04 -2.509054e+04        0
       0        0        0

8.736293e+05 1.065484e+05        0
1.065484e+05 -2.569310e+04        0
       0        0        0

5.146310e+05 1.301152e+05        0
1.301152e+05 -2.572110e+04        0
       0        0        0

1.551327e+05 1.420957e+05        0
1.420957e+05 -2.513181e+04        0
       0        0        0

-2.044655e+05 1.420627e+05        0
1.420627e+05 -2.426017e+04        0
       0        0        0

-5.635375e+05 1.300246e+05        0
1.300246e+05 -2.358033e+04        0
       0        0        0

-9.216789e+05 1.064249e+05        0
1.064249e+05 -2.342101e+04        0
       0        0        0

-1.279047e+06 7.187921e+04        0
7.187921e+04 -2.372723e+04        0
       0        0        0

-1.636384e+06 2.671649e+04        0
2.671649e+04 -2.402719e+04        0
       0        0        0

1.534939e+06 2.700611e+04        0
2.700611e+04 -2.980220e+04        0
       0        0        0

1.186982e+06 7.242278e+04        0
7.242278e+04 -3.012335e+04        0
       0        0        0

8.393688e+05 1.067371e+05        0
1.067371e+05 -3.040747e+04        0
       0        0        0

4.917397e+05 1.298532e+05        0
1.298532e+05 -3.042171e+04        0
       0        0        0

1.439804e+05 1.414998e+05        0
1.414998e+05 -3.012787e+04        0
       0        0        0

-2.037453e+05 1.414680e+05        0
1.414680e+05 -2.969246e+04        0
       0        0        0

-5.511568e+05 1.297656e+05        0
1.297656e+05 -2.936487e+04        0
       0        0        0

-8.980862e+05 1.066173e+05        0
1.066173e+05 -2.930702e+04        0
       0        0        0

-1.244639e+06 7.230922e+04        0
7.230922e+04 -2.947195e+04        0
       0        0        0

-1.591164e+06 2.695230e+04        0
2.695230e+04 -2.961524e+04        0
       0        0        0

1.477929e+06 2.710349e+04        0
2.710349e+04 -3.557532e+04        0
       0        0        0

1.141380e+06 7.261797e+04        0
7.261797e+04 -3.563973e+04        0
       0        0        0

8.050751e+05 1.068341e+05        0
1.068341e+05 -3.571045e+04        0
       0        0        0

4.688563e+05 1.297370e+05        0
1.297370e+05 -3.568120e+04        0
       0        0        0

1.326581e+05 1.412184e+05        0
1.412184e+05 -3.552798e+04        0
       0        0        0

-2.034615e+05 1.411877e+05        0
1.411877e+05 -3.532716e+04        0
       0        0        0

-5.393891e+05 1.296524e+05        0
1.296524e+05 -3.519692e+04        0
       0        0        0

-8.750631e+05 1.067180e+05        0
1.067180e+05 -3.520991e+04        0
       0        0        0

-1.210542e+06 7.250782e+04        0
7.250782e+04 -3.533498e+04        0
       0        0        0

-1.545973e+06 2.705125e+04        0
2.705125e+04 -3.545613e+04        0
       0        0        0

1.420562e+06 2.713883e+04        0
2.713883e+04 -4.161858e+04        0
       0        0        0

1.095523e+06 7.269817e+04        0
7.269817e+04 -4.150627e+04        0
       0        0        0

7.706437e+05 1.068785e+05        0
1.068785e+05 -4.143002e+04        0
       0        0        0

4.458618e+05 1.296899e+05        0
1.296899e+05 -4.134733e+04        0
       0        0        0

1.211423e+05 1.410972e+05        0
1.410972e+05 -4.124627e+04        0
       0        0        0

-2.034993e+05 1.410675e+05        0
1.410675e+05 -4.115898e+04        0
       0        0        0

-5.280233e+05 1.296082e+05        0
1.296082e+05 -4.113646e+04        0
       0        0        0

-8.524110e+05 1.067663e+05        0
1.067663e+05 -4.120750e+04        0
       0        0        0

-1.176691e+06 7.259162e+04        0
7.259162e+04 -4.135368e+04        0
       0        0        0

-1.500916e+06 2.708829e+04        0
2.708829e+04 -4.152324e+04        0
       0        0        0

1.362954e+06 2.714874e+04        0
2.714874e+04 -4.787469e+04        0
       0        0        0

1.049453e+06 7.272635e+04        0
7.272635e+04 -4.762719e+04        0
       0        0        0

7.360487e+05 1.068962e+05        0
1.068962e+05 -4.744111e+04        0
       0        0        0

4.227174e+05 1.296727e+05        0
1.296727e+05 -4.730333e+04        0
       0        0        0

1.094416e+05 1.410502e+05        0
1.410502e+05 -4.720944e+04        0
       0        0        0

-2.037781e+05 1.410216e+05        0
1.410216e+05 -4.717195e+04        0
       0        0        0

-5.169312e+05 1.295938e+05        0
1.295938e+05 -4.721046e+04        0
       0        0        0

-8.300139e+05 1.067879e+05        0
1.067879e+05 -4.733427e+04        0
       0        0        0

-1.143038e+06 7.262349e+04        0
7.262349e+04 -4.753266e+04        0
       0        0        0

-1.456016e+06 2.709995e+04        0
2.709995e+04 -4.778325e+04        0
       0        0        0

1.305178e+06 2.714950e+04        0
2.714950e+04 -5.429435e+04        0
       0        0        0

1.003217e+06 7.273324e+04        0
7.273324e+04 -5.393252e+04        0
       0        0        0

7.013034e+05 1.069015e+05        0
1.069015e+05 -5.365625e+04        0
       0        0        0

3.994282e+05 1.296669e+05        0
1.296669e+05 -5.346469e+04        0
       0        0        0

9.758238e+04 1.410345e+05        0
1.410345e+05 -5.335754e+04        0
       0        0        0

-2.042376e+05 1.410069e+05        0
1.410069e+05 -5.333940e+04        0
       0        0        0

-5.060310e+05 1.295909e+05        0
1.295909e+05 -5.341660e+04        0
       0        0        0

-8.077979e+05 1.067971e+05        0
1.067971e+05 -5.359057e+04        0
       0        0        0

-1.109541e+06 7.263410e+04        0
7.263410e+04 -5.385472e+04        0
       0        0        0

-1.411260e+06 2.710248e+04        0
2.710248e+04 -5.419879e+04        0
       0        0        0

1.247285e+06 2.714768e+04        0
2.714768e+04 -6.083313e+04        0
       0        0        0

9.568583e+05 7.273250e+04        0
7.273250e+04 -6.036779e+04        0
       0        0        0

6.664381e+05 1.069015e+05        0
1.069015e+05 -6.001171e+04        0
       0        0        0

3.760201e+05 1.296650e+05        0
1.296650e+05 -5.976856e+04        0
       0        0        0

8.559909e+04 1.410304e+05        0
1.410304e+05 -5.964007e+04        0
       0        0        0

-2.048286e+05 1.410039e+05        0
1.410039e+05 -5.962809e+04        0
       0        0        0

-4.952647e+05 1.295918e+05        0
1.295918e+05 -5.973394e+04        0
       0        0        0

-7.857095e+05 1.068011e+05        0
1.068011e+05 -5.995631e+04        0
       0        0        0

-1.076162e+06 7.263710e+04        0
7.263710e+04 -6.029059e+04        0
       0        0        0

-1.366617e+06 2.710244e+04        0
2.710244e+04 -6.073091e+04        0
       0        0        0

1.189320e+06 2.714555e+04        0
2.714555e+04 -6.744971e+04        0
       0        0        0

9.104191e+05 7.272961e+04        0
7.272961e+04 -6.688724e+04        0
       0        0        0

6.314895e+05 1.068996e+05        0
1.068996e+05 -6.645730e+04        0
       0        0        0

3.525275e+05 1.296639e+05        0
1.296639e+05 -6.616490e+04        0
       0        0        0

7.352929e+04 1.410299e+05        0
1.410299e+05 -6.601267e+04        0
       0        0        0

-2.055081e+05 1.410044e+05        0
1.410044e+05 -6.600175e+04        0
       0        0        0

-4.845862e+05 1.295936e+05        0
1.295936e+05 -6.613189e+04        0
       0        0        0

-7.637048e+05 1.068032e+05        0
1.068032e+05 -6.640106e+04        0
       0        0        0

-1.042861e+06 7.263796e+04        0
7.263796e+04 -6.680549e+04        0
       0        0        0

-1.322050e+06 2.710209e+04        0
2.710209e+04 -6.734060e+04        0
       0        0        0

1.131321e+06 2.714372e+04        0
2.714372e+04 -7.410499e+04        0
       0        0        0

8.639389e+05 7.272649e+04        0
7.272649e+04 -7.345001e+04        0
       0        0        0

5.964956e+05 1.068972e+05        0
1.068972e+05 -7.295022e+04        0
       0        0        0

3.289873e+05 1.296627e+05        0
1.296627e+05 -7.261083e+04        0
       0        0        0

6.141085e+04 1.410299e+05        0
1.410299e+05 -7.243483e+04        0
       0        0        0

-2.062362e+05 1.410055e+05        0
1.410055e+05 -7.242334e+04        0
       0        0        0

-4.739549e+05 1.295953e+05        0
1.295953e+05 -7.257580e+04        0
       0        0        0

-7.417444e+05 1.068046e+05        0
1.068046e+05 -7.289012e+04        0
       0        0        0

-1.009601e+06 7.263858e+04        0
7.263858e+04 -7.336288e+04        0
       0        0        0

-1.277520e+06 2.710203e+04        0
2.710203e+04 -7.398964e+04        0
       0        0        0

1.073325e+06 2.714223e+04        0
2.714223e+04 -8.076170e+04        0
       0        0        0

8.174553e+05 7.272363e+04        0
7.272363e+04 -8.001821e+04        0
       0        0        0

5.614939e+05 1.068946e+05        0
1.068946e+05 -7.945181e+04        0
       0        0        0

3.054367e+05 1.296612e+05        0
1.296612e+05 -7.906760e+04        0
       0        0        0

4.928080e+04 1.410298e+05        0
1.410298e+05 -7.886870e+04        0
       0        0        0

-2.069758e+05 1.410064e+05        0
1.410064e+05 -7.885633e+04        0
       0        0        0

-4.633335e+05 1.295967e+05        0
1.295967e+05 -7.903002e+04        0
       0        0        0

-7.197912e+05 1.068060e+05        0
1.068060e+05 -7.938779e+04        0
       0        0        0

-9.763453e+05 7.263946e+04        0
7.263946e+04 -7.992632e+04        0
       0        0        0

-1.232990e+06 2.710231e+04        0
2.710231e+04 -8.064106e+04        0
       0        0        0

1.015368e+06 2.714097e+04        0
2.714097e+04 -8.738416e+04        0
       0        0        0

7.710043e+05 7.272106e+04        0
7.272106e+04 -8.655603e+04        0
       0        0        0

5.265202e+05 1.068920e+05        0
1.068920e+05 -8.592603e+04        0
       0        0        0

2.819113e+05 1.296595e+05        0
1.296595e+05 -8.549911e+04        0
       0        0        0

3.717482e+04 1.410293e+05        0
1.410293e+05 -8.527841e+04        0
       0        0        0

-2.076911e+05 1.410069e+05        0
1.410069e+05 -8.526527e+04        0
       0        0        0

-4.526865e+05 1.295979e+05        0
1.295979e+05 -8.545938e+04        0
       0        0        0

-6.978099e+05 1.068074e+05        0
1.068074e+05 -8.585885e+04        0
       0        0        0

-9.430578e+05 7.264063e+04        0
7.264063e+04 -8.646038e+04        0
       0        0        0

-1.188425e+06 2.710283e+04        0
2.710283e+04 -8.725926e+04        0
       0        0        0

9.574835e+05 2.713985e+04        0
2.713985e+04 -9.393831e+04        0
       0        0        0

7.246200e+05 7.271869e+04        0
7.271869e+04 -9.302940e+04        0
       0        0        0

4.916088e+05 1.068896e+05        0
1.068896e+05 -9.233873e+04        0
       0        0        0

2.584455e+05 1.296577e+05        0
1.296577e+05 -9.187116e+04        0
       0        0        0

2.512707e+04 1.410285e+05        0
1.410285e+05 -9.162982e+04        0
       0        0        0

-2.083481e+05 1.410072e+05        0
1.410072e+05 -9.161613e+04        0
       0        0        0

-4.419799e+05 1.295989e+05        0
1.295989e+05 -9.182988e+04        0
       0        0        0

-6.757667e+05 1.068089e+05        0
1.068089e+05 -9.226927e+04        0
       0        0        0

-9.097050e+05 7.264201e+04        0
7.264201e+04 -9.293098e+04        0
       0        0        0

-1.143790e+06 2.710349e+04        0
2.710349e+04 -9.381019e+04        0
       0        0        0

8.997039e+05 2.713882e+04        0
2.713882e+04 -1.003916e+05        0
       0        0        0

6.783350e+05 7.271647e+04        0
7.271647e+04 -9.940582e+04        0
       0        0        0

4.567926e+05 1.068872e+05        0
1.068872e+05 -9.865745e+04        0
       0        0        0

2.350720e+05 1.296559e+05        0
1.296559e+05 -9.815128e+04        0
       0        0        0

1.317016e+04 1.410276e+05        0
1.410276e+05 -9.789041e+04        0
       0        0        0

-2.089143e+05 1.410073e+05        0
1.410073e+05 -9.787635e+04        0
       0        0        0

-4.311814e+05 1.295999e+05        0
1.295999e+05 -9.810894e+04        0
       0        0        0

-6.536292e+05 1.068104e+05        0
1.068104e+05 -9.858645e+04        0
       0        0        0

-8.762543e+05 7.264353e+04        0
7.264353e+04 -9.930555e+04        0
       0        0        0

-1.099052e+06 2.710423e+04        0
2.710423e+04 -1.002613e+05        0
       0        0        0

8.420600e+05 2.713784e+04        0
2.713784e+04 -1.067131e+05        0
       0        0        0

6.321804e+05 7.271435e+04        0
7.271435e+04 -1.056544e+05        0
       0        0        0

4.221026e+05 1.068848e+05        0
1.068848e+05 -1.048513e+05        0
       0        0        0

2.118218e+05 1.296540e+05        0
1.296540e+05 -1.043085e+05        0
       0        0        0

1.335121e+03 1.410265e+05        0
1.410265e+05 -1.040292e+05        0
       0        0        0

-2.093589e+05 1.410073e+05        0
1.410073e+05 -1.040149e+05        0
       0        0        0

-4.202601e+05 1.296009e+05        0
1.296009e+05 -1.042655e+05        0
       0        0        0

-6.313666e+05 1.068120e+05        0
1.068120e+05 -1.047793e+05        0
       0        0        0

-8.426749e+05 7.264515e+04        0
7.264515e+04 -1.055531e+05        0
       0        0        0

-1.054180e+06 2.710502e+04        0
2.710502e+04 -1.065817e+05        0
       0        0        0

7.845813e+05 2.713692e+04        0
2.713692e+04 -1.128733e+05        0
       0        0        0

5.861855e+05 7.271234e+04        0
7.271234e+04 -1.117456e+05        0
       0        0        0

3.875682e+05 1.068825e+05        0
1.068825e+05 -1.108908e+05        0
       0        0        0

1.887245e+05 1.296520e+05        0
1.296520e+05 -1.103135e+05        0
       0        0        0

-1.034858e+04 1.410254e+05        0
1.410254e+05 -1.100168e+05        0
       0        0        0

-2.096525e+05 1.410072e+05        0
1.410072e+05 -1.100024e+05        0
       0        0        0

-4.091867e+05 1.296018e+05        0
1.296018e+05 -1.102701e+05        0
       0        0        0

-6.089494e+05 1.068136e+05        0
1.068136e+05 -1.108184e+05        0
       0        0        0

-8.089372e+05 7.264688e+04        0
7.264688e+04 -1.116440e+05        0
       0        0        0

-1.009145e+06 2.710588e+04        0
2.710588e+04 -1.127417e+05        0
       0        0        0

7.272955e+05 2.713610e+04        0
2.713610e+04 -1.188444e+05        0
       0        0        0

5.403783e+05 7.271048e+04        0
7.271048e+04 -1.176518e+05        0
       0        0        0

3.532176e+05 1.068803e+05        0
1.068803e+05 -1.167483e+05        0
       0        0        0

1.658082e+05 1.296500e+05        0
1.296500e+05 -1.161385e+05        0
       0        0        0

-2.185300e+04 1.410240e+05        0
1.410240e+05 -1.158254e+05        0
       0        0        0

-2.097671e+05 1.410069e+05        0
1.410069e+05 -1.158108e+05        0
       0        0        0

-3.979334e+05 1.296027e+05        0
1.296027e+05 -1.160948e+05        0
       0        0        0

-5.863500e+05 1.068154e+05        0
1.068154e+05 -1.166758e+05        0
       0        0        0

-7.750135e+05 7.264876e+04        0
7.264876e+04 -1.175505e+05        0
       0        0        0

-9.639193e+05 2.710683e+04        0
2.710683e+04 -1.187137e+05        0
       0        0        0

6.702287e+05 2.713544e+04        0
2.713544e+04 -1.246001e+05        0
       0        0        0

4.947852e+05 7.270884e+04        0
7.270884e+04 -1.233465e+05        0
       0        0        0

3.190771e+05 1.068781e+05        0
1.068781e+05 -1.223973e+05        0
       0        0        0

1.430991e+05 1.296478e+05        0
1.296478e+05 -1.217570e+05        0
       0        0        0

-3.315177e+04 1.410225e+05        0
1.410225e+05 -1.214286e+05        0
       0        0        0

-2.096765e+05 1.410064e+05        0
1.410064e+05 -1.214139e+05        0
       0        0        0

-3.864740e+05 1.296034e+05        0
1.296034e+05 -1.217132e+05        0
       0        0        0

-5.635421e+05 1.068171e+05        0
1.068171e+05 -1.223250e+05        0
       0        0        0

-7.408774e+05 7.265086e+04        0
7.265086e+04 -1.232461e+05        0
       0        0        0

-9.184754e+05 2.710794e+04        0
2.710794e+04 -1.244712e+05        0
       0        0        0

6.134055e+05 2.713502e+04        0
2.713502e+04 -1.301155e+05        0
       0        0        0

4.494310e+05 7.270745e+04        0
7.270745e+04 -1.288050e+05        0
       0        0        0

2.851719e+05 1.068760e+05        0
1.068760e+05 -1.278130e+05        0
       0        0        0

1.206224e+05 1.296455e+05        0
1.296455e+05 -1.271441e+05        0
       0        0        0

-4.422006e+04 1.410207e+05        0
1.410207e+05 -1.268015e+05        0
       0        0        0

-2.093560e+05 1.410056e+05        0
1.410056e+05 -1.267870e+05        0
       0        0        0

-3.747839e+05 1.296039e+05        0
1.296039e+05 -1.271008e+05        0
       0        0        0

-5.405012e+05 1.068189e+05        0
1.068189e+05 -1.277415e+05        0
       0        0        0

-7.065042e+05 7.265321e+04        0
7.265321e+04 -1.287061e+05        0
       0        0        0

-8.727888e+05 2.710929e+04        0
2.710929e+04 -1.299893e+05        0
       0        0        0

5.568489e+05 2.713487e+04        0
2.713487e+04 -1.353673e+05        0
       0        0        0

4.043393e+05 7.270609e+04        0
7.270609e+04 -1.340035e+05        0
       0        0        0

2.515252e+05 1.068736e+05        0
1.068736e+05 -1.329714e+05        0
       0        0        0

9.840113e+04 1.296431e+05        0
1.296431e+05 -1.322758e+05        0
       0        0        0

-5.503473e+04 1.410191e+05        0
1.410191e+05 -1.319206e+05        0
       0        0        0

-2.087822e+05 1.410050e+05        0
1.410050e+05 -1.319072e+05        0
       0        0        0

-3.628398e+05 1.296044e+05        0
1.296044e+05 -1.322352e+05        0
       0        0        0

-5.172042e+05 1.068204e+05        0
1.068204e+05 -1.329028e+05        0
       0        0        0

-6.718708e+05 7.265559e+04        0
7.265559e+04 -1.339076e+05        0
       0        0        0

-8.268357e+05 2.711092e+04        0
2.711092e+04 -1.352449e+05        0
       0        0        0

5.005807e+05 2.713475e+04        0
2.713475e+04 -1.403336e+05        0
       0        0        0

3.595324e+05 7.270380e+04        0
7.270380e+04 -1.389194e+05        0
       0        0        0

2.181586e+05 1.068701e+05        0
1.068701e+05 -1.378485e+05        0
       0        0        0

7.645614e+04 1.296409e+05        0
1.296409e+05 -1.371281e+05        0
       0        0        0

-6.557457e+04 1.410191e+05        0
1.410191e+05 -1.367632e+05        0
       0        0        0

-2.079332e+05 1.410061e+05        0
1.410061e+05 -1.367539e+05        0
       0        0        0

-3.506192e+05 1.296051e+05        0
1.296051e+05 -1.370970e+05        0
       0        0        0

-4.936291e+05 1.068209e+05        0
1.068209e+05 -1.377894e+05        0
       0        0        0

-6.369562e+05 7.265704e+04        0
7.265704e+04 -1.388299e+05        0
       0        0        0

-7.805945e+05 2.711257e+04        0
2.711257e+04 -1.402163e+05        0
       0        0        0

4.446225e+05 2.713348e+04        0
2.713348e+04 -1.449935e+05        0
       0        0        0

3.150313e+05 7.269757e+04        0
7.269757e+04 -1.435292e+05        0
       0        0        0

1.850903e+05 1.068638e+05        0
1.068638e+05 -1.424185e+05        0
       0        0        0

5.480439e+04 1.296407e+05        0
1.296407e+05 -1.416752e+05        0
       0        0        0

-7.582102e+04 1.410254e+05        0
1.410254e+05 -1.413069e+05        0
       0        0        0

-2.067873e+05 1.410135e+05        0
1.410135e+05 -1.413093e+05        0
       0        0        0

-3.380990e+05 1.296077e+05        0
1.296077e+05 -1.416718e+05        0
       0        0        0

-4.697541e+05 1.068185e+05        0
1.068185e+05 -1.423869e+05        0
       0        0        0

-6.017410e+05 7.265456e+04        0
7.265456e+04 -1.434560e+05        0
       0        0        0

-7.340461e+05 2.711308e+04        0
2.711308e+04 -1.448839e+05        0
       0        0        0

3.889989e+05 2.712746e+04        0
2.712746e+04 -1.493264e+05        0
       0        0        0

2.708561e+05 7.267957e+04        0
7.267957e+04 -1.478070e+05        0
       0        0        0

1.523326e+05 1.068503e+05        0
1.068503e+05 -1.466500e+05        0
       0        0        0

3.345533e+04 1.296467e+05        0
1.296467e+05 -1.458862e+05        0
       0        0        0

-8.575974e+04 1.410493e+05        0
1.410493e+05 -1.455280e+05        0
       0        0        0

-2.053220e+05 1.410383e+05        0
1.410383e+05 -1.455602e+05        0
       0        0        0

-3.252516e+05 1.296166e+05        0
1.296166e+05 -1.459538e+05        0
       0        0        0

-4.455544e+05 1.068090e+05        0
1.068090e+05 -1.466899e+05        0
       0        0        0

-5.662081e+05 7.264030e+04        0
7.264030e+04 -1.477747e+05        0
       0        0        0

-6.871771e+05 2.710884e+04        0
2.710884e+04 -1.492302e+05        0
       0        0        0

3.337433e+05 2.710735e+04        0
2.710735e+04 -1.533114e+05        0
       0        0        0

2.270254e+05 7.263155e+04        0
7.263155e+04 -1.517199e+05        0
       0        0        0

1.198848e+05 1.068207e+05        0
1.068207e+05 -1.504993e+05        0
       0        0        0

1.240341e+04 1.296698e+05        0
1.296698e+05 -1.497187e+05        0
       0        0        0

-9.538376e+04 1.411164e+05        0
1.411164e+05 -1.493992e+05        0
       0        0        0

-2.035101e+05 1.411065e+05        0
1.411065e+05 -1.495000e+05        0
       0        0        0

-3.120380e+05 1.296425e+05        0
1.296425e+05 -1.499517e+05        0
       0        0        0

-4.209962e+05 1.067833e+05        0
1.067833e+05 -1.507087e+05        0
       0        0        0

-5.303423e+05 7.259604e+04        0
7.259604e+04 -1.517850e+05        0
       0        0        0

-6.399863e+05 2.709051e+04        0
2.709051e+04 -1.532413e+05        0
       0        0        0

2.789122e+05 2.705138e+04        0
2.705138e+04 -1.569255e+05        0
       0        0        0

1.835537e+05 7.251493e+04        0
7.251493e+04 -1.552217e+05        0
       0        0        0

8.771981e+04 1.067586e+05        0
1.067586e+05 -1.539007e+05        0
       0        0        0

-8.386425e+03 1.297335e+05        0
1.297335e+05 -1.531107e+05        0
       0        0        0

-1.046993e+05 1.412800e+05        0
1.412800e+05 -1.528860e+05        0
       0        0        0

-2.013143e+05 1.412711e+05        0
1.412711e+05 -1.531318e+05        0
       0        0        0

-2.983929e+05 1.297091e+05        0
1.297091e+05 -1.536971e+05        0
       0        0        0

-3.960233e+05 1.067251e+05        0
1.067251e+05 -1.544800e+05        0
       0        0        0

-4.941291e+05 7.248320e+04        0
7.248320e+04 -1.555042e+05        0
       0        0        0

-5.924983e+05 2.703634e+04        0
2.703634e+04 -1.569088e+05        0
       0        0        0

2.246101e+05 2.691342e+04        0
2.691342e+04 -1.601416e+05        0
       0        0        0

1.404449e+05 7.225543e+04        0
7.225543e+04 -1.582449e+05        0
       0        0        0

5.575782e+04 1.066370e+05        0
1.066370e+05 -1.567572e+05        0
       0        0        0

-2.900312e+04 1.298858e+05        0
1.298858e+05 -1.559751e+05        0
       0        0        0

-1.137347e+05 1.416393e+05        0
1.416393e+05 -1.559450e+05        0
       0        0        0

-1.986766e+05 1.416315e+05        0
1.416315e+05 -1.564696e+05        0
       0        0        0

-2.842002e+05 1.298643e+05        0
1.298643e+05 -1.572504e+05        0
       0        0        0

-3.705320e+05 1.066075e+05        0
1.066075e+05 -1.580770e+05        0
       0        0        0

-4.575497e+05 7.222751e+04        0
7.222751e+04 -1.589771e+05        0
       0        0        0

-5.447919e+05 2.690020e+04        0
2.690020e+04 -1.602335e+05        0
       0        0        0

1.710339e+05 2.660394e+04        0
2.660394e+04 -1.629288e+05        0
       0        0        0

9.767261e+04 7.172612e+04        0
7.172612e+04 -1.606981e+05        0
       0        0        0

2.382296e+04 1.064229e+05        0
1.064229e+05 -1.589466e+05        0
       0        0        0

-4.962269e+04 1.302145e+05        0
1.302145e+05 -1.582116e+05        0
       0        0        0

-1.225514e+05 1.423563e+05        0
1.423563e+05 -1.585294e+05        0
       0        0        0

-1.955048e+05 1.423494e+05        0
1.423494e+05 -1.595292e+05        0
       0        0        0

-2.692592e+05 1.301958e+05        0
1.301958e+05 -1.606867e+05        0
       0        0        0

-3.443306e+05 1.063974e+05        0
1.063974e+05 -1.616058e+05        0
       0        0        0

-4.205671e+05 7.170206e+04        0
7.170206e+04 -1.622844e+05        0
       0        0        0

-4.970484e+05 2.659260e+04        0
2.659260e+04 -1.632315e+05        0
       0        0        0

1.185329e+05 2.596656e+04        0
2.596656e+04 -1.652575e+05        0
       0        0        0

5.513375e+04 7.074901e+04        0
7.074901e+04 -1.624936e+05        0
       0        0        0

-8.413300e+03 1.061049e+05        0
1.061049e+05 -1.603886e+05        0
       0        0        0

-7.053212e+04 1.308587e+05        0
1.308587e+05 -1.597877e+05        0
       0        0        0

-1.312443e+05 1.436374e+05        0
1.436374e+05 -1.606223e+05        0
       0        0        0

-1.916661e+05 1.436317e+05        0
1.436317e+05 -1.622896e+05        0
       0        0        0

-2.532570e+05 1.308428e+05        0
1.308428e+05 -1.640127e+05        0
       0        0        0

-3.170842e+05 1.060834e+05        0
1.060834e+05 -1.651404e+05        0
       0        0        0

-3.830896e+05 7.072888e+04        0
7.072888e+04 -1.655252e+05        0
       0        0        0

-4.496276e+05 2.595714e+04        0
2.595714e+04 -1.659426e+05        0
       0        0        0

6.765534e+04 2.476943e+04        0
2.476943e+04 -1.671393e+05        0
       0        0        0

1.254781e+04 6.918161e+04        0
6.918161e+04 -1.636671e+05        0
       0        0        0

-4.146691e+04 1.057872e+05        0
1.057872e+05 -1.613043e+05        0
       0        0        0

-9.207329e+04 1.319804e+05        0
1.319804e+05 -1.609947e+05        0
       0        0        0

-1.399021e+05 1.455905e+05        0
1.455905e+05 -1.623429e+05        0
       0        0        0

-1.870144e+05 1.455859e+05        0
1.455859e+05 -1.645746e+05        0
       0        0        0

-2.358163e+05 1.319676e+05        0
1.319676e+05 -1.669019e+05        0
       0        0        0

-2.882824e+05 1.057699e+05        0
1.057699e+05 -1.684652e+05        0
       0        0        0

-3.448874e+05 6.916545e+04        0
6.916545e+04 -1.687144e+05        0
       0        0        0

-4.031466e+05 2.476199e+04        0
2.476199e+04 -1.684244e+05        0
       0        0        0

1.906046e+04 2.279525e+04        0
2.279525e+04 -1.687043e+05        0
       0        0        0

-3.074811e+04 6.727943e+04        0
6.727943e+04 -1.648673e+05        0
       0        0        0

-7.588855e+04 1.058959e+05        0
1.058959e+05 -1.629336e+05        0
       0        0        0

-1.143415e+05 1.335810e+05        0
1.335810e+05 -1.630950e+05        0
       0        0        0

-1.484490e+05 1.477499e+05        0
1.477499e+05 -1.641769e+05        0
       0        0        0

-1.815274e+05 1.477466e+05        0
1.477466e+05 -1.658000e+05        0
       0        0        0

-2.167778e+05 1.335717e+05        0
1.335717e+05 -1.680278e+05        0
       0        0        0

-2.573840e+05 1.058830e+05        0
1.058830e+05 -1.703498e+05        0
       0        0        0

-3.054132e+05 6.726726e+04        0
6.726726e+04 -1.713188e+05        0
       0        0        0

-3.584637e+05 2.278977e+04        0
2.278977e+04 -1.707456e+05        0
       0        0        0

-2.718724e+04 2.040880e+04        0
2.040880e+04 -1.709710e+05        0
       0        0        0

-7.590969e+04 6.673264e+04        0
6.673264e+04 -1.687048e+05        0
       0        0        0

-1.115175e+05 1.074124e+05        0
1.074124e+05 -1.695339e+05        0
       0        0        0

-1.363096e+05 1.347228e+05        0
1.347228e+05 -1.694149e+05        0
       0        0        0

-1.563325e+05 1.480165e+05        0
1.480165e+05 -1.672411e+05        0
       0        0        0

-1.755864e+05 1.480148e+05        0
1.480148e+05 -1.646780e+05        0
       0        0        0

-1.970381e+05 1.347179e+05        0
1.347179e+05 -1.639340e+05        0
       0        0        0

-2.245275e+05 1.074048e+05        0
1.074048e+05 -1.665154e+05        0
       0        0        0

-2.637029e+05 6.672449e+04        0
6.672449e+04 -1.709195e+05        0
       0        0        0

-3.161171e+05 2.040508e+04        0
2.040508e+04 -1.723608e+05        0
       0        0        0

-7.400642e+04 2.124187e+04        0
2.124187e+04 -1.763527e+05        0
       0        0        0

-1.239090e+05 7.319036e+04        0
7.319036e+04 -1.863823e+05        0
       0        0        0

-1.445917e+05 1.102774e+05        0
1.102774e+05 -1.916258e+05        0
       0        0        0

-1.546773e+05 1.314433e+05        0
1.314433e+05 -1.858159e+05        0
       0        0        0

-1.623557e+05 1.411296e+05        0
1.411296e+05 -1.733046e+05        0
       0        0        0

-1.701067e+05 1.411302e+05        0
1.411302e+05 -1.591577e+05        0
       0        0        0

-1.796390e+05 1.314443e+05        0
1.314443e+05 -1.485002e+05        0
       0        0        0

-1.933195e+05 1.102771e+05        0
1.102771e+05 -1.462855e+05        0
       0        0        0

-2.189557e+05 7.318724e+04        0
7.318724e+04 -1.564852e+05        0
       0        0        0

-2.740988e+05 2.123930e+04        0
2.123930e+04 -1.717661e+05        0
       0        0        0

-1.366148e+05 4.838363e+04        0
4.838363e+04 -2.152182e+05        0
       0        0        0

-1.638426e+05 9.061189e+04        0
9.061189e+04 -2.497730e+05        0
       0        0        0

-1.647201e+05 1.064450e+05        0
1.064450e+05 -2.442667e+05        0
       0        0        0

-1.647077e+05 1.142126e+05        0
1.142126e+05 -2.189452e+05        0
       0        0        0

-1.649478e+05 1.176137e+05        0
1.176137e+05 -1.840912e+05        0
       0        0        0

-1.662468e+05 1.176164e+05        0
1.176164e+05 -1.471030e+05        0
       0        0        0

-1.688617e+05 1.142200e+05        0
1.142200e+05 -1.146204e+05        0
       0        0        0

-1.736613e+05 1.064547e+05        0
1.064547e+05 -9.410678e+04        0
       0        0        0

-1.818234e+05 9.061989e+04        0
9.061989e+04 -9.588444e+04        0
       0        0        0

-2.180448e+05 4.838332e+04        0
4.838332e+04 -1.394417e+05        0
       0        0        0

POINT_DATA     451
VECTORS DISPLACEMENT_1.400000e-01 double
0.000000e+00    0.000000e+00    0.000000e+00
0.000000e+00    0.000000e+00    0.000000e+00
0.000000e+00    0.000000e+00    0.000000e+00
0.000000e+00    0.000000e+00    0.000000e+00
0.000000e+00    0.000000e+00    0.000000e+00
0.000000e+00    0.000000e+00    0.000000e+00
0.000000e+00    0.000000e+00    0.000000e+00
0.000000e+00    0.000000e+00    0.000000e+00
0.000000e+00    0.000000e+00    0.000000e+00
0.000000e+00    0.000000e+00    0.000000e+00
0.000000e+00    0.000000e+00    0.000000e+00
-1.590622e-06    -1.156411e-06    0.000000e+00
-1.007860e-06    -5.800574e-07    0.000000e+00
-7.191190e-07    -3.005781e-07    0.000000e+00
-4.642908e-07    -1.488522e-07    0.000000e+00
-2.289054e-07    -7.032738e-08    0.000000e+00
-6.052026e-20    -4.591228e-08    0.000000e+00
2.289054e-07    -7.032738e-08    0.000000e+00
4.642908e-07    -1.488522e-07    0.000000e+00
7.191190e-07    -3.005781e-07    0.000000e+00
1.007860e-06    -5.800574e-07    0.000000e+00
1.590622e-06    -1.156411e-06    0.000000e+00
-3.001156e-06    -1.923230e-06    0.000000e+00
-2.193712e-06    -1.391614e-06    0.000000e+00
-1.539761e-06    -9.774968e-07    0.000000e+00
-9.932081e-07    -7.213364e-07    0.000000e+00
-4.878089e-07    -5.817577e-07    0.000000e+00
-1.278292e-19    -5.374225e-07    0.000000e+00
4.878089e-07    -5.817577e-07    0.000000e+00
9.932081e-07    -7.213364e-07    0.000000e+00
1.539761e-06    -9.774968e-07    0.000000e+00
2.193712e-06    -1.391614e-06    0.000000e+00
3.001156e-06    -1.923230e-06    0.000000e+00
-4.364512e-06    -2.876722e-06    0.000000e+00
-3.335872e-06    -2.343944e-06    0.000000e+00
-2.400297e-06    -1.923859e-06    0.000000e+00
-1.553900e-06    -1.627547e-06    0.000000e+00
-7.645897e-07    -1.456758e-06    0.000000e+00
-2.013060e-19    -1.401125e-06    0.000000e+00
7.645897e-07    -1.456758e-06    0.000000e+00
1.553900e-06    -1.627547e-06    0.000000e+00
2.400297e-06    -1.923859e-06    0.000000e+00
3.335872e-06    -2.343944e-06    0.000000e+00
4.364512e-06    -2.876722e-06    0.000000e+00
-5.712769e-06    -4.053444e-06    0.000000e+00
-4.440378e-06    -3.532826e-06    0.000000e+00
-3.242227e-06    -3.119745e-06    0.000000e+00
-2.117041e-06    -2.821644e-06    0.000000e+00
-1.045077e-06    -2.642711e-06    0.000000e+00
-2.779459e-19    -2.583378e-06    0.000000e+00
1.045077e-06    -2.642711e-06    0.000000e+00
2.117041e-06    -2.821644e-06    0.000000e+00
3.242227e-06    -3.119745e-06    0.000000e+00
4.440378e-06    -3.532826e-06    0.000000e+00
5.712769e-06    -4.053444e-06    0.000000e+00
-7.038197e-06    -5.485068e-06    0.000000e+00
-5.512688e-06    -4.976601e-06    0.000000e+00
-4.057365e-06    -4.575993e-06    0.000000e+00
-2.665258e-06    -4.285737e-06    0.000000e+00
-1.320252e-06    -4.110021e-06    0.000000e+00
-3.566273e-19    -4.051203e-06    0.000000e+00
1.320252e-06    -4.110021e-06    0.000000e+00
2.665258e-06    -4.285737e-06    0.000000e+00
4.057365e-06    -4.575993e-06    0.000000e+00
5.512688e-06    -4.976601e-06    0.000000e+00
7.038197e-06    -5.485068e-06    0.000000e+00
-8.334738e-06    -7.175302e-06    0.000000e+00
-6.554951e-06    -6.680287e-06    0.000000e+00
-4.845648e-06    -6.292349e-06    0.000000e+00
-3.194802e-06    -6.012363e-06    0.000000e+00
-1.586287e-06    -5.842896e-06    0.000000e+00
-4.365925e-19    -5.786147e-06    0.000000e+00
1.586287e-06    -5.842896e-06    0.000000e+00
3.194802e-06    -6.012363e-06    0.000000e+00
4.845648e-06    -6.292349e-06    0.000000e+00
6.554951e-06    -6.680287e-06    0.000000e+00
8.334738e-06    -7.175302e-06    0.000000e+00
-9.598052e-06    -9.121278e-06    0.000000e+00
-7.567542e-06    -8.640269e-06    0.000000e+00
-5.608574e-06    -8.264677e-06    0.000000e+00
-3.705943e-06    -7.994703e-06    0.000000e+00
-1.842768e-06    -7.831763e-06    0.000000e+00
-5.133020e-19    -7.777260e-06    0.000000e+00
1.842768e-06    -7.831763e-06    0.000000e+00
3.705943e-06    -7.994703e-06    0.000000e+00
5.608574e-06    -8.264677e-06    0.000000e+00
7.567542e-06    -8.640269e-06    0.000000e+00
9.598052e-06    -9.121278e-06    0.000000e+00
-1.082574e-05    -1.131684e-05    0.000000e+00
-8.550337e-06    -1.085017e-05    0.000000e+00
-6.347339e-06    -1.048651e-05    0.000000e+00
-4.199820e-06    -1.022589e-05    0.000000e+00
-2.090240e-06    -1.006898e-05    0.000000e+00
-5.876291e-19    -1.001657e-05    0.000000e+00
2.090240e-06    -1.006898e-05    0.000000e+00
4.199820e-06    -1.022589e-05    0.000000e+00
6.347339e-06    -1.048651e-05    0.000000e+00
8.550337e-06    -1.085017e-05    0.000000e+00
1.082574e-05    -1.131684e-05    0.000000e+00
-1.201657e-05    -1.375475e-05    0.000000e+00
-9.503153e-06    -1.330256e-05    0.000000e+00
-7.062681e-06    -1.295057e-05    0.000000e+00
-4.677380e-06    -1.269874e-05    0.000000e+00
-2.329296e-06    -1.254738e-05    0.000000e+00
-6.624856e-19    -1.249687e-05    0.000000e+00
2.329296e-06    -1.254738e-05    0.000000e+00
4.677380e-06    -1.269874e-05    0.000000e+00
7.062681e-06    -1.295057e-05    0.000000e+00
9.503153e-06    -1.330256e-05    0.000000e+00
1.201657e-05    -1.375475e-05    0.000000e+00
-1.316996e-05    -1.642742e-05    0.000000e+00
-1.042586e-05    -1.598979e-05    0.000000e+00
-7.754997e-06    -1.564930e-05    0.000000e+00
-5.139219e-06    -1.540592e-05    0.000000e+00
-2.560344e-06    -1.525977e-05    0.000000e+00
-7.381892e-19    -1.521102e-05    0.000000e+00
2.560344e-06    -1.525977e-05    0.000000e+00
5.139219e-06    -1.540592e-05    0.000000e+00
7.754997e-06    -1.564930e-05    0.000000e+00
1.042586e-05    -1.598979e-05    0.000000e+00
1.316996e-05    -1.642742e-05    0.000000e+00
-1.428565e-05    -1.932720e-05    0.000000e+00
-1.131838e-05    -1.890414e-05    0.000000e+00
-8.424482e-06    -1.857507e-05    0.000000e+00
-5.585660e-06    -1.833995e-05    0.000000e+00
-2.783619e-06    -1.819882e-05    0.000000e+00
-8.033049e-19    -1.815177e-05    0.000000e+00
2.783619e-06    -1.819882e-05    0.000000e+00
5.585660e-06    -1.833995e-05    0.000000e+00
8.424482e-06    -1.857507e-05    0.000000e+00
1.131838e-05    -1.890414e-05    0.000000e+00
1.428565e-05    -1.932720e-05    0.000000e+00
-1.536356e-05    -2.244643e-05    0.000000e+00
-1.218067e-05    -2.203797e-05    0.000000e+00
-9.071225e-06    -2.172026e-05    0.000000e+00
-6.016862e-06    -2.149331e-05    0.000000e+00
-2.999241e-06    -2.135712e-05    0.000000e+00
-8.726557e-19    -2.131172e-05    0.000000e+00
2.999241e-06    -2.135712e-05    0.000000e+00
6.016862e-06    -2.149331e-05    0.000000e+00
9.071225e-06    -2.172026e-05    0.000000e+00
1.218067e-05    -2.203797e-05    0.000000e+00
1.536356e-05    -2.244643e-05    0.000000e+00
-1.640364e-05    -2.577751e-05    0.000000e+00
-1.301272e-05    -2.538364e-05    0.000000e+00
-9.695260e-06    -2.507729e-05    0.000000e+00
-6.432896e-06    -2.485846e-05    0.000000e+00
-3.207264e-06    -2.472717e-05    0.000000e+00
-9.503710e-19    -2.468340e-05    0.000000e+00
3.207264e-06    -2.472717e-05    0.000000e+00
6.432896e-06    -2.485846e-05    0.000000e+00
9.695260e-06    -2.507729e-05    0.000000e+00
1.301272e-05    -2.538364e-05    0.000000e+00
1.640364e-05    -2.577751e-05    0.000000e+00
-1.740590e-05    -2.931285e-05    0.000000e+00
-1.381451e-05    -2.893356e-05    0.000000e+00
-1.029660e-05    -2.863856e-05    0.000000e+00
-6.833790e-06    -2.842785e-05    0.000000e+00
-3.407712e-06    -2.830142e-05    0.000000e+00
-1.006910e-18    -2.825928e-05    0.000000e+00
3.407712e-06    -2.830142e-05    0.000000e+00
6.833790e-06    -2.842785e-05    0.000000e+00
1.029660e-05    -2.863856e-05    0.000000e+00
1.381451e-05    -2.893356e-05    0.000000e+00
1.740590e-05    -2.931285e-05    0.000000e+00
-1.837033e-05    -3.304486e-05    0.000000e+00
-1.458605e-05    -3.268016e-05    0.000000e+00
-1.087525e-05    -3.239651e-05    0.000000e+00
-7.219555e-06    -3.219390e-05    0.000000e+00
-3.600594e-06    -3.207233e-05    0.000000e+00
-1.057203e-18    -3.203181e-05    0.000000e+00
3.600594e-06    -3.207233e-05    0.000000e+00
7.219555e-06    -3.219390e-05    0.000000e+00
1.087525e-05    -3.239651e-05    0.000000e+00
1.458605e-05    -3.268016e-05    0.000000e+00
1.837033e-05    -3.304486e-05    0.000000e+00
-1.929694e-05    -3.696597e-05    0.000000e+00
-1.532733e-05    -3.661586e-05    0.000000e+00
-1.143121e-05    -3.634356e-05    0.000000e+00
-7.590192e-06    -3.614905e-05    0.000000e+00
-3.785912e-06    -3.603235e-05    0.000000e+00
-1.098496e-18    -3.599345e-05    0.000000e+00
3.785912e-06    -3.603235e-05    0.000000e+00
7.590192e-06    -3.614905e-05    0.000000e+00
1.143121e-05    -3.634356e-05    0.000000e+00
1.532733e-05    -3.661586e-05    0.000000e+00
1.929694e-05    -3.696597e-05    0.000000e+00
-2.018572e-05    -4.106863e-05    0.000000e+00
-1.603836e-05    -4.073311e-05    0.000000e+00
-1.196448e-05    -4.047215e-05    0.000000e+00
-7.945703e-06    -4.028575e-05    0.000000e+00
-3.963667e-06    -4.017391e-05    0.000000e+00
-1.120201e-18    -4.013663e-05    0.000000e+00
3.963667e-06    -4.017391e-05    0.000000e+00
7.945703e-06    -4.028575e-05    0.000000e+00
1.196448e-05    -4.047215e-05    0.000000e+00
1.603836e-05    -4.073311e-05    0.000000e+00
2.018572e-05    -4.106863e-05    0.000000e+00
-2.103669e-05    -4.534526e-05    0.000000e+00
-1.671913e-05    -4.502433e-05    0.000000e+00
-1.247505e-05    -4.477471e-05    0.000000e+00
-8.286086e-06    -4.459641e-05    0.000000e+00
-4.133858e-06    -4.448944e-05    0.000000e+00
-1.155353e-18    -4.445378e-05    0.000000e+00
4.133858e-06    -4.448944e-05    0.000000e+00
8.286086e-06    -4.459641e-05    0.000000e+00
1.247505e-05    -4.477471e-05    0.000000e+00
1.671913e-05    -4.502433e-05    0.000000e+00
2.103669e-05    -4.534526e-05    0.000000e+00
-2.184983e-05    -4.978830e-05    0.000000e+00
-1.736964e-05    -4.948195e-05    0.000000e+00
-1.296294e-05    -4.924368e-05    0.000000e+00
-8.611342e-06    -4.907349e-05    0.000000e+00
-4.296486e-06    -4.897138e-05    0.000000e+00
-1.209351e-18    -4.893734e-05    0.000000e+00
4.296486e-06    -4.897138e-05    0.000000e+00
8.611342e-06    -4.907349e-05    0.000000e+00
1.296294e-05    -4.924368e-05    0.000000e+00
1.736964e-05    -4.948195e-05    0.000000e+00
2.184983e-05    -4.978830e-05    0.000000e+00
-2.262515e-05    -5.439019e-05    0.000000e+00
-1.798990e-05    -5.409843e-05    0.000000e+00
-1.342813e-05    -5.387151e-05    0.000000e+00
-8.921470e-06    -5.370942e-05    0.000000e+00
-4.451550e-06    -5.361216e-05    0.000000e+00
-1.289396e-18    -5.357975e-05    0.000000e+00
4.451550e-06    -5.361216e-05    0.000000e+00
8.921470e-06    -5.370942e-05    0.000000e+00
1.342813e-05    -5.387151e-05    0.000000e+00
1.798990e-05    -5.409843e-05    0.000000e+00
2.262515e-05    -5.439019e-05    0.000000e+00
-2.336265e-05    -5.914336e-05    0.000000e+00
-1.857990e-05    -5.886619e-05    0.000000e+00
-1.387063e-05    -5.865061e-05    0.000000e+00
-9.216470e-06    -5.849662e-05    0.000000e+00
-4.599050e-06    -5.840423e-05    0.000000e+00
-1.396546e-18    -5.837344e-05    0.000000e+00
4.599050e-06    -5.840423e-05    0.000000e+00
9.216470e-06    -5.849662e-05    0.000000e+00
1.387063e-05    -5.865061e-05    0.000000e+00
1.857990e-05    -5.886619e-05    0.000000e+00
2.336265e-05    -5.914336e-05    0.000000e+00
-2.406233e-05    -6.404024e-05    0.000000e+00
-1.913964e-05    -6.377766e-05    0.000000e+00
-1.429044e-05    -6.357343e-05    0.000000e+00
-9.496342e-06    -6.342755e-05    0.000000e+00
-4.738986e-06    -6.334002e-05    0.000000e+00
-1.484637e-18    -6.331085e-05    0.000000e+00
4.738986e-06    -6.334002e-05    0.000000e+00
9.496342e-06    -6.342755e-05    0.000000e+00
1.429044e-05    -6.357343e-05    0.000000e+00
1.913964e-05    -6.377766e-05    0.000000e+00
2.406233e-05    -6.404024e-05    0.000000e+00
-2.472419e-05    -6.907328e-05    0.000000e+00
-1.966913e-05    -6.882529e-05    0.000000e+00
-1.468755e-05    -6.863240e-05    0.000000e+00
-9.761086e-06    -6.849463e-05    0.000000e+00
-4.871358e-06    -6.841196e-05    0.000000e+00
-1.549647e-18    -6.838441e-05    0.000000e+00
4.871358e-06    -6.841196e-05    0.000000e+00
9.761086e-06    -6.849463e-05    0.000000e+00
1.468755e-05    -6.863240e-05    0.000000e+00
1.966913e-05    -6.882529e-05    0.000000e+00
2.472419e-05    -6.907328e-05    0.000000e+00
-2.534823e-05    -7.423491e-05    0.000000e+00
-2.016836e-05    -7.400151e-05    0.000000e+00
-1.506198e-05    -7.381997e-05    0.000000e+00
-1.001070e-05    -7.369030e-05    0.000000e+00
-4.996166e-06    -7.361249e-05    0.000000e+00
-1.630538e-18    -7.358656e-05    0.000000e+00
4.996166e-06    -7.361249e-05    0.000000e+00
1.001070e-05    -7.369030e-05    0.000000e+00
1.506198e-05    -7.381997e-05    0.000000e+00
2.016836e-05    -7.400151e-05    0.000000e+00
2.534823e-05    -7.423491e-05    0.000000e+00
-2.593444e-05    -7.951757e-05    0.000000e+00
-2.063734e-05    -7.929875e-05    0.000000e+00
-1.541371e-05    -7.912856e-05    0.000000e+00
-1.024519e-05    -7.900699e-05    0.000000e+00
-5.113411e-06    -7.893405e-05    0.000000e+00
-1.677972e-18    -7.890974e-05    0.000000e+00
5.113411e-06    -7.893405e-05    0.000000e+00
1.024519e-05    -7.900699e-05    0.000000e+00
1.541371e-05    -7.912856e-05    0.000000e+00
2.063734e-05    -7.929875e-05    0.000000e+00
2.593444e-05    -7.951757e-05    0.000000e+00
-2.648284e-05    -8.491369e-05    0.000000e+00
-2.107605e-05    -8.470946e-05    0.000000e+00
-1.574275e-05    -8.455061e-05    0.000000e+00
-1.046455e-05    -8.443715e-05    0.000000e+00
-5.223092e-06    -8.436907e-05    0.000000e+00
-1.716936e-18    -8.434637e-05    0.000000e+00
5.223092e-06    -8.436907e-05    0.000000e+00
1.046455e-05    -8.443715e-05    0.000000e+00
1.574275e-05    -8.455061e-05    0.000000e+00
2.107605e-05    -8.470946e-05    0.000000e+00
2.648284e-05    -8.491369e-05    0.000000e+00
-2.699341e-05    -9.041570e-05    0.000000e+00
-2.148451e-05    -9.022606e-05    0.000000e+00
-1.604910e-05    -9.007856e-05    0.000000e+00
-1.066879e-05    -8.997320e-05    0.000000e+00
-5.325210e-06    -8.990998e-05    0.000000e+00
-1.739382e-18    -8.988891e-05    0.000000e+00
5.325210e-06    -8.990998e-05    0.000000e+00
1.066879e-05    -8.997320e-05    0.000000e+00
1.604910e-05    -9.007856e-05    0.000000e+00
2.148451e-05    -9.022606e-05    0.000000e+00
2.699341e-05    -9.041570e-05    0.000000e+00
-2.746616e-05    -9.601604e-05    0.000000e+00
-2.186272e-05    -9.584099e-05    0.000000e+00
-1.633276e-05    -9.570483e-05    0.000000e+00
-1.085789e-05    -9.560758e-05    0.000000e+00
-5.419762e-06    -9.554923e-05    0.000000e+00
-1.731759e-18    -9.552978e-05    0.000000e+00
5.419762e-06    -9.554923e-05    0.000000e+00
1.085789e-05    -9.560758e-05    0.000000e+00
1.633276e-05    -9.570483e-05    0.000000e+00
2.186272e-05    -9.584099e-05    0.000000e+00
2.746616e-05    -9.601604e-05    0.000000e+00
-2.790108e-05    -1.017071e-04    0.000000e+00
-2.221067e-05    -1.015467e-04    0.000000e+00
-1.659372e-05    -1.014219e-04    0.000000e+00
-1.103187e-05    -1.013327e-04    0.000000e+00
-5.506746e-06    -1.012793e-04    0.000000e+00
-1.724983e-18    -1.012614e-04    0.000000e+00
5.506746e-06    -1.012793e-04    0.000000e+00
1.103187e-05    -1.013327e-04    0.000000e+00
1.659372e-05    -1.014219e-04    0.000000e+00
2.221067e-05    -1.015467e-04    0.000000e+00
2.790108e-05    -1.017071e-04    0.000000e+00
-2.829818e-05    -1.074814e-04    0.000000e+00
-2.252837e-05    -1.073355e-04    0.000000e+00
-1.683199e-05    -1.072221e-04    0.000000e+00
-1.119069e-05    -1.071411e-04    0.000000e+00
-5.586147e-06    -1.070925e-04    0.000000e+00
-1.772416e-18    -1.070763e-04    0.000000e+00
5.586147e-06    -1.070925e-04    0.000000e+00
1.119069e-05    -1.071411e-04    0.000000e+00
1.683199e-05    -1.072221e-04    0.000000e+00
2.252837e-05    -1.073355e-04    0.000000e+00
2.829818e-05    -1.074814e-04    0.000000e+00
-2.865746e-05    -1.133313e-04    0.000000e+00
-2.281583e-05    -1.132000e-04    0.000000e+00
-1.704753e-05    -1.130979e-04    0.000000e+00
-1.133432e-05    -1.130251e-04    0.000000e+00
-5.657933e-06    -1.129815e-04    0.000000e+00
-1.825780e-18    -1.129670e-04    0.000000e+00
5.657933e-06    -1.129815e-04    0.000000e+00
1.133432e-05    -1.130251e-04    0.000000e+00
1.704753e-05    -1.130979e-04    0.000000e+00
2.281583e-05    -1.132000e-04    0.000000e+00
2.865746e-05    -1.133313e-04    0.000000e+00
-2.897900e-05    -1.192491e-04    0.000000e+00
-2.307307e-05    -1.191323e-04    0.000000e+00
-1.724031e-05    -1.190417e-04    0.000000e+00
-1.146267e-05    -1.189772e-04    0.000000e+00
-5.722033e-06    -1.189387e-04    0.000000e+00
-1.935047e-18    -1.189259e-04    0.000000e+00
5.722033e-06    -1.189387e-04    0.000000e+00
1.146267e-05    -1.189772e-04    0.000000e+00
1.724031e-05    -1.190417e-04    0.000000e+00
2.307307e-05    -1.191323e-04    0.000000e+00
2.897900e-05    -1.192491e-04    0.000000e+00
-2.926292e-05    -1.252272e-04    0.000000e+00
-2.330015e-05    -1.251250e-04    0.000000e+00
-1.741020e-05    -1.250459e-04    0.000000e+00
-1.157554e-05    -1.249900e-04    0.000000e+00
-5.778300e-06    -1.249567e-04    0.000000e+00
-2.038385e-18    -1.249457e-04    0.000000e+00
5.778300e-06    -1.249567e-04    0.000000e+00
1.157554e-05    -1.249900e-04    0.000000e+00
1.741020e-05    -1.250459e-04    0.000000e+00
2.330015e-05    -1.251250e-04    0.000000e+00
2.926292e-05    -1.252272e-04    0.000000e+00
-2.950957e-05    -1.312580e-04    0.000000e+00
-2.349715e-05    -1.311703e-04    0.000000e+00
-1.755696e-05    -1.311029e-04    0.000000e+00
-1.167254e-05    -1.310559e-04    0.000000e+00
-5.826470e-06    -1.310283e-04    0.000000e+00
-2.089630e-18    -1.310192e-04    0.000000e+00
5.826470e-06    -1.310283e-04    0.000000e+00
1.167254e-05    -1.310559e-04    0.000000e+00
1.755696e-05    -1.311029e-04    0.000000e+00
2.349715e-05    -1.311703e-04    0.000000e+00
2.950957e-05    -1.312580e-04    0.000000e+00
-2.971970e-05    -1.373341e-04    0.000000e+00
-2.366419e-05    -1.372607e-04    0.000000e+00
-1.768012e-05    -1.372053e-04    0.000000e+00
-1.175305e-05    -1.371677e-04    0.000000e+00
-5.866126e-06    -1.371461e-04    0.000000e+00
-2.161628e-18    -1.371391e-04    0.000000e+00
5.866126e-06    -1.371461e-04    0.000000e+00
1.175305e-05    -1.371677e-04    0.000000e+00
1.768012e-05    -1.372053e-04    0.000000e+00
2.366419e-05    -1.372607e-04    0.000000e+00
2.971970e-05    -1.373341e-04    0.000000e+00
-2.989482e-05    -1.434487e-04    0.000000e+00
-2.380140e-05    -1.433890e-04    0.000000e+00
-1.777888e-05    -1.433460e-04    0.000000e+00
-1.181618e-05    -1.433182e-04    0.000000e+00
-5.896783e-06    -1.433028e-04    0.000000e+00
-2.239555e-18    -1.432978e-04    0.000000e+00
5.896783e-06    -1.433028e-04    0.000000e+00
1.181618e-05    -1.433182e-04    0.000000e+00
1.777888e-05    -1.433460e-04    0.000000e+00
2.380140e-05    -1.433890e-04    0.000000e+00
2.989482e-05    -1.434487e-04    0.000000e+00
-3.003771e-05    -1.495966e-04    0.000000e+00
-2.390868e-05    -1.495501e-04    0.000000e+00
-1.785219e-05    -1.495193e-04    0.000000e+00
-1.186131e-05    -1.495004e-04    0.000000e+00
-5.918291e-06    -1.494899e-04    0.000000e+00
-2.153158e-18    -1.494865e-04    0.000000e+00
5.918291e-06    -1.494899e-04    0.000000e+00
1.186131e-05    -1.495004e-04    0.000000e+00
1.785219e-05    -1.495193e-04    0.000000e+00
2.390868e-05    -1.495501e-04    0.000000e+00
3.003771e-05    -1.495966e-04    0.000000e+00
-3.015266e-05    -1.557777e-04    0.000000e+00
-2.398524e-05    -1.557429e-04    0.000000e+00
-1.789973e-05    -1.557217e-04    0.000000e+00
-1.188968e-05    -1.557065e-04    0.000000e+00
-5.931808e-06    -1.556960e-04    0.000000e+00
-2.025256e-18    -1.556922e-04    0.000000e+00
5.931808e-06    -1.556960e-04    0.000000e+00
1.188968e-05    -1.557065e-04    0.000000e+00
1.789973e-05    -1.557217e-04    0.000000e+00
2.398524e-05    -1.557429e-04    0.000000e+00
3.015266e-05    -1.557777e-04    0.000000e+00
-3.024247e-05    -1.620033e-04    0.000000e+00
-2.402963e-05    -1.619782e-04    0.000000e+00
-1.792698e-05    -1.619524e-04    0.000000e+00
-1.190771e-05    -1.619237e-04    0.000000e+00
-5.940983e-06    -1.619022e-04    0.000000e+00
-2.010856e-18    -1.618944e-04    0.000000e+00
5.940983e-06    -1.619022e-04    0.000000e+00
1.190771e-05    -1.619237e-04    0.000000e+00
1.792698e-05    -1.619524e-04    0.000000e+00
2.402963e-05    -1.619782e-04    0.000000e+00
3.024247e-05    -1.620033e-04    0.000000e+00
-3.028999e-05    -1.683293e-04    0.000000e+00
-2.405775e-05    -1.682809e-04    0.000000e+00
-1.795459e-05    -1.681993e-04    0.000000e+00
-1.192877e-05    -1.681258e-04    0.000000e+00
-5.952372e-06    -1.680767e-04    0.000000e+00
-2.002598e-18    -1.680596e-04    0.000000e+00
5.952372e-06    -1.680767e-04    0.000000e+00
1.192877e-05    -1.681258e-04    0.000000e+00
1.795459e-05    -1.681993e-04    0.000000e+00
2.405775e-05    -1.682809e-04    0.000000e+00
3.028999e-05    -1.683293e-04    0.000000e+00

CELL_DATA      400
TENSORS Element_Stress1.400000e-01 double
2.538411e+06 3.557753e+05        0
3.557753e+05 5.807043e+05        0
       0        0        0

1.733736e+06 1.824021e+05        0
1.824021e+05 4.972015e+05        0
       0        0        0

1.205785e+06 5.994737e+04        0
5.994737e+04 3.833058e+05        0
       0        0        0

7.107389e+05 -4.985673e+03        0
-4.985673e+03 2.355314e+05        0
       0        0        0

2.352797e+05 -3.467233e+04        0
-3.467233e+04 7.934762e+04        0
       0        0        0

-2.352103e+05 -3.466044e+04        0
-3.466044e+04 -7.936329e+04        0
       0        0        0

-7.098153e+05 -4.987126e+03        0
-4.987126e+03 -2.352118e+05        0
       0        0        0

-1.203046e+06 5.980796e+04        0
5.980796e+04 -3.822794e+05        0
       0        0        0

-1.727939e+06 1.818418e+05        0
1.818418e+05 -4.949809e+05        0
       0        0        0

-2.526328e+06 3.542018e+05        0
3.542018e+05 -5.765268e+05        0
       0        0        0

2.289215e+06 5.798294e+04        0
5.798294e+04 6.202217e+03        0
       0        0        0

1.843172e+06 1.681644e+05        0
1.681644e+05 1.793692e+05        0
       0        0        0

1.265647e+06 1.379889e+05        0
1.379889e+05 1.831075e+05        0
       0        0        0

7.472404e+05 1.056419e+05        0
1.056419e+05 1.278433e+05        0
       0        0        0

2.460806e+05 8.808737e+04        0
8.808737e+04 4.439555e+04        0
       0        0        0

-2.480953e+05 8.805176e+04        0
8.805176e+04 -4.651434e+04        0
       0        0        0

-7.482768e+05 1.055149e+05        0
1.055149e+05 -1.296134e+05        0
       0        0        0

-1.264587e+06 1.377167e+05        0
1.377167e+05 -1.841147e+05        0
       0        0        0

-1.838273e+06 1.677032e+05        0
1.677032e+05 -1.788801e+05        0
       0        0        0

-2.280277e+06 5.781471e+04        0
5.781471e+04 -4.070110e+03        0
       0        0        0

2.208908e+06 2.148891e+04        0
2.148891e+04 8.861206e+03        0
       0        0        0

1.771756e+06 9.523939e+04        0
9.523939e+04 2.391670e+04        0
       0        0        0

1.273940e+06 1.415475e+05        0
1.415475e+05 5.828320e+04        0
       0        0        0

7.559256e+05 1.497731e+05        0
1.497731e+05 4.917519e+04        0
       0        0        0

2.486959e+05 1.496589e+05        0
1.496589e+05 1.679405e+04        0
       0        0        0

-2.551668e+05 1.496047e+05        0
1.496047e+05 -2.337829e+04        0
       0        0        0

-7.613637e+05 1.496117e+05        0
1.496117e+05 -5.539064e+04        0
       0        0        0

-1.277183e+06 1.412969e+05        0
1.412969e+05 -6.367257e+04        0
       0        0        0

-1.771704e+06 9.501639e+04        0
9.501639e+04 -2.797738e+04        0
       0        0        0

-2.205073e+06 2.142696e+04        0
2.142696e+04 -1.137818e+04        0
       0        0        0

2.153884e+06 1.989567e+04        0
1.989567e+04 -6.782768e+03        0
       0        0        0

1.708212e+06 7.732906e+04        0
7.732906e+04 -4.226793e+03        0
       0        0        0

1.233868e+06 1.288432e+05        0
1.288432e+05 2.406118e+03        0
       0        0        0

7.411430e+05 1.597021e+05        0
1.597021e+05 6.397632e+03        0
       0        0        0

2.425257e+05 1.718862e+05        0
1.718862e+05 -8.853998e+02        0
       0        0        0

-2.554741e+05 1.718289e+05        0
1.718289e+05 -1.217590e+04        0
       0        0        0

-7.530703e+05 1.595435e+05        0
1.595435e+05 -1.908311e+04        0
       0        0        0

-1.243732e+06 1.286343e+05        0
1.286343e+05 -1.429741e+04        0
       0        0        0

-1.715018e+06 7.715783e+04        0
7.715783e+04 -6.416381e+03        0
       0        0        0

-2.156608e+06 1.984128e+04        0
1.984128e+04 -2.004262e+03        0
       0        0        0

2.101523e+06 2.387766e+04        0
2.387766e+04 -1.018285e+04        0
       0        0        0

1.649397e+06 7.594158e+04        0
7.594158e+04 -1.463007e+04        0
       0        0        0

1.187541e+06 1.241094e+05        0
1.241094e+05 -1.445140e+04        0
       0        0        0

7.129506e+05 1.583598e+05        0
1.583598e+05 -1.234800e+04        0
       0        0        0

2.312427e+05 1.753510e+05        0
1.753510e+05 -1.085559e+04        0
       0        0        0

-2.523740e+05 1.752960e+05        0
1.752960e+05 -1.038272e+04        0
       0        0        0

-7.331210e+05 1.582118e+05        0
1.582118e+05 -8.532530e+03        0
       0        0        0

-1.205786e+06 1.239181e+05        0
1.239181e+05 -5.684716e+03        0
       0        0        0

-1.664743e+06 7.577998e+04        0
7.577998e+04 -4.312255e+03        0
       0        0        0

-2.112871e+06 2.381365e+04        0
2.381365e+04 -6.963489e+03        0
       0        0        0

2.044654e+06 2.730486e+04        0
2.730486e+04 -1.488244e+04        0
       0        0        0

1.594652e+06 7.867008e+04        0
7.867008e+04 -1.877610e+04        0
       0        0        0

1.141914e+06 1.231763e+05        0
1.231763e+05 -2.084666e+04        0
       0        0        0

6.824916e+05 1.557547e+05        0
1.557547e+05 -1.983938e+04        0
       0        0        0

2.177571e+05 1.727259e+05        0
1.727259e+05 -1.712207e+04        0
       0        0        0

-2.485546e+05 1.726741e+05        0
1.726741e+05 -1.377514e+04        0
       0        0        0

-7.124073e+05 1.556152e+05        0
1.556152e+05 -1.073715e+04        0
       0        0        0

-1.170062e+06 1.229933e+05        0
1.229933e+05 -9.065329e+03        0
       0        0        0

-1.620116e+06 7.850762e+04        0
7.850762e+04 -1.007331e+04        0
       0        0        0

-2.066413e+06 2.723344e+04        0
2.723344e+04 -1.239589e+04        0
       0        0        0

1.983600e+06 2.947146e+04        0
2.947146e+04 -2.017982e+04        0
       0        0        0

1.541152e+06 8.132291e+04        0
8.132291e+04 -2.291449e+04        0
       0        0        0

1.098506e+06 1.235311e+05        0
1.235311e+05 -2.478265e+04        0
       0        0        0

6.527315e+05 1.537619e+05        0
1.537619e+05 -2.450819e+04        0
       0        0        0

2.039620e+05 1.695374e+05        0
1.695374e+05 -2.237822e+04        0
       0        0        0

-2.457536e+05 1.694884e+05        0
1.694884e+05 -1.950611e+04        0
       0        0        0

-6.937341e+05 1.536288e+05        0
1.536288e+05 -1.711029e+04        0
       0        0        0

-1.137924e+06 1.233533e+05        0
1.233533e+05 -1.628686e+04        0
       0        0        0

-1.578163e+06 8.115975e+04        0
8.115975e+04 -1.728406e+04        0
       0        0        0

-2.017312e+06 2.939639e+04        0
2.939639e+04 -1.876056e+04        0
       0        0        0

1.919582e+06 3.066633e+04        0
3.066633e+04 -2.634301e+04        0
       0        0        0

1.487837e+06 8.308429e+04        0
8.308429e+04 -2.798038e+04        0
       0        0        0

1.056573e+06 1.240440e+05        0
1.240440e+05 -2.925538e+04        0
       0        0        0

6.240813e+05 1.525668e+05        0
1.525668e+05 -2.923975e+04        0
       0        0        0

1.901631e+05 1.672549e+05        0
1.672549e+05 -2.795953e+04        0
       0        0        0

-2.441486e+05 1.672081e+05        0
1.672081e+05 -2.611242e+04        0
       0        0        0

-6.773797e+05 1.524389e+05        0
1.524389e+05 -2.463400e+04        0
       0        0        0

-1.108490e+06 1.238709e+05        0
1.238709e+05 -2.420980e+04        0
       0        0        0

-1.537658e+06 8.292241e+04        0
8.292241e+04 -2.484051e+04        0
       0        0        0

-1.966553e+06 3.059042e+04        0
3.059042e+04 -2.556061e+04        0
       0        0        0

1.853703e+06 3.126418e+04        0
3.126418e+04 -3.319956e+04        0
       0        0        0

1.434251e+06 8.407448e+04        0
8.407448e+04 -3.408126e+04        0
       0        0        0

1.015346e+06 1.244192e+05        0
1.244192e+05 -3.481143e+04        0
       0        0        0

5.960962e+05 1.519328e+05        0
1.519328e+05 -3.486004e+04        0
       0        0        0

1.763051e+05 1.659158e+05        0
1.659158e+05 -3.417840e+04        0
       0        0        0

-2.435610e+05 1.658708e+05        0
1.658708e+05 -3.315822e+04        0
       0        0        0

-6.627710e+05 1.518093e+05        0
1.518093e+05 -3.235314e+04        0
       0        0        0

-1.080852e+06 1.242509e+05        0
1.242509e+05 -3.214638e+04        0
       0        0        0

-1.497988e+06 8.391560e+04        0
8.391560e+04 -3.247257e+04        0
       0        0        0

-1.915042e+06 3.118911e+04        0
3.118911e+04 -3.277923e+04        0
       0        0        0

1.786685e+06 3.153788e+04        0
3.153788e+04 -4.062414e+04        0
       0        0        0

1.380272e+06 8.457267e+04        0
8.457267e+04 -4.101370e+04        0
       0        0        0

9.742968e+05 1.246390e+05        0
1.246390e+05 -4.135425e+04        0
       0        0        0

5.683383e+05 1.516264e+05        0
1.516264e+05 -4.137507e+04        0
       0        0        0

1.622623e+05 1.652196e+05        0
1.652196e+05 -4.103241e+04        0
       0        0        0

-2.437404e+05 1.651763e+05        0
1.651763e+05 -4.052116e+04        0
       0        0        0

-6.493421e+05 1.515071e+05        0
1.515071e+05 -4.013250e+04        0
       0        0        0

-1.054347e+06 1.244757e+05        0
1.244757e+05 -4.005506e+04        0
       0        0        0

-1.458877e+06 8.441786e+04        0
8.441786e+04 -4.023314e+04        0
       0        0        0

-1.863338e+06 3.146452e+04        0
3.146452e+04 -4.038025e+04        0
       0        0        0

1.718958e+06 3.165138e+04        0
3.165138e+04 -4.850324e+04        0
       0        0        0

1.325898e+06 8.480013e+04        0
8.480013e+04 -4.856960e+04        0
       0        0        0

9.331500e+05 1.247517e+05        0
1.247517e+05 -4.864355e+04        0
       0        0        0

5.405304e+05 1.514902e+05        0
1.514902e+05 -4.860197e+04        0
       0        0        0

1.479618e+05 1.648907e+05        0
1.648907e+05 -4.841753e+04        0
       0        0        0

-2.444886e+05 1.648488e+05        0
1.648488e+05 -4.817976e+04        0
       0        0        0

-6.366882e+05 1.513749e+05        0
1.513749e+05 -4.802666e+04        0
       0        0        0

-1.028565e+06 1.245935e+05        0
1.245935e+05 -4.804268e+04        0
       0        0        0

-1.420187e+06 8.464995e+04        0
8.464995e+04 -4.819075e+04        0
       0        0        0

-1.811724e+06 3.158016e+04        0
3.158016e+04 -4.833447e+04        0
       0        0        0

1.650768e+06 3.169243e+04        0
3.169243e+04 -5.674625e+04        0
       0        0        0

1.271176e+06 8.489328e+04        0
8.489328e+04 -5.658376e+04        0
       0        0        0

8.917927e+05 1.248030e+05        0
1.248030e+05 -5.646923e+04        0
       0        0        0

5.125427e+05 1.514347e+05        0
1.514347e+05 -5.635392e+04        0
       0        0        0

1.333850e+05 1.647488e+05        0
1.647488e+05 -5.622454e+04        0
       0        0        0

-2.456627e+05 1.647084e+05        0
1.647084e+05 -5.611892e+04        0
       0        0        0

-6.245539e+05 1.513233e+05        0
1.513233e+05 -5.609661e+04        0
       0        0        0

-1.003267e+06 1.246501e+05        0
1.246501e+05 -5.619090e+04        0
       0        0        0

-1.381833e+06 8.474802e+04        0
8.474802e+04 -5.637963e+04        0
       0        0        0

-1.760315e+06 3.162353e+04        0
3.162353e+04 -5.660144e+04        0
       0        0        0

1.582257e+06 3.170377e+04        0
3.170377e+04 -6.527736e+04        0
       0        0        0

1.216167e+06 8.492569e+04        0
8.492569e+04 -6.493542e+04        0
       0        0        0

8.502036e+05 1.248231e+05        0
1.248231e+05 -6.467638e+04        0
       0        0        0

4.843386e+05 1.514141e+05        0
1.514141e+05 -6.448579e+04        0
       0        0        0

1.185507e+05 1.646937e+05        0
1.646937e+05 -6.435912e+04        0
       0        0        0

-2.471598e+05 1.646547e+05        0
1.646547e+05 -6.431127e+04        0
       0        0        0

-6.127805e+05 1.513066e+05        0
1.513066e+05 -6.436510e+04        0
       0        0        0

-9.783067e+05 1.246755e+05        0
1.246755e+05 -6.453114e+04        0
       0        0        0

-1.343751e+06 8.478546e+04        0
8.478546e+04 -6.479627e+04        0
       0        0        0

-1.709129e+06 3.163726e+04        0
3.163726e+04 -6.513341e+04        0
       0        0        0

1.513519e+06 3.170444e+04        0
3.170444e+04 -7.403050e+04        0
       0        0        0

1.160932e+06 8.493322e+04        0
8.493322e+04 -7.353433e+04        0
       0        0        0

8.084067e+05 1.248286e+05        0
1.248286e+05 -7.315433e+04        0
       0        0        0

4.559326e+05 1.514069e+05        0
1.514069e+05 -7.289040e+04        0
       0        0        0

1.034981e+05 1.646749e+05        0
1.646749e+05 -7.274279e+04        0
       0        0        0

-2.489012e+05 1.646373e+05        0
1.646373e+05 -7.271717e+04        0
       0        0        0

-6.012641e+05 1.513033e+05        0
1.513033e+05 -7.282089e+04        0
       0        0        0

-9.535908e+05 1.246864e+05        0
1.246864e+05 -7.305530e+04        0
       0        0        0

-1.305884e+06 8.479807e+04        0
8.479807e+04 -7.341207e+04        0
       0        0        0

-1.658141e+06 3.164034e+04        0
3.164034e+04 -7.387828e+04        0
       0        0        0

1.444623e+06 3.170208e+04        0
3.170208e+04 -8.294561e+04        0
       0        0        0

1.105530e+06 8.493184e+04        0
8.493184e+04 -8.230867e+04        0
       0        0        0

7.664457e+05 1.248281e+05        0
1.248281e+05 -8.182046e+04        0
       0        0        0

4.273631e+05 1.514040e+05        0
1.514040e+05 -8.148617e+04        0
       0        0        0

8.827567e+04 1.646698e+05        0
1.646698e+05 -8.130840e+04        0
       0        0        0

-2.508211e+05 1.646336e+05        0
1.646336e+05 -8.128963e+04        0
       0        0        0

-5.899290e+05 1.513043e+05        0
1.513043e+05 -8.143135e+04        0
       0        0        0

-9.290483e+05 1.246912e+05        0
1.246912e+05 -8.173171e+04        0
       0        0        0

-1.268177e+06 8.480179e+04        0
8.480179e+04 -8.218467e+04        0
       0        0        0

-1.607308e+06 3.164040e+04        0
3.164040e+04 -8.278244e+04        0
       0        0        0

1.375628e+06 3.169936e+04        0
3.169936e+04 -9.196657e+04        0
       0        0        0

1.050020e+06 8.492795e+04        0
8.492795e+04 -9.119712e+04        0
       0        0        0

7.243713e+05 1.248253e+05        0
1.248253e+05 -9.060825e+04        0
       0        0        0

3.986782e+05 1.514022e+05        0
1.514022e+05 -9.020675e+04        0
       0        0        0

7.293523e+04 1.646687e+05        0
1.646687e+05 -8.999626e+04        0
       0        0        0

-2.528613e+05 1.646340e+05        0
1.646340e+05 -8.997841e+04        0
       0        0        0

-5.787132e+05 1.513064e+05        0
1.513064e+05 -9.015290e+04        0
       0        0        0

-9.046199e+05 1.246938e+05        0
1.246938e+05 -9.051698e+04        0
       0        0        0

-1.230578e+06 8.480300e+04        0
8.480300e+04 -9.106561e+04        0
       0        0        0

-1.556578e+06 3.164011e+04        0
3.164011e+04 -9.179249e+04        0
       0        0        0

1.306587e+06 3.169699e+04        0
3.169699e+04 -1.010402e+05        0
       0        0        0

9.944533e+05 8.492378e+04        0
8.492378e+04 -1.001444e+05        0
       0        0        0

6.822355e+05 1.248218e+05        0
1.248218e+05 -9.946015e+04        0
       0        0        0

3.699287e+05 1.514002e+05        0
1.514002e+05 -9.899449e+04        0
       0        0        0

5.752853e+04 1.646684e+05        0
1.646684e+05 -9.875148e+04        0
       0        0        0

-2.549680e+05 1.646351e+05        0
1.646351e+05 -9.873270e+04        0
       0        0        0

-5.675620e+05 1.513083e+05        0
1.513083e+05 -9.893748e+04        0
       0        0        0

-8.802522e+05 1.246956e+05        0
1.246956e+05 -9.936302e+04        0
       0        0        0

-1.193034e+06 8.480394e+04        0
8.480394e+04 -1.000047e+05        0
       0        0        0

-1.505900e+06 3.164016e+04        0
3.164016e+04 -1.008563e+05        0
       0        0        0

1.237551e+06 3.169501e+04        0
3.169501e+04 -1.101156e+05        0
       0        0        0

9.388827e+05 8.491992e+04        0
8.491992e+04 -1.090989e+05        0
       0        0        0

6.400893e+05 1.248181e+05        0
1.248181e+05 -1.083237e+05        0
       0        0        0

3.411651e+05 1.513980e+05        0
1.513980e+05 -1.077969e+05        0
       0        0        0

4.210610e+04 1.646678e+05        0
1.646678e+05 -1.075226e+05        0
       0        0        0

-2.570902e+05 1.646359e+05        0
1.646359e+05 -1.075025e+05        0
       0        0        0

-5.564244e+05 1.513100e+05        0
1.513100e+05 -1.077362e+05        0
       0        0        0

-8.558946e+05 1.246974e+05        0
1.246974e+05 -1.082209e+05        0
       0        0        0

-1.155496e+06 8.480517e+04        0
8.480517e+04 -1.089520e+05        0
       0        0        0

-1.455221e+06 3.164060e+04        0
3.164060e+04 -1.099234e+05        0
       0        0        0

1.168568e+06 3.169331e+04        0
3.169331e+04 -1.191441e+05        0
       0        0        0

8.833567e+05 8.491639e+04        0
8.491639e+04 -1.180120e+05        0
       0        0        0

5.979815e+05 1.248146e+05        0
1.248146e+05 -1.171499e+05        0
       0        0        0

3.124362e+05 1.513955e+05        0
1.513955e+05 -1.165648e+05        0
       0        0        0

2.671658e+04 1.646668e+05        0
1.646668e+05 -1.162607e+05        0
       0        0        0

-2.591794e+05 1.646363e+05        0
1.646363e+05 -1.162396e+05        0
       0        0        0

-5.452520e+05 1.513114e+05        0
1.513114e+05 -1.165010e+05        0
       0        0        0

-8.314989e+05 1.246992e+05        0
1.246992e+05 -1.170424e+05        0
       0        0        0

-1.117915e+06 8.480675e+04        0
8.480675e+04 -1.178593e+05        0
       0        0        0

-1.404494e+06 3.164132e+04        0
3.164132e+04 -1.189452e+05        0
       0        0        0

1.099683e+06 3.169177e+04        0
3.169177e+04 -1.280795e+05        0
       0        0        0

8.279220e+05 8.491310e+04        0
8.491310e+04 -1.268370e+05        0
       0        0        0

5.559591e+05 1.248111e+05        0
1.248111e+05 -1.258922e+05        0
       0        0        0

2.837886e+05 1.513928e+05        0
1.513928e+05 -1.252516e+05        0
       0        0        0

1.140652e+04 1.646655e+05        0
1.646655e+05 -1.249193e+05        0
       0        0        0

-2.611892e+05 1.646365e+05        0
1.646365e+05 -1.248974e+05        0
       0        0        0

-5.339985e+05 1.513127e+05        0
1.513127e+05 -1.251856e+05        0
       0        0        0

-8.070189e+05 1.247011e+05        0
1.247011e+05 -1.257813e+05        0
       0        0        0

-1.080246e+06 8.480856e+04        0
8.480856e+04 -1.266802e+05        0
       0        0        0

-1.353672e+06 3.164220e+04        0
3.164220e+04 -1.278755e+05        0
       0        0        0

1.030942e+06 3.169033e+04        0
3.169033e+04 -1.368772e+05        0
       0        0        0

7.726228e+05 8.490998e+04        0
8.490998e+04 -1.355299e+05        0
       0        0        0

5.140664e+05 1.248077e+05        0
1.248077e+05 -1.345063e+05        0
       0        0        0

2.552670e+05 1.513901e+05        0
1.513901e+05 -1.338130e+05        0
       0        0        0

-3.779634e+03 1.646640e+05        0
1.646640e+05 -1.334541e+05        0
       0        0        0

-2.630753e+05 1.646364e+05        0
1.646364e+05 -1.334316e+05        0
       0        0        0

-5.226198e+05 1.513138e+05        0
1.513138e+05 -1.337455e+05        0
       0        0        0

-7.824106e+05 1.247030e+05        0
1.247030e+05 -1.343931e+05        0
       0        0        0

-1.042443e+06 8.481054e+04        0
8.481054e+04 -1.353701e+05        0
       0        0        0

-1.302710e+06 3.164317e+04        0
3.164317e+04 -1.366697e+05        0
       0        0        0

9.623868e+05 3.168895e+04        0
3.168895e+04 -1.454950e+05        0
       0        0        0

7.175015e+05 8.490697e+04        0
8.490697e+04 -1.440482e+05        0
       0        0        0

4.723459e+05 1.248043e+05        0
1.248043e+05 -1.429500e+05        0
       0        0        0

2.269136e+05 1.513873e+05        0
1.513873e+05 -1.422068e+05        0
       0        0        0

-1.879959e+04 1.646624e+05        0
1.646624e+05 -1.418228e+05        0
       0        0        0

-2.647955e+05 1.646362e+05        0
1.646362e+05 -1.418000e+05        0
       0        0        0

-5.110737e+05 1.513149e+05        0
1.513149e+05 -1.421384e+05        0
       0        0        0

-7.576318e+05 1.247050e+05        0
1.247050e+05 -1.428355e+05        0
       0        0        0

-1.004465e+06 8.481263e+04        0
8.481263e+04 -1.438869e+05        0
       0        0        0

-1.251566e+06 3.164422e+04        0
3.164422e+04 -1.452857e+05        0
       0        0        0

8.940565e+05 3.168765e+04        0
3.168765e+04 -1.538929e+05        0
       0        0        0

6.625983e+05 8.490410e+04        0
8.490410e+04 -1.523521e+05        0
       0        0        0

4.308379e+05 1.248010e+05        0
1.248010e+05 -1.511834e+05        0
       0        0        0

1.987688e+05 1.513844e+05        0
1.513844e+05 -1.503931e+05        0
       0        0        0

-3.361319e+04 1.646606e+05        0
1.646606e+05 -1.499854e+05        0
       0        0        0

-2.663098e+05 1.646358e+05        0
1.646358e+05 -1.499624e+05        0
       0        0        0

-4.993204e+05 1.513160e+05        0
1.513160e+05 -1.503241e+05        0
       0        0        0

-7.326424e+05 1.247071e+05        0
1.247071e+05 -1.510683e+05        0
       0        0        0

-9.662712e+05 8.481486e+04        0
8.481486e+04 -1.521904e+05        0
       0        0        0

-1.200200e+06 3.164533e+04        0
3.164533e+04 -1.536834e+05        0
       0        0        0

8.259896e+05 3.168645e+04        0
3.168645e+04 -1.620328e+05        0
       0        0        0

6.079512e+05 8.490140e+04        0
8.490140e+04 -1.604034e+05        0
       0        0        0

3.895805e+05 1.247978e+05        0
1.247978e+05 -1.591684e+05        0
       0        0        0

1.708707e+05 1.513815e+05        0
1.513815e+05 -1.583337e+05        0
       0        0        0

-4.818234e+04 1.646587e+05        0
1.646587e+05 -1.579038e+05        0
       0        0        0

-2.675801e+05 1.646353e+05        0
1.646353e+05 -1.578807e+05        0
       0        0        0

-4.873218e+05 1.513170e+05        0
1.513170e+05 -1.582646e+05        0
       0        0        0

-7.074047e+05 1.247092e+05        0
1.247092e+05 -1.590534e+05        0
       0        0        0

-9.278240e+05 8.481726e+04        0
8.481726e+04 -1.602424e+05        0
       0        0        0

-1.148573e+06 3.164655e+04        0
3.164655e+04 -1.618247e+05        0
       0        0        0

7.582217e+05 3.168544e+04        0
3.168544e+04 -1.698788e+05        0
       0        0        0

5.535961e+05 8.489896e+04        0
8.489896e+04 -1.681664e+05        0
       0        0        0

3.486096e+05 1.247946e+05        0
1.247946e+05 -1.668691e+05        0
       0        0        0

1.432553e+05 1.513784e+05        0
1.513784e+05 -1.659930e+05        0
       0        0        0

-6.247111e+04 1.646565e+05        0
1.646565e+05 -1.655422e+05        0
       0        0        0

-2.685707e+05 1.646345e+05        0
1.646345e+05 -1.655191e+05        0
       0        0        0

-4.750423e+05 1.513178e+05        0
1.513178e+05 -1.659240e+05        0
       0        0        0

-6.818828e+05 1.247114e+05        0
1.247114e+05 -1.667548e+05        0
       0        0        0

-8.890874e+05 8.481992e+04        0
8.481992e+04 -1.680071e+05        0
       0        0        0

-1.096650e+06 3.164796e+04        0
3.164796e+04 -1.696737e+05        0
       0        0        0

6.907863e+05 3.168472e+04        0
3.168472e+04 -1.773972e+05        0
       0        0        0

4.995669e+05 8.489681e+04        0
8.489681e+04 -1.756072e+05        0
       0        0        0

3.079595e+05 1.247915e+05        0
1.247915e+05 -1.742517e+05        0
       0        0        0

1.159565e+05 1.513752e+05        0
1.513752e+05 -1.733367e+05        0
       0        0        0

-7.644567e+04 1.646540e+05        0
1.646540e+05 -1.728666e+05        0
       0        0        0

-2.692478e+05 1.646334e+05        0
1.646334e+05 -1.728439e+05        0
       0        0        0

-4.624482e+05 1.513185e+05        0
1.513185e+05 -1.732687e+05        0
       0        0        0

-6.560432e+05 1.247137e+05        0
1.247137e+05 -1.741390e+05        0
       0        0        0

-8.500278e+05 8.482287e+04        0
8.482287e+04 -1.754507e+05        0
       0        0        0

-1.044396e+06 3.164965e+04        0
3.164965e+04 -1.771965e+05        0
       0        0        0

6.237147e+05 3.168432e+04        0
3.168432e+04 -1.845562e+05        0
       0        0        0

4.458957e+05 8.489471e+04        0
8.489471e+04 -1.826937e+05        0
       0        0        0

2.676619e+05 1.247880e+05        0
1.247880e+05 -1.812835e+05        0
       0        0        0

8.900609e+04 1.513718e+05        0
1.513718e+05 -1.803323e+05        0
       0        0        0

-9.007445e+04 1.646517e+05        0
1.646517e+05 -1.798451e+05        0
       0        0        0

-2.695797e+05 1.646325e+05        0
1.646325e+05 -1.798239e+05        0
       0        0        0

-4.495078e+05 1.513190e+05        0
1.513190e+05 -1.802680e+05        0
       0        0        0

-6.298545e+05 1.247156e+05        0
1.247156e+05 -1.811752e+05        0
       0        0        0

-8.106137e+05 8.482587e+04        0
8.482587e+04 -1.825418e+05        0
       0        0        0

-9.917798e+05 3.165167e+04        0
3.165167e+04 -1.843615e+05        0
       0        0        0

5.570366e+05 3.168394e+04        0
3.168394e+04 -1.913258e+05        0
       0        0        0

3.926127e+05 8.489152e+04        0
8.489152e+04 -1.893949e+05        0
       0        0        0

2.277462e+05 1.247834e+05        0
1.247834e+05 -1.879324e+05        0
       0        0        0

6.243246e+04 1.513687e+05        0
1.513687e+05 -1.869476e+05        0
       0        0        0

-1.033285e+05 1.646514e+05        0
1.646514e+05 -1.864469e+05        0
       0        0        0

-2.695365e+05 1.646336e+05        0
1.646336e+05 -1.864307e+05        0
       0        0        0

-4.361907e+05 1.513199e+05        0
1.513199e+05 -1.868951e+05        0
       0        0        0

-6.032868e+05 1.247164e+05        0
1.247164e+05 -1.878363e+05        0
       0        0        0

-7.708161e+05 8.482778e+04        0
8.482778e+04 -1.892522e+05        0
       0        0        0

-9.387707e+05 3.165371e+04        0
3.165371e+04 -1.911392e+05        0
       0        0        0

4.907815e+05 3.168223e+04        0
3.168223e+04 -1.976777e+05        0
       0        0        0

3.397465e+05 8.488373e+04        0
8.488373e+04 -1.956797e+05        0
       0        0        0

1.882375e+05 1.247755e+05        0
1.247755e+05 -1.941644e+05        0
       0        0        0

3.625935e+04 1.513679e+05        0
1.513679e+05 -1.931487e+05        0
       0        0        0

-1.161821e+05 1.646583e+05        0
1.646583e+05 -1.926420e+05        0
       0        0        0

-2.690888e+05 1.646420e+05        0
1.646420e+05 -1.926397e+05        0
       0        0        0

-4.224658e+05 1.513229e+05        0
1.513229e+05 -1.931292e+05        0
       0        0        0

-5.763105e+05 1.247137e+05        0
1.247137e+05 -1.941017e+05        0
       0        0        0

-7.306086e+05 8.482509e+04        0
8.482509e+04 -1.955579e+05        0
       0        0        0

-8.853430e+05 3.165442e+04        0
3.165442e+04 -1.975026e+05        0
       0        0        0

4.249813e+05 3.167498e+04        0
3.167498e+04 -2.035842e+05        0
       0        0        0

2.873240e+05 8.486219e+04        0
8.486219e+04 -2.015142e+05        0
       0        0        0

1.491538e+05 1.247591e+05        0
1.247591e+05 -1.999391e+05        0
       0        0        0

1.050143e+04 1.513744e+05        0
1.513744e+05 -1.988957e+05        0
       0        0        0

-1.286151e+05 1.646858e+05        0
1.646858e+05 -1.983991e+05        0
       0        0        0

-2.682069e+05 1.646709e+05        0
1.646709e+05 -1.984318e+05        0
       0        0        0

-4.082975e+05 1.513334e+05        0
1.513334e+05 -1.989600e+05        0
       0        0        0

-5.488933e+05 1.247027e+05        0
1.247027e+05 -1.999613e+05        0
       0        0        0

-6.899674e+05 8.480866e+04        0
8.480866e+04 -2.014422e+05        0
       0        0        0

-8.314774e+05 3.164959e+04        0
3.164959e+04 -2.034276e+05        0
       0        0        0

3.596789e+05 3.165126e+04        0
3.165126e+04 -2.090176e+05        0
       0        0        0

2.353703e+05 8.480562e+04        0
8.480562e+04 -2.068566e+05        0
       0        0        0

1.104976e+05 1.247240e+05        0
1.247240e+05 -2.052022e+05        0
       0        0        0

-1.484454e+04 1.514008e+05        0
1.514008e+05 -2.041358e+05        0
       0        0        0

-1.406159e+05 1.647638e+05        0
1.647638e+05 -2.036828e+05        0
       0        0        0

-2.668557e+05 1.647503e+05        0
1.647503e+05 -2.037960e+05        0
       0        0        0

-3.936368e+05 1.513636e+05        0
1.513636e+05 -2.043943e+05        0
       0        0        0

-5.209922e+05 1.246730e+05        0
1.246730e+05 -2.054241e+05        0
       0        0        0

-6.488716e+05 8.475721e+04        0
8.475721e+04 -2.069008e+05        0
       0        0        0

-7.771689e+05 3.162831e+04        0
3.162831e+04 -2.088945e+05        0
       0        0        0

2.949429e+05 3.158568e+04        0
3.158568e+04 -2.139478e+05        0
       0        0        0

1.839053e+05 8.466896e+04        0
8.466896e+04 -2.116502e+05        0
       0        0        0

7.224005e+04 1.246508e+05        0
1.246508e+05 -2.098743e+05        0
       0        0        0

-3.981653e+04 1.514746e+05        0
1.514746e+05 -2.087939e+05        0
       0        0        0

-1.521887e+05 1.649544e+05        0
1.649544e+05 -2.084501e+05        0
       0        0        0

-2.649886e+05 1.649423e+05        0
1.649423e+05 -2.087330e+05        0
       0        0        0

-3.784045e+05 1.514414e+05        0
1.514414e+05 -2.094661e+05        0
       0        0        0

-4.925388e+05 1.246052e+05        0
1.246052e+05 -2.105299e+05        0
       0        0        0

-6.073012e+05 8.462570e+04        0
8.462570e+04 -2.119508e+05        0
       0        0        0

-7.224431e+05 3.156518e+04        0
3.156518e+04 -2.138905e+05        0
       0        0        0

2.308981e+05 3.142438e+04        0
3.142438e+04 -2.183408e+05        0
       0        0        0

1.329355e+05 8.436546e+04        0
8.436546e+04 -2.158140e+05        0
       0        0        0

3.429023e+04 1.245083e+05        0
1.245083e+05 -2.138397e+05        0
       0        0        0

-6.451575e+04 1.516520e+05        0
1.516520e+05 -2.127654e+05        0
       0        0        0

-1.633638e+05 1.653736e+05        0
1.653736e+05 -2.126472e+05        0
       0        0        0

-2.625348e+05 1.653629e+05        0
1.653629e+05 -2.132559e+05        0
       0        0        0

-3.624626e+05 1.516226e+05        0
1.516226e+05 -2.142432e+05        0
       0        0        0

-4.634100e+05 1.244681e+05        0
1.244681e+05 -2.153619e+05        0
       0        0        0

-5.652323e+05 8.432740e+04        0
8.432740e+04 -2.166425e+05        0
       0        0        0

-6.673894e+05 3.140637e+04        0
3.140637e+04 -2.184141e+05        0
       0        0        0

1.677757e+05 3.106282e+04        0
3.106282e+04 -2.221589e+05        0
       0        0        0

8.243113e+04 8.374695e+04        0
8.374695e+04 -2.192403e+05        0
       0        0        0

-3.555598e+03 1.242578e+05        0
1.242578e+05 -2.169542e+05        0
       0        0        0

-8.914529e+04 1.520353e+05        0
1.520353e+05 -2.159309e+05        0
       0        0        0

-1.742098e+05 1.662103e+05        0
1.662103e+05 -2.162165e+05        0
       0        0        0

-2.593839e+05 1.662010e+05        0
1.662010e+05 -2.173805e+05        0
       0        0        0

-3.455741e+05 1.520097e+05        0
1.520097e+05 -2.188109e+05        0
       0        0        0

-4.333799e+05 1.242230e+05        0
1.242230e+05 -2.200424e+05        0
       0        0        0

-5.226205e+05 8.371416e+04        0
8.371416e+04 -2.210690e+05        0
       0        0        0

-6.122183e+05 3.104735e+04        0
3.104735e+04 -2.224823e+05        0
       0        0        0

1.059826e+05 3.031840e+04        0
3.031840e+04 -2.253689e+05        0
       0        0        0

3.227079e+04 8.260563e+04        0
8.260563e+04 -2.218276e+05        0
       0        0        0

-4.168043e+04 1.238858e+05        0
1.238858e+05 -2.191235e+05        0
       0        0        0

-1.140377e+05 1.527868e+05        0
1.527868e+05 -2.182499e+05        0
       0        0        0

-1.848338e+05 1.677058e+05        0
1.677058e+05 -2.191346e+05        0
       0        0        0

-2.553770e+05 1.676980e+05        0
1.676980e+05 -2.210785e+05        0
       0        0        0

-3.273712e+05 1.527652e+05        0
1.527652e+05 -2.231744e+05        0
       0        0        0

-4.020573e+05 1.238565e+05        0
1.238565e+05 -2.246571e+05        0
       0        0        0

-4.793597e+05 8.257818e+04        0
8.257818e+04 -2.253471e+05        0
       0        0        0

-5.573504e+05 3.030557e+04        0
3.030557e+04 -2.261427e+05        0
       0        0        0

4.615188e+04 2.892046e+04        0
2.892046e+04 -2.279907e+05        0
       0        0        0

-1.787803e+04 8.077509e+04        0
8.077509e+04 -2.236229e+05        0
       0        0        0

-8.068717e+04 1.235144e+05        0
1.235144e+05 -2.206061e+05        0
       0        0        0

-1.395886e+05 1.540960e+05        0
1.540960e+05 -2.200591e+05        0
       0        0        0

-1.953340e+05 1.699858e+05        0
1.699858e+05 -2.215350e+05        0
       0        0        0

-2.503380e+05 1.699795e+05        0
1.699795e+05 -2.241384e+05        0
       0        0        0

-3.074100e+05 1.540786e+05        0
1.540786e+05 -2.269491e+05        0
       0        0        0

-3.688466e+05 1.234907e+05        0
1.234907e+05 -2.289551e+05        0
       0        0        0

-4.351868e+05 8.075306e+04        0
8.075306e+04 -2.294991e+05        0
       0        0        0

-5.035131e+05 2.891031e+04        0
2.891031e+04 -2.294693e+05        0
       0        0        0

-1.096611e+04 2.661526e+04        0
2.661526e+04 -2.301960e+05        0
       0        0        0

-6.880058e+04 7.855368e+04        0
7.855368e+04 -2.253945e+05        0
       0        0        0

-1.212196e+05 1.236407e+05        0
1.236407e+05 -2.228507e+05        0
       0        0        0

-1.659031e+05 1.559643e+05        0
1.559643e+05 -2.228260e+05        0
       0        0        0

-2.056120e+05 1.725067e+05        0
1.725067e+05 -2.239753e+05        0
       0        0        0

-2.442314e+05 1.725022e+05        0
1.725022e+05 -2.258688e+05        0
       0        0        0

-2.854983e+05 1.559516e+05        0
1.559516e+05 -2.285802e+05        0
       0        0        0

-3.331170e+05 1.236231e+05        0
1.236231e+05 -2.315007e+05        0
       0        0        0

-3.894739e+05 7.853709e+04        0
7.853709e+04 -2.329138e+05        0
       0        0        0

-4.517278e+05 2.660778e+04        0
2.660778e+04 -2.325615e+05        0
       0        0        0

-6.534252e+04 2.382873e+04        0
2.382873e+04 -2.332203e+05        0
       0        0        0

-1.218648e+05 7.791476e+04        0
7.791476e+04 -2.302093e+05        0
       0        0        0

-1.630879e+05 1.254106e+05        0
1.254106e+05 -2.308257e+05        0
       0        0        0

-1.917688e+05 1.572967e+05        0
1.572967e+05 -2.304213e+05        0
       0        0        0

-2.150060e+05 1.728175e+05        0
1.728175e+05 -2.277424e+05        0
       0        0        0

-2.374853e+05 1.728153e+05        0
1.728153e+05 -2.247491e+05        0
       0        0        0

-2.626702e+05 1.572901e+05        0
1.572901e+05 -2.240194e+05        0
       0        0        0

-2.950282e+05 1.254002e+05        0
1.254002e+05 -2.272962e+05        0
       0        0        0

-3.411145e+05 7.790364e+04        0
7.790364e+04 -2.327860e+05        0
       0        0        0

-4.026693e+05 2.382366e+04        0
2.382366e+04 -2.348291e+05        0
       0        0        0

-1.204739e+05 2.480121e+04        0
2.480121e+04 -2.399697e+05        0
       0        0        0

-1.782218e+05 8.545386e+04        0
8.545386e+04 -2.511630e+05        0
       0        0        0

-2.018838e+05 1.287547e+05        0
1.287547e+05 -2.567987e+05        0
       0        0        0

-2.133074e+05 1.534670e+05        0
1.534670e+05 -2.496634e+05        0
       0        0        0

-2.220910e+05 1.647764e+05        0
1.647764e+05 -2.348746e+05        0
       0        0        0

-2.311412e+05 1.647772e+05        0
1.647772e+05 -2.183576e+05        0
       0        0        0

-2.424521e+05 1.534684e+05        0
1.534684e+05 -2.060958e+05        0
       0        0        0

-2.587761e+05 1.287544e+05        0
1.287544e+05 -2.038613e+05        0
       0        0        0

-2.891908e+05 8.544960e+04        0
8.544960e+04 -2.162533e+05        0
       0        0        0

-3.540824e+05 2.479771e+04        0
2.479771e+04 -2.346051e+05        0
       0        0        0

-1.942089e+05 5.649028e+04        0
5.649028e+04 -2.859823e+05        0
       0        0        0

-2.251156e+05 1.057932e+05        0
1.057932e+05 -3.254430e+05        0
       0        0        0

-2.254275e+05 1.242791e+05        0
1.242791e+05 -3.183016e+05        0
       0        0        0

-2.249433e+05 1.333485e+05        0
1.333485e+05 -2.882682e+05        0
       0        0        0

-2.249928e+05 1.373200e+05        0
1.373200e+05 -2.473438e+05        0
       0        0        0

-2.265111e+05 1.373236e+05        0
1.373236e+05 -2.041596e+05        0
       0        0        0

-2.297979e+05 1.333585e+05        0
1.333585e+05 -1.664680e+05        0
       0        0        0

-2.358734e+05 1.242923e+05        0
1.242923e+05 -1.429885e+05        0
       0        0        0

-2.461156e+05 1.058041e+05        0
1.058041e+05 -1.457765e+05        0
       0        0        0

-2.892822e+05 5.648985e+04        0
5.648985e+04 -1.975091e+05        0
       0        0        0

POINT_DATA     451
VECTORS DISPLACEMENT_1.600000e-01 double
0.000000e+00    0.000000e+00    0.000000e+00
0.000000e+00    0.000000e+00    0.000000e+00
0.000000e+00    0.000000e+00    0.000000e+00
0.000000e+00    0.000000e+00    0.000000e+00
0.000000e+00    0.000000e+00    0.000000e+00
0.000000e+00    0.000000e+00    0.000000e+00
0.000000e+00    0.000000e+00    0.000000e+00
0.000000e+00    0.000000e+00    0.000000e+00
0.000000e+00    0.000000e+00    0.000000e+00
0.000000e+00    0.000000e+00    0.000000e+00
0.000000e+00    0.000000e+00    0.000000e+00
-1.818943e-06    -1.322405e-06    0.000000e+00
-1.152530e-06    -6.633202e-07    0.000000e+00
-8.223429e-07    -3.437238e-07    0.000000e+00
-5.309361e-07    -1.702189e-07    0.000000e+00
-2.617630e-07    -8.042244e-08    0.000000e+00
-5.565650e-20    -5.250274e-08    0.000000e+00
2.617630e-07    -8.042244e-08    0.000000e+00
5.309361e-07    -1.702189e-07    0.000000e+00
8.223429e-07    -3.437238e-07    0.000000e+00
1.152530e-06    -6.633202e-07    0.000000e+00
1.818943e-06    -1.322405e-06    0.000000e+00
-3.431948e-06    -2.199295e-06    0.000000e+00
-2.508602e-06    -1.591370e-06    0.000000e+00
-1.760782e-06    -1.117809e-06    0.000000e+00
-1.135775e-06    -8.248788e-07    0.000000e+00
-5.578300e-07    -6.652647e-07    0.000000e+00
-1.176102e-19    -6.145655e-07    0.000000e+00
5.578300e-07    -6.652647e-07    0.000000e+00
1.135775e-06    -8.248788e-07    0.000000e+00
1.760782e-06    -1.117809e-06    0.000000e+00
2.508602e-06    -1.591370e-06    0.000000e+00
3.431948e-06    -2.199295e-06    0.000000e+00
-4.991004e-06    -3.289653e-06    0.000000e+00
-3.814710e-06    -2.680399e-06    0.000000e+00
-2.744840e-06    -2.200014e-06    0.000000e+00
-1.776950e-06    -1.861168e-06    0.000000e+00
-8.743406e-07    -1.665865e-06    0.000000e+00
-1.851892e-19    -1.602246e-06    0.000000e+00
8.743406e-07    -1.665865e-06    0.000000e+00
1.776950e-06    -1.861168e-06    0.000000e+00
2.744840e-06    -2.200014e-06    0.000000e+00
3.814710e-06    -2.680399e-06    0.000000e+00
4.991004e-06    -3.289653e-06    0.000000e+00
-6.532792e-06    -4.635285e-06    0.000000e+00
-5.077759e-06    -4.039935e-06    0.000000e+00
-3.707623e-06    -3.567561e-06    0.000000e+00
-2.420926e-06    -3.226670e-06    0.000000e+00
-1.195089e-06    -3.022052e-06    0.000000e+00
-2.553275e-19    -2.954202e-06    0.000000e+00
1.195089e-06    -3.022052e-06    0.000000e+00
2.420926e-06    -3.226670e-06    0.000000e+00
3.707623e-06    -3.567561e-06    0.000000e+00
5.077759e-06    -4.039935e-06    0.000000e+00
6.532792e-06    -4.635285e-06    0.000000e+00
-8.048475e-06    -6.272407e-06    0.000000e+00
-6.303991e-06    -5.690953e-06    0.000000e+00
-4.639768e-06    -5.232842e-06    0.000000e+00
-3.047834e-06    -4.900921e-06    0.000000e+00
-1.509764e-06    -4.699982e-06    0.000000e+00
-3.276429e-19    -4.632722e-06    0.000000e+00
1.509764e-06    -4.699982e-06    0.000000e+00
3.047834e-06    -4.900921e-06    0.000000e+00
4.639768e-06    -5.232842e-06    0.000000e+00
6.303991e-06    -5.690953e-06    0.000000e+00
8.048475e-06    -6.272407e-06    0.000000e+00
-9.531123e-06    -8.205261e-06    0.000000e+00
-7.495862e-06    -7.639191e-06    0.000000e+00
-5.541202e-06    -7.195566e-06    0.000000e+00
-3.653391e-06    -6.875391e-06    0.000000e+00
-1.813986e-06    -6.681599e-06    0.000000e+00
-4.012819e-19    -6.616704e-06    0.000000e+00
1.813986e-06    -6.681599e-06    0.000000e+00
3.653391e-06    -6.875391e-06    0.000000e+00
5.541202e-06    -7.195566e-06    0.000000e+00
7.495862e-06    -7.639191e-06    0.000000e+00
9.531123e-06    -8.205261e-06    0.000000e+00
-1.097578e-05    -1.043057e-05    0.000000e+00
-8.653803e-06    -9.880512e-06    0.000000e+00
-6.413640e-06    -9.451006e-06    0.000000e+00
-4.237901e-06    -9.142280e-06    0.000000e+00
-2.107283e-06    -8.955951e-06    0.000000e+00
-4.712680e-19    -8.893626e-06    0.000000e+00
2.107283e-06    -8.955951e-06    0.000000e+00
4.237901e-06    -9.142280e-06    0.000000e+00
6.413640e-06    -9.451006e-06    0.000000e+00
8.653803e-06    -9.880512e-06    0.000000e+00
1.097578e-05    -1.043057e-05    0.000000e+00
-1.237969e-05    -1.294128e-05    0.000000e+00
-9.777670e-06    -1.240762e-05    0.000000e+00
-7.258449e-06    -1.199177e-05    0.000000e+00
-4.802670e-06    -1.169373e-05    0.000000e+00
-2.390277e-06    -1.151430e-05    0.000000e+00
-5.386071e-19    -1.145437e-05    0.000000e+00
2.390277e-06    -1.151430e-05    0.000000e+00
4.802670e-06    -1.169373e-05    0.000000e+00
7.258449e-06    -1.199177e-05    0.000000e+00
9.777670e-06    -1.240762e-05    0.000000e+00
1.237969e-05    -1.294128e-05    0.000000e+00
-1.374145e-05    -1.572914e-05    0.000000e+00
-1.086726e-05    -1.521204e-05    0.000000e+00
-8.076473e-06    -1.480953e-05    0.000000e+00
-5.348781e-06    -1.452155e-05    0.000000e+00
-2.663648e-06    -1.434845e-05    0.000000e+00
-6.083814e-19    -1.429069e-05    0.000000e+00
2.663648e-06    -1.434845e-05    0.000000e+00
5.348781e-06    -1.452155e-05    0.000000e+00
8.076473e-06    -1.480953e-05    0.000000e+00
1.086726e-05    -1.521204e-05    0.000000e+00
1.374145e-05    -1.572914e-05    0.000000e+00
-1.506040e-05    -1.878545e-05    0.000000e+00
-1.192241e-05    -1.828500e-05    0.000000e+00
-8.868165e-06    -1.789563e-05    0.000000e+00
-5.876913e-06    -1.761731e-05    0.000000e+00
-2.927861e-06    -1.745019e-05    0.000000e+00
-6.785263e-19    -1.739445e-05    0.000000e+00
2.927861e-06    -1.745019e-05    0.000000e+00
5.876913e-06    -1.761731e-05    0.000000e+00
8.868165e-06    -1.789563e-05    0.000000e+00
1.192241e-05    -1.828500e-05    0.000000e+00
1.506040e-05    -1.878545e-05    0.000000e+00
-1.633624e-05    -2.210147e-05    0.000000e+00
-1.294304e-05    -2.161768e-05    0.000000e+00
-9.633750e-06    -2.124137e-05    0.000000e+00
-6.387438e-06    -2.097250e-05    0.000000e+00
-3.183185e-06    -2.081112e-05    0.000000e+00
-7.378716e-19    -2.075732e-05    0.000000e+00
3.183185e-06    -2.081112e-05    0.000000e+00
6.387438e-06    -2.097250e-05    0.000000e+00
9.633750e-06    -2.124137e-05    0.000000e+00
1.294304e-05    -2.161768e-05    0.000000e+00
1.633624e-05    -2.210147e-05    0.000000e+00
-1.756888e-05    -2.566844e-05    0.000000e+00
-1.392911e-05    -2.520134e-05    0.000000e+00
-1.037333e-05    -2.483804e-05    0.000000e+00
-6.880535e-06    -2.457851e-05    0.000000e+00
-3.429758e-06    -2.442277e-05    0.000000e+00
-8.029872e-19    -2.437085e-05    0.000000e+00
3.429758e-06    -2.442277e-05    0.000000e+00
6.880535e-06    -2.457851e-05    0.000000e+00
1.037333e-05    -2.483804e-05    0.000000e+00
1.392911e-05    -2.520134e-05    0.000000e+00
1.756888e-05    -2.566844e-05    0.000000e+00
-1.875826e-05    -2.947767e-05    0.000000e+00
-1.488059e-05    -2.902726e-05    0.000000e+00
-1.108694e-05    -2.867694e-05    0.000000e+00
-7.356287e-06    -2.842670e-05    0.000000e+00
-3.667641e-06    -2.827655e-05    0.000000e+00
-8.780555e-19    -2.822650e-05    0.000000e+00
3.667641e-06    -2.827655e-05    0.000000e+00
7.356287e-06    -2.842670e-05    0.000000e+00
1.108694e-05    -2.867694e-05    0.000000e+00
1.488059e-05    -2.902726e-05    0.000000e+00
1.875826e-05    -2.947767e-05    0.000000e+00
-1.990438e-05    -3.352047e-05    0.000000e+00
-1.579748e-05    -3.308674e-05    0.000000e+00
-1.177460e-05    -3.274940e-05    0.000000e+00
-7.814726e-06    -3.250844e-05    0.000000e+00
-3.896862e-06    -3.236387e-05    0.000000e+00
-9.281364e-19    -3.231567e-05    0.000000e+00
3.896862e-06    -3.236387e-05    0.000000e+00
7.814726e-06    -3.250844e-05    0.000000e+00
1.177460e-05    -3.274940e-05    0.000000e+00
1.579748e-05    -3.308674e-05    0.000000e+00
1.990438e-05    -3.352047e-05    0.000000e+00
-2.100725e-05    -3.778818e-05    0.000000e+00
-1.667976e-05    -3.737114e-05    0.000000e+00
-1.243631e-05    -3.704677e-05    0.000000e+00
-8.255864e-06    -3.681508e-05    0.000000e+00
-4.117430e-06    -3.667606e-05    0.000000e+00
-9.694292e-19    -3.662973e-05    0.000000e+00
4.117430e-06    -3.667606e-05    0.000000e+00
8.255864e-06    -3.681508e-05    0.000000e+00
1.243631e-05    -3.704677e-05    0.000000e+00
1.667976e-05    -3.737114e-05    0.000000e+00
2.100725e-05    -3.778818e-05    0.000000e+00
-2.206686e-05    -4.227215e-05    0.000000e+00
-1.752745e-05    -4.187178e-05    0.000000e+00
-1.307207e-05    -4.156039e-05    0.000000e+00
-8.679703e-06    -4.133796e-05    0.000000e+00
-4.329349e-06    -4.120451e-05    0.000000e+00
-1.003099e-18    -4.116003e-05    0.000000e+00
4.329349e-06    -4.120451e-05    0.000000e+00
8.679703e-06    -4.133796e-05    0.000000e+00
1.307207e-05    -4.156039e-05    0.000000e+00
1.752745e-05    -4.187178e-05    0.000000e+00
2.206686e-05    -4.227215e-05    0.000000e+00
-2.308322e-05    -4.696371e-05    0.000000e+00
-1.834054e-05    -4.658002e-05    0.000000e+00
-1.368188e-05    -4.628160e-05    0.000000e+00
-9.086245e-06    -4.606845e-05    0.000000e+00
-4.532619e-06    -4.594055e-05    0.000000e+00
-1.011781e-18    -4.589792e-05    0.000000e+00
4.532619e-06    -4.594055e-05    0.000000e+00
9.086245e-06    -4.606845e-05    0.000000e+00
1.368188e-05    -4.628160e-05    0.000000e+00
1.834054e-05    -4.658002e-05    0.000000e+00
2.308322e-05    -4.696371e-05    0.000000e+00
-2.405633e-05    -5.185421e-05    0.000000e+00
-1.911903e-05    -5.148721e-05    0.000000e+00
-1.426575e-05    -5.120177e-05    0.000000e+00
-9.475487e-06    -5.099788e-05    0.000000e+00
-4.727241e-06    -5.087554e-05    0.000000e+00
-1.038674e-18    -5.083477e-05    0.000000e+00
4.727241e-06    -5.087554e-05    0.000000e+00
9.475487e-06    -5.099788e-05    0.000000e+00
1.426575e-05    -5.120177e-05    0.000000e+00
1.911903e-05    -5.148721e-05    0.000000e+00
2.405633e-05    -5.185421e-05    0.000000e+00
-2.498620e-05    -5.693502e-05    0.000000e+00
-1.986292e-05    -5.658470e-05    0.000000e+00
-1.482366e-05    -5.631223e-05    0.000000e+00
-9.847431e-06    -5.611760e-05    0.000000e+00
-4.913212e-06    -5.600083e-05    0.000000e+00
-1.085896e-18    -5.596191e-05    0.000000e+00
4.913212e-06    -5.600083e-05    0.000000e+00
9.847431e-06    -5.611760e-05    0.000000e+00
1.482366e-05    -5.631223e-05    0.000000e+00
1.986292e-05    -5.658470e-05    0.000000e+00
2.498620e-05    -5.693502e-05    0.000000e+00
-2.587281e-05    -6.219747e-05    0.000000e+00
-2.057220e-05    -6.186383e-05    0.000000e+00
-1.535563e-05    -6.160433e-05    0.000000e+00
-1.020208e-05    -6.141898e-05    0.000000e+00
-5.090534e-06    -6.130777e-05    0.000000e+00
-1.171447e-18    -6.127070e-05    0.000000e+00
5.090534e-06    -6.130777e-05    0.000000e+00
1.020208e-05    -6.141898e-05    0.000000e+00
1.535563e-05    -6.160433e-05    0.000000e+00
2.057220e-05    -6.186383e-05    0.000000e+00
2.587281e-05    -6.219747e-05    0.000000e+00
-2.671617e-05    -6.763291e-05    0.000000e+00
-2.124689e-05    -6.731596e-05    0.000000e+00
-1.586165e-05    -6.706944e-05    0.000000e+00
-1.053942e-05    -6.689335e-05    0.000000e+00
-5.259207e-06    -6.678770e-05    0.000000e+00
-1.289184e-18    -6.675248e-05    0.000000e+00
5.259207e-06    -6.678770e-05    0.000000e+00
1.053942e-05    -6.689335e-05    0.000000e+00
1.586165e-05    -6.706944e-05    0.000000e+00
2.124689e-05    -6.731596e-05    0.000000e+00
2.671617e-05    -6.763291e-05    0.000000e+00
-2.751628e-05    -7.323271e-05    0.000000e+00
-2.188698e-05    -7.293244e-05    0.000000e+00
-1.634171e-05    -7.269889e-05    0.000000e+00
-1.085947e-05    -7.253207e-05    0.000000e+00
-5.419229e-06    -7.243198e-05    0.000000e+00
-1.379393e-18    -7.239861e-05    0.000000e+00
5.419229e-06    -7.243198e-05    0.000000e+00
1.085947e-05    -7.253207e-05    0.000000e+00
1.634171e-05    -7.269889e-05    0.000000e+00
2.188698e-05    -7.293244e-05    0.000000e+00
2.751628e-05    -7.323271e-05    0.000000e+00
-2.827315e-05    -7.898820e-05    0.000000e+00
-2.249248e-05    -7.870461e-05    0.000000e+00
-1.679583e-05    -7.848404e-05    0.000000e+00
-1.116221e-05    -7.832649e-05    0.000000e+00
-5.570602e-06    -7.823196e-05    0.000000e+00
-1.431909e-18    -7.820045e-05    0.000000e+00
5.570602e-06    -7.823196e-05    0.000000e+00
1.116221e-05    -7.832649e-05    0.000000e+00
1.679583e-05    -7.848404e-05    0.000000e+00
2.249248e-05    -7.870461e-05    0.000000e+00
2.827315e-05    -7.898820e-05    0.000000e+00
-2.898676e-05    -8.489074e-05    0.000000e+00
-2.306337e-05    -8.462383e-05    0.000000e+00
-1.722400e-05    -8.441624e-05    0.000000e+00
-1.144766e-05    -8.426795e-05    0.000000e+00
-5.713326e-06    -8.417898e-05    0.000000e+00
-1.503907e-18    -8.414932e-05    0.000000e+00
5.713326e-06    -8.417898e-05    0.000000e+00
1.144766e-05    -8.426795e-05    0.000000e+00
1.722400e-05    -8.441624e-05    0.000000e+00
2.306337e-05    -8.462383e-05    0.000000e+00
2.898676e-05    -8.489074e-05    0.000000e+00
-2.965712e-05    -9.093168e-05    0.000000e+00
-2.359966e-05    -9.068145e-05    0.000000e+00
-1.762622e-05    -9.048683e-05    0.000000e+00
-1.171580e-05    -9.034781e-05    0.000000e+00
-5.847400e-06    -9.026440e-05    0.000000e+00
-1.541176e-18    -9.023660e-05    0.000000e+00
5.847400e-06    -9.026440e-05    0.000000e+00
1.171580e-05    -9.034781e-05    0.000000e+00
1.762622e-05    -9.048683e-05    0.000000e+00
2.359966e-05    -9.068145e-05    0.000000e+00
2.965712e-05    -9.093168e-05    0.000000e+00
-3.028423e-05    -9.710237e-05    0.000000e+00
-2.410135e-05    -9.686882e-05    0.000000e+00
-1.800249e-05    -9.668717e-05    0.000000e+00
-1.196665e-05    -9.655742e-05    0.000000e+00
-5.972825e-06    -9.647957e-05    0.000000e+00
-1.569976e-18    -9.645362e-05    0.000000e+00
5.972825e-06    -9.647957e-05    0.000000e+00
1.196665e-05    -9.655742e-05    0.000000e+00
1.800249e-05    -9.668717e-05    0.000000e+00
2.410135e-05    -9.686882e-05    0.000000e+00
3.028423e-05    -9.710237e-05    0.000000e+00
-3.086809e-05    -1.033942e-04    0.000000e+00
-2.456844e-05    -1.031773e-04    0.000000e+00
-1.835282e-05    -1.030086e-04    0.000000e+00
-1.220020e-05    -1.028881e-04    0.000000e+00
-6.089600e-06    -1.028158e-04    0.000000e+00
-1.589034e-18    -1.027917e-04    0.000000e+00
6.089600e-06    -1.028158e-04    0.000000e+00
1.220020e-05    -1.028881e-04    0.000000e+00
1.835282e-05    -1.030086e-04    0.000000e+00
2.456844e-05    -1.031773e-04    0.000000e+00
3.086809e-05    -1.033942e-04    0.000000e+00
-3.140870e-05    -1.097984e-04    0.000000e+00
-2.500093e-05    -1.095982e-04    0.000000e+00
-1.867719e-05    -1.094425e-04    0.000000e+00
-1.241645e-05    -1.093313e-04    0.000000e+00
-6.197725e-06    -1.092646e-04    0.000000e+00
-1.577175e-18    -1.092423e-04    0.000000e+00
6.197725e-06    -1.092646e-04    0.000000e+00
1.241645e-05    -1.093313e-04    0.000000e+00
1.867719e-05    -1.094425e-04    0.000000e+00
2.500093e-05    -1.095982e-04    0.000000e+00
3.140870e-05    -1.097984e-04    0.000000e+00
-3.190605e-05    -1.163064e-04    0.000000e+00
-2.539883e-05    -1.161229e-04    0.000000e+00
-1.897561e-05    -1.159802e-04    0.000000e+00
-1.261540e-05    -1.158782e-04    0.000000e+00
-6.297194e-06    -1.158171e-04    0.000000e+00
-1.569552e-18    -1.157967e-04    0.000000e+00
6.297194e-06    -1.158171e-04    0.000000e+00
1.261540e-05    -1.158782e-04    0.000000e+00
1.897561e-05    -1.159802e-04    0.000000e+00
2.539883e-05    -1.161229e-04    0.000000e+00
3.190605e-05    -1.163064e-04    0.000000e+00
-3.236015e-05    -1.229095e-04    0.000000e+00
-2.576213e-05    -1.227427e-04    0.000000e+00
-1.924808e-05    -1.226130e-04    0.000000e+00
-1.279702e-05    -1.225203e-04    0.000000e+00
-6.387993e-06    -1.224648e-04    0.000000e+00
-1.631809e-18    -1.224463e-04    0.000000e+00
6.387993e-06    -1.224648e-04    0.000000e+00
1.279702e-05    -1.225203e-04    0.000000e+00
1.924808e-05    -1.226130e-04    0.000000e+00
2.576213e-05    -1.227427e-04    0.000000e+00
3.236015e-05    -1.229095e-04    0.000000e+00
-3.277101e-05    -1.295990e-04    0.000000e+00
-2.609086e-05    -1.294489e-04    0.000000e+00
-1.949457e-05    -1.293322e-04    0.000000e+00
-1.296127e-05    -1.292490e-04    0.000000e+00
-6.470083e-06    -1.291991e-04    0.000000e+00
-1.697031e-18    -1.291825e-04    0.000000e+00
6.470083e-06    -1.291991e-04    0.000000e+00
1.296127e-05    -1.292490e-04    0.000000e+00
1.949457e-05    -1.293322e-04    0.000000e+00
2.609086e-05    -1.294489e-04    0.000000e+00
3.277101e-05    -1.295990e-04    0.000000e+00
-3.313870e-05    -1.363663e-04    0.000000e+00
-2.638503e-05    -1.362328e-04    0.000000e+00
-1.971502e-05    -1.361292e-04    0.000000e+00
-1.310805e-05    -1.360555e-04    0.000000e+00
-6.543384e-06    -1.360114e-04    0.000000e+00
-1.837638e-18    -1.359968e-04    0.000000e+00
6.543384e-06    -1.360114e-04    0.000000e+00
1.310805e-05    -1.360555e-04    0.000000e+00
1.971502e-05    -1.361292e-04    0.000000e+00
2.638503e-05    -1.362328e-04    0.000000e+00
3.313870e-05    -1.363663e-04    0.000000e+00
-3.346337e-05    -1.432026e-04    0.000000e+00
-2.664470e-05    -1.430857e-04    0.000000e+00
-1.990930e-05    -1.429953e-04    0.000000e+00
-1.323711e-05    -1.429313e-04    0.000000e+00
-6.607728e-06    -1.428933e-04    0.000000e+00
-1.955799e-18    -1.428807e-04    0.000000e+00
6.607728e-06    -1.428933e-04    0.000000e+00
1.323711e-05    -1.429313e-04    0.000000e+00
1.990930e-05    -1.429953e-04    0.000000e+00
2.664470e-05    -1.430857e-04    0.000000e+00
3.346337e-05    -1.432026e-04    0.000000e+00
-3.374542e-05    -1.500991e-04    0.000000e+00
-2.686997e-05    -1.499987e-04    0.000000e+00
-2.007712e-05    -1.499217e-04    0.000000e+00
-1.334804e-05    -1.498679e-04    0.000000e+00
-6.662812e-06    -1.498363e-04    0.000000e+00
-1.996457e-18    -1.498259e-04    0.000000e+00
6.662812e-06    -1.498363e-04    0.000000e+00
1.334804e-05    -1.498679e-04    0.000000e+00
2.007712e-05    -1.499217e-04    0.000000e+00
2.686997e-05    -1.499987e-04    0.000000e+00
3.374542e-05    -1.500991e-04    0.000000e+00
-3.398571e-05    -1.570474e-04    0.000000e+00
-2.706099e-05    -1.569633e-04    0.000000e+00
-2.021796e-05    -1.569000e-04    0.000000e+00
-1.344010e-05    -1.568570e-04    0.000000e+00
-6.708161e-06    -1.568323e-04    0.000000e+00
-2.074384e-18    -1.568243e-04    0.000000e+00
6.708161e-06    -1.568323e-04    0.000000e+00
1.344010e-05    -1.568570e-04    0.000000e+00
2.021796e-05    -1.569000e-04    0.000000e+00
2.706099e-05    -1.569633e-04    0.000000e+00
3.398571e-05    -1.570474e-04    0.000000e+00
-3.418598e-05    -1.640396e-04    0.000000e+00
-2.721789e-05    -1.639714e-04    0.000000e+00
-2.033089e-05    -1.639222e-04    0.000000e+00
-1.351230e-05    -1.638903e-04    0.000000e+00
-6.743218e-06    -1.638727e-04    0.000000e+00
-2.160781e-18    -1.638671e-04    0.000000e+00
6.743218e-06    -1.638727e-04    0.000000e+00
1.351230e-05    -1.638903e-04    0.000000e+00
2.033089e-05    -1.639222e-04    0.000000e+00
2.721789e-05    -1.639714e-04    0.000000e+00
3.418598e-05    -1.640396e-04    0.000000e+00
-3.434937e-05    -1.710699e-04    0.000000e+00
-2.734057e-05    -1.710168e-04    0.000000e+00
-2.041473e-05    -1.709815e-04    0.000000e+00
-1.356390e-05    -1.709600e-04    0.000000e+00
-6.767813e-06    -1.709480e-04    0.000000e+00
-2.076925e-18    -1.709441e-04    0.000000e+00
6.767813e-06    -1.709480e-04    0.000000e+00
1.356390e-05    -1.709600e-04    0.000000e+00
2.041473e-05    -1.709815e-04    0.000000e+00
2.734057e-05    -1.710168e-04    0.000000e+00
3.434937e-05    -1.710699e-04    0.000000e+00
-3.448082e-05    -1.781384e-04    0.000000e+00
-2.742812e-05    -1.780985e-04    0.000000e+00
-2.046909e-05    -1.780743e-04    0.000000e+00
-1.359635e-05    -1.780569e-04    0.000000e+00
-6.783271e-06    -1.780449e-04    0.000000e+00
-1.959187e-18    -1.780406e-04    0.000000e+00
6.783271e-06    -1.780449e-04    0.000000e+00
1.359635e-05    -1.780569e-04    0.000000e+00
2.046909e-05    -1.780743e-04    0.000000e+00
2.742812e-05    -1.780985e-04    0.000000e+00
3.448082e-05    -1.781384e-04    0.000000e+00
-3.458352e-05    -1.852576e-04    0.000000e+00
-2.747889e-05    -1.852288e-04    0.000000e+00
-2.050025e-05    -1.851993e-04    0.000000e+00
-1.361696e-05    -1.851665e-04    0.000000e+00
-6.793762e-06    -1.851420e-04    0.000000e+00
-1.939705e-18    -1.851330e-04    0.000000e+00
6.793762e-06    -1.851420e-04    0.000000e+00
1.361696e-05    -1.851665e-04    0.000000e+00
2.050025e-05    -1.851993e-04    0.000000e+00
2.747889e-05    -1.852288e-04    0.000000e+00
3.458352e-05    -1.852576e-04    0.000000e+00
-3.463787e-05    -1.924916e-04    0.000000e+00
-2.751105e-05    -1.924362e-04    0.000000e+00
-2.053182e-05    -1.923430e-04    0.000000e+00
-1.364105e-05    -1.922589e-04    0.000000e+00
-6.806786e-06    -1.922028e-04    0.000000e+00
-1.930388e-18    -1.921832e-04    0.000000e+00
6.806786e-06    -1.922028e-04    0.000000e+00
1.364105e-05    -1.922589e-04    0.000000e+00
2.053182e-05    -1.923430e-04    0.000000e+00
2.751105e-05    -1.924362e-04    0.000000e+00
3.463787e-05    -1.924916e-04    0.000000e+00

CELL_DATA      400
TENSORS Element_Stress1.600000e-01 double
2.903776e+06 4.069739e+05        0
4.069739e+05 6.644044e+05        0
       0        0        0

1.983078e+06 2.086307e+05        0
2.086307e+05 5.687537e+05        0
       0        0        0

1.379091e+06 6.856388e+04        0
6.856388e+04 4.384108e+05        0
       0        0        0

8.128357e+05 -5.701136e+03        0
-5.701136e+03 2.693663e+05        0
       0        0        0

2.690579e+05 -3.965017e+04        0
-3.965017e+04 9.073606e+04        0
       0        0        0

-2.689672e+05 -3.963462e+04        0
-3.963462e+04 -9.075655e+04        0
       0        0        0

-8.116279e+05 -5.703036e+03        0
-5.703036e+03 -2.689484e+05        0
       0        0        0

-1.375510e+06 6.838157e+04        0
6.838157e+04 -4.370685e+05        0
       0        0        0

-1.975497e+06 2.078980e+05        0
2.078980e+05 -5.658498e+05        0
       0        0        0

-2.887976e+06 4.049163e+05        0
4.049163e+05 -6.589415e+05        0
       0        0        0

2.618551e+06 6.631983e+04        0
6.631983e+04 7.268062e+03        0
       0        0        0

2.108148e+06 1.923411e+05        0
1.923411e+05 2.051566e+05        0
       0        0        0

1.447407e+06 1.578185e+05        0
1.578185e+05 2.093082e+05        0
       0        0        0

8.544155e+05 1.208165e+05        0
1.208165e+05 1.460487e+05        0
       0        0        0

2.812380e+05 1.007346e+05        0
1.007346e+05 5.059420e+04        0
       0        0        0

-2.838727e+05 1.006880e+05        0
1.006880e+05 -5.336493e+04        0
       0        0        0

-8.557708e+05 1.206503e+05        0
1.206503e+05 -1.483635e+05        0
       0        0        0

-1.446021e+06 1.574626e+05        0
1.574626e+05 -2.106254e+05        0
       0        0        0

-2.101741e+06 1.917380e+05        0
1.917380e+05 -2.045170e+05        0
       0        0        0

-2.606862e+06 6.609983e+04        0
6.609983e+04 -4.479929e+03        0
       0        0        0

2.526295e+06 2.457859e+04        0
2.457859e+04 9.925961e+03        0
       0        0        0

2.026081e+06 1.089286e+05        0
1.089286e+05 2.701566e+04        0
       0        0        0

1.456537e+06 1.618862e+05        0
1.618862e+05 6.620613e+04        0
       0        0        0

8.639854e+05 1.712851e+05        0
1.712851e+05 5.572318e+04        0
       0        0        0

2.838627e+05 1.711457e+05        0
1.711457e+05 1.866411e+04        0
       0        0        0

-2.923246e+05 1.710748e+05        0
1.710748e+05 -2.727423e+04        0
       0        0        0

-8.710968e+05 1.710740e+05        0
1.710740e+05 -6.385105e+04        0
       0        0        0

-1.460777e+06 1.615584e+05        0
1.615584e+05 -7.325376e+04        0
       0        0        0

-2.026013e+06 1.086370e+05        0
1.086370e+05 -3.232576e+04        0
       0        0        0

-2.521280e+06 2.449758e+04        0
2.449758e+04 -1.321738e+04        0
       0        0        0

2.462830e+06 2.275602e+04        0
2.275602e+04 -8.479703e+03        0
       0        0        0

1.952850e+06 8.844308e+04        0
8.844308e+04 -5.709098e+03        0
       0        0        0

1.410167e+06 1.473547e+05        0
1.473547e+05 1.773860e+03        0
       0        0        0

8.465472e+05 1.826390e+05        0
1.826390e+05 6.273726e+03        0
       0        0        0

2.762748e+05 1.965637e+05        0
1.965637e+05 -2.084848e+03        0
       0        0        0

-2.932074e+05 1.964887e+05        0
1.964887e+05 -1.499524e+04        0
       0        0        0

-8.621444e+05 1.824315e+05        0
1.824315e+05 -2.286236e+04        0
       0        0        0

-1.423067e+06 1.470815e+05        0
1.470815e+05 -1.732395e+04        0
       0        0        0

-1.961750e+06 8.821917e+04        0
8.821917e+04 -8.208852e+03        0
       0        0        0

-2.466393e+06 2.268490e+04        0
2.268490e+04 -3.010996e+03        0
       0        0        0

2.402242e+06 2.731036e+04        0
2.731036e+04 -1.305587e+04        0
       0        0        0

1.884889e+06 8.685558e+04        0
8.685558e+04 -1.828829e+04        0
       0        0        0

1.356500e+06 1.419399e+05        0
1.419399e+05 -1.818112e+04        0
       0        0        0

8.136302e+05 1.811030e+05        0
1.811030e+05 -1.583587e+04        0
       0        0        0

2.627004e+05 2.005255e+05        0
2.005255e+05 -1.415747e+04        0
       0        0        0

-2.903334e+05 2.004535e+05        0
2.004535e+05 -1.361556e+04        0
       0        0        0

-8.400067e+05 1.809094e+05        0
1.809094e+05 -1.146931e+04        0
       0        0        0

-1.380360e+06 1.416896e+05        0
1.416896e+05 -8.150603e+03        0
       0        0        0

-1.904957e+06 8.664426e+04        0
8.664426e+04 -6.482334e+03        0
       0        0        0

-2.417081e+06 2.722665e+04        0
2.722665e+04 -9.366181e+03        0
       0        0        0

2.336350e+06 3.123008e+04        0
3.123008e+04 -1.926387e+04        0
       0        0        0

1.821451e+06 8.997571e+04        0
8.997571e+04 -2.384424e+04        0
       0        0        0

1.303509e+06 1.408719e+05        0
1.408719e+05 -2.629786e+04        0
       0        0        0

7.779978e+05 1.781231e+05        0
1.781231e+05 -2.519902e+04        0
       0        0        0

2.464852e+05 1.975231e+05        0
1.975231e+05 -2.211639e+04        0
       0        0        0

-2.867586e+05 1.974554e+05        0
1.974554e+05 -1.828741e+04        0
       0        0        0

-8.171181e+05 1.779406e+05        0
1.779406e+05 -1.478543e+04        0
       0        0        0

-1.340317e+06 1.406327e+05        0
1.406327e+05 -1.281760e+04        0
       0        0        0

-1.854751e+06 8.976327e+04        0
8.976327e+04 -1.388171e+04        0
       0        0        0

-2.364804e+06 3.113668e+04        0
3.113668e+04 -1.640762e+04        0
       0        0        0

2.265547e+06 3.370793e+04        0
3.370793e+04 -2.628124e+04        0
       0        0        0

1.759321e+06 9.300928e+04        0
9.300928e+04 -2.950995e+04        0
       0        0        0

1.252942e+06 1.412771e+05        0
1.412771e+05 -3.171581e+04        0
       0        0        0

7.430544e+05 1.758435e+05        0
1.758435e+05 -3.144496e+04        0
       0        0        0

2.298071e+05 1.938765e+05        0
1.938765e+05 -2.902896e+04        0
       0        0        0

-2.844573e+05 1.938124e+05        0
1.938124e+05 -2.574246e+04        0
       0        0        0

-7.966729e+05 1.756695e+05        0
1.756695e+05 -2.297882e+04        0
       0        0        0

-1.304489e+06 1.410447e+05        0
1.410447e+05 -2.199011e+04        0
       0        0        0

-1.807720e+06 9.279591e+04        0
9.279591e+04 -2.305705e+04        0
       0        0        0

-2.309632e+06 3.360975e+04        0
3.360975e+04 -2.464049e+04        0
       0        0        0

2.191246e+06 3.507433e+04        0
3.507433e+04 -3.439559e+04        0
       0        0        0

1.697297e+06 9.502324e+04        0
9.502324e+04 -3.634085e+04        0
       0        0        0

1.203962e+06 1.418631e+05        0
1.418631e+05 -3.784922e+04        0
       0        0        0

7.092811e+05 1.744762e+05        0
1.744762e+05 -3.786227e+04        0
       0        0        0

2.130263e+05 1.912659e+05        0
1.912659e+05 -3.641189e+04        0
       0        0        0

-2.836221e+05 1.912047e+05        0
1.912047e+05 -3.429699e+04        0
       0        0        0

-7.789784e+05 1.743089e+05        0
1.743089e+05 -3.258744e+04        0
       0        0        0

-1.271853e+06 1.416368e+05        0
1.416368e+05 -3.206623e+04        0
       0        0        0

-1.762448e+06 9.481157e+04        0
9.481157e+04 -3.273207e+04        0
       0        0        0

-2.252669e+06 3.497506e+04        0
3.497506e+04 -3.347786e+04        0
       0        0        0

2.114725e+06 3.575788e+04        0
3.575788e+04 -4.339413e+04        0
       0        0        0

1.634874e+06 9.615518e+04        0
9.615518e+04 -4.444650e+04        0
       0        0        0

1.155699e+06 1.422916e+05        0
1.422916e+05 -4.531149e+04        0
       0        0        0

6.761795e+05 1.737507e+05        0
1.737507e+05 -4.538484e+04        0
       0        0        0

1.960895e+05 1.897342e+05        0
1.897342e+05 -4.461228e+04        0
       0        0        0

-2.840386e+05 1.896754e+05        0
1.896754e+05 -4.344245e+04        0
       0        0        0

-7.633688e+05 1.735892e+05        0
1.735892e+05 -4.250847e+04        0
       0        0        0

-1.241360e+06 1.420714e+05        0
1.420714e+05 -4.224789e+04        0
       0        0        0

-1.718221e+06 9.594743e+04        0
9.594743e+04 -4.258462e+04        0
       0        0        0

-2.194938e+06 3.565970e+04        0
3.565970e+04 -4.288505e+04        0
       0        0        0

2.036826e+06 3.607067e+04        0
3.607067e+04 -5.312019e+04        0
       0        0        0

1.571922e+06 9.672441e+04        0
9.672441e+04 -5.358184e+04        0
       0        0        0

1.107561e+06 1.425423e+05        0
1.425423e+05 -5.398084e+04        0
       0        0        0

6.432596e+05 1.733997e+05        0
1.733997e+05 -5.400894e+04        0
       0        0        0

1.788632e+05 1.889377e+05        0
1.889377e+05 -5.361710e+04        0
       0        0        0

-2.854103e+05 1.888810e+05        0
1.888810e+05 -5.302869e+04        0
       0        0        0

-7.491865e+05 1.732436e+05        0
1.732436e+05 -5.257670e+04        0
       0        0        0

-1.212241e+06 1.423287e+05        0
1.423287e+05 -5.247632e+04        0
       0        0        0

-1.674712e+06 9.652197e+04        0
9.652197e+04 -5.266289e+04        0
       0        0        0

-2.137063e+06 3.597474e+04        0
3.597474e+04 -5.280751e+04        0
       0        0        0

1.958050e+06 3.620022e+04        0
3.620022e+04 -6.343223e+04        0
       0        0        0

1.508452e+06 9.698398e+04        0
9.698398e+04 -6.349739e+04        0
       0        0        0

1.059244e+06 1.426705e+05        0
1.426705e+05 -6.357152e+04        0
       0        0        0

6.102149e+05 1.732434e+05        0
1.732434e+05 -6.351490e+04        0
       0        0        0

1.612745e+05 1.885612e+05        0
1.885612e+05 -6.329709e+04        0
       0        0        0

-2.875003e+05 1.885064e+05        0
1.885064e+05 -6.302086e+04        0
       0        0        0

-7.359581e+05 1.730925e+05        0
1.730925e+05 -6.284402e+04        0
       0        0        0

-1.184016e+06 1.424636e+05        0
1.424636e+05 -6.286273e+04        0
       0        0        0

-1.631751e+06 9.678760e+04        0
9.678760e+04 -6.303380e+04        0
       0        0        0

-2.079357e+06 3.610709e+04        0
3.610709e+04 -6.320016e+04        0
       0        0        0

1.878689e+06 3.624691e+04        0
3.624691e+04 -7.421581e+04        0
       0        0        0

1.444528e+06 9.708994e+04        0
9.708994e+04 -7.399348e+04        0
       0        0        0

1.010630e+06 1.427285e+05        0
1.427285e+05 -7.383269e+04        0
       0        0        0

5.769071e+05 1.731793e+05        0
1.731793e+05 -7.367873e+04        0
       0        0        0

1.433123e+05 1.883985e+05        0
1.883985e+05 -7.351711e+04        0
       0        0        0

-2.901349e+05 1.883457e+05        0
1.883457e+05 -7.339147e+04        0
       0        0        0

-7.233813e+05 1.730336e+05        0
1.730336e+05 -7.336988e+04        0
       0        0        0

-1.156401e+06 1.425286e+05        0
1.425286e+05 -7.349001e+04        0
       0        0        0

-1.589231e+06 9.689999e+04        0
9.689999e+04 -7.372579e+04        0
       0        0        0

-2.021940e+06 3.615681e+04        0
3.615681e+04 -7.400603e+04        0
       0        0        0

1.798917e+06 3.625962e+04        0
3.625962e+04 -8.537408e+04        0
       0        0        0

1.380230e+06 9.712642e+04        0
9.712642e+04 -8.492178e+04        0
       0        0        0

9.617038e+05 1.427508e+05        0
1.427508e+05 -8.457705e+04        0
       0        0        0

5.433048e+05 1.731550e+05        0
1.731550e+05 -8.432441e+04        0
       0        0        0

1.250080e+05 1.883350e+05        0
1.883350e+05 -8.415936e+04        0
       0        0        0

-2.931866e+05 1.882840e+05        0
1.882840e+05 -8.409925e+04        0
       0        0        0

-7.112646e+05 1.730145e+05        0
1.730145e+05 -8.417024e+04        0
       0        0        0

-1.129221e+06 1.425578e+05        0
1.425578e+05 -8.438396e+04        0
       0        0        0

-1.547068e+06 9.694304e+04        0
9.694304e+04 -8.472469e+04        0
       0        0        0

-1.964824e+06 3.617264e+04        0
3.617264e+04 -8.516041e+04        0
       0        0        0

1.718850e+06 3.626012e+04        0
3.626012e+04 -9.682175e+04        0
       0        0        0

1.315638e+06 9.713444e+04        0
9.713444e+04 -9.616928e+04        0
       0        0        0

9.125032e+05 1.427565e+05        0
1.427565e+05 -9.566828e+04        0
       0        0        0

5.094340e+05 1.731462e+05        0
1.731462e+05 -9.531964e+04        0
       0        0        0

1.064162e+05 1.883131e+05        0
1.883131e+05 -9.512434e+04        0
       0        0        0

-2.965554e+05 1.882640e+05        0
1.882640e+05 -9.508918e+04        0
       0        0        0

-6.994796e+05 1.730107e+05        0
1.730107e+05 -9.522254e+04        0
       0        0        0

-1.102356e+06 1.425705e+05        0
1.425705e+05 -9.552558e+04        0
       0        0        0

-1.505187e+06 9.695771e+04        0
9.695771e+04 -9.598803e+04        0
       0        0        0

-1.907969e+06 3.617630e+04        0
3.617630e+04 -9.659406e+04        0
       0        0        0

1.638579e+06 3.625715e+04        0
3.625715e+04 -1.084808e+05        0
       0        0        0

1.250829e+06 9.713227e+04        0
9.713227e+04 -1.076445e+05        0
       0        0        0

8.630875e+05 1.427551e+05        0
1.427551e+05 -1.070025e+05        0
       0        0        0

4.753480e+05 1.731423e+05        0
1.731423e+05 -1.065618e+05        0
       0        0        0

8.760172e+04 1.883068e+05        0
1.883068e+05 -1.063259e+05        0
       0        0        0

-3.001570e+05 1.882595e+05        0
1.882595e+05 -1.062982e+05        0
       0        0        0

-6.879301e+05 1.730120e+05        0
1.730120e+05 -1.064801e+05        0
       0        0        0

-1.075718e+06 1.425762e+05        0
1.425762e+05 -1.068693e+05        0
       0        0        0

-1.463516e+06 9.696221e+04        0
9.696221e+04 -1.074580e+05        0
       0        0        0

-1.851317e+06 3.617650e+04        0
3.617650e+04 -1.082364e+05        0
       0        0        0

1.558178e+06 3.625378e+04        0
3.625378e+04 -1.202780e+05        0
       0        0        0

1.185877e+06 9.712723e+04        0
9.712723e+04 -1.192682e+05        0
       0        0        0

8.135237e+05 1.427512e+05        0
1.427512e+05 -1.184946e+05        0
       0        0        0

4.411111e+05 1.731396e+05        0
1.731396e+05 -1.179658e+05        0
       0        0        0

6.863278e+04 1.883052e+05        0
1.883052e+05 -1.176868e+05        0
       0        0        0

-3.039158e+05 1.882597e+05        0
1.882597e+05 -1.176597e+05        0
       0        0        0

-6.765366e+05 1.730143e+05        0
1.730143e+05 -1.178841e+05        0
       0        0        0

-1.049229e+06 1.425793e+05        0
1.425793e+05 -1.183565e+05        0
       0        0        0

-1.421987e+06 9.696384e+04        0
9.696384e+04 -1.190703e+05        0
       0        0        0

-1.794800e+06 3.617630e+04        0
3.617630e+04 -1.200173e+05        0
       0        0        0

1.477717e+06 3.625081e+04        0
3.625081e+04 -1.321438e+05        0
       0        0        0

1.120853e+06 9.712187e+04        0
9.712187e+04 -1.309686e+05        0
       0        0        0

7.638801e+05 1.427465e+05        0
1.427465e+05 -1.300701e+05        0
       0        0        0

4.067899e+05 1.731367e+05        0
1.731367e+05 -1.294573e+05        0
       0        0        0

4.957727e+04 1.883044e+05        0
1.883044e+05 -1.291356e+05        0
       0        0        0

-3.077615e+05 1.882608e+05        0
1.882608e+05 -1.291071e+05        0
       0        0        0

-6.652276e+05 1.730166e+05        0
1.730166e+05 -1.293709e+05        0
       0        0        0

-1.022819e+06 1.425816e+05        0
1.425816e+05 -1.299235e+05        0
       0        0        0

-1.380530e+06 9.696515e+04        0
9.696515e+04 -1.307588e+05        0
       0        0        0

-1.738350e+06 3.617649e+04        0
3.617649e+04 -1.318686e+05        0
       0        0        0

1.397262e+06 3.624828e+04        0
3.624828e+04 -1.440118e+05        0
       0        0        0

1.055824e+06 9.711685e+04        0
9.711685e+04 -1.426783e+05        0
       0        0        0

7.142230e+05 1.427417e+05        0
1.427417e+05 -1.416607e+05        0
       0        0        0

3.724504e+05 1.731335e+05        0
1.731335e+05 -1.409678e+05        0
       0        0        0

3.050131e+04 1.883032e+05        0
1.883032e+05 -1.406050e+05        0
       0        0        0

-3.116275e+05 1.882615e+05        0
1.882615e+05 -1.405748e+05        0
       0        0        0

-6.539365e+05 1.730185e+05        0
1.730185e+05 -1.408762e+05        0
       0        0        0

-9.964230e+05 1.425838e+05        0
1.425838e+05 -1.415060e+05        0
       0        0        0

-1.339081e+06 9.696681e+04        0
9.696681e+04 -1.424581e+05        0
       0        0        0

-1.681901e+06 3.617713e+04        0
3.617713e+04 -1.437243e+05        0
       0        0        0

1.316877e+06 3.624607e+04        0
3.624607e+04 -1.558184e+05        0
       0        0        0

9.908540e+05 9.711222e+04        0
9.711222e+04 -1.543337e+05        0
       0        0        0

6.646166e+05 1.427369e+05        0
1.427369e+05 -1.532023e+05        0
       0        0        0

3.381565e+05 1.731300e+05        0
1.731300e+05 -1.524330e+05        0
       0        0        0

1.146847e+04 1.883016e+05        0
1.883016e+05 -1.520313e+05        0
       0        0        0

-3.154503e+05 1.882618e+05        0
1.882618e+05 -1.519995e+05        0
       0        0        0

-6.426000e+05 1.730201e+05        0
1.730201e+05 -1.523373e+05        0
       0        0        0

-9.699774e+05 1.425860e+05        0
1.425860e+05 -1.530411e+05        0
       0        0        0

-1.297576e+06 9.696885e+04        0
9.696885e+04 -1.541052e+05        0
       0        0        0

-1.625388e+06 3.617808e+04        0
3.617808e+04 -1.555209e+05        0
       0        0        0

1.236621e+06 3.624404e+04        0
3.624404e+04 -1.675029e+05        0
       0        0        0

9.260032e+05 9.710787e+04        0
9.710787e+04 -1.658739e+05        0
       0        0        0

6.151220e+05 1.427322e+05        0
1.427322e+05 -1.646342e+05        0
       0        0        0

3.039692e+05 1.731263e+05        0
1.731263e+05 -1.637922e+05        0
       0        0        0

-7.460353e+03 1.882997e+05        0
1.882997e+05 -1.633535e+05        0
       0        0        0

-3.191694e+05 1.882617e+05        0
1.882617e+05 -1.633207e+05        0
       0        0        0

-6.311576e+05 1.730215e+05        0
1.730215e+05 -1.636933e+05        0
       0        0        0

-9.434218e+05 1.425883e+05        0
1.425883e+05 -1.644681e+05        0
       0        0        0

-1.255956e+06 9.697117e+04        0
9.697117e+04 -1.656392e+05        0
       0        0        0

-1.568750e+06 3.617922e+04        0
3.617922e+04 -1.671978e+05        0
       0        0        0

1.156553e+06 3.624213e+04        0
3.624213e+04 -1.790073e+05        0
       0        0        0

8.613299e+05 9.710370e+04        0
9.710370e+04 -1.772410e+05        0
       0        0        0

5.657973e+05 1.427276e+05        0
1.427276e+05 -1.758982e+05        0
       0        0        0

2.699468e+05 1.731226e+05        0
1.731226e+05 -1.749873e+05        0
       0        0        0

-2.622708e+04 1.882976e+05        0
1.882976e+05 -1.745138e+05        0
       0        0        0

-3.227267e+05 1.882614e+05        0
1.882614e+05 -1.744802e+05        0
       0        0        0

-6.195515e+05 1.730229e+05        0
1.730229e+05 -1.748863e+05        0
       0        0        0

-9.166985e+05 1.425908e+05        0
1.425908e+05 -1.757290e+05        0
       0        0        0

-1.214161e+06 9.697367e+04        0
9.697367e+04 -1.770021e+05        0
       0        0        0

-1.511931e+06 3.618046e+04        0
3.618046e+04 -1.786970e+05        0
       0        0        0

1.076727e+06 3.624029e+04        0
3.624029e+04 -1.902762e+05        0
       0        0        0

7.968896e+05 9.709967e+04        0
9.709967e+04 -1.883799e+05        0
       0        0        0

5.166981e+05 1.427231e+05        0
1.427231e+05 -1.869395e+05        0
       0        0        0

2.361445e+05 1.731188e+05        0
1.731188e+05 -1.859633e+05        0
       0        0        0

-4.477642e+04 1.882953e+05        0
1.882953e+05 -1.854568e+05        0
       0        0        0

-3.260670e+05 1.882609e+05        0
1.882609e+05 -1.854228e+05        0
       0        0        0

-6.077268e+05 1.730242e+05        0
1.730242e+05 -1.858610e+05        0
       0        0        0

-8.897523e+05 1.425932e+05        0
1.425932e+05 -1.867683e+05        0
       0        0        0

-1.172137e+06 9.697631e+04        0
9.697631e+04 -1.881387e+05        0
       0        0        0

-1.454873e+06 3.618179e+04        0
3.618179e+04 -1.899633e+05        0
       0        0        0

9.971972e+05 3.623853e+04        0
3.623853e+04 -2.012574e+05        0
       0        0        0

7.327347e+05 9.709580e+04        0
9.709580e+04 -1.992380e+05        0
       0        0        0

4.678768e+05 1.427186e+05        0
1.427186e+05 -1.977054e+05        0
       0        0        0

2.026150e+05 1.731149e+05        0
1.731149e+05 -1.966677e+05        0
       0        0        0

-6.305584e+04 1.882928e+05        0
1.882928e+05 -1.961303e+05        0
       0        0        0

-3.291381e+05 1.882603e+05        0
1.882603e+05 -1.960960e+05        0
       0        0        0

-5.956310e+05 1.730254e+05        0
1.730254e+05 -1.965648e+05        0
       0        0        0

-8.625310e+05 1.425958e+05        0
1.425958e+05 -1.975336e+05        0
       0        0        0

-1.129832e+06 9.697911e+04        0
9.697911e+04 -1.989964e+05        0
       0        0        0

-1.397525e+06 3.618319e+04        0
3.618319e+04 -2.009442e+05        0
       0        0        0

9.180117e+05 3.623690e+04        0
3.623690e+04 -2.119010e+05        0
       0        0        0

6.689148e+05 9.709214e+04        0
9.709214e+04 -2.097659e+05        0
       0        0        0

4.193833e+05 1.427143e+05        0
1.427143e+05 -2.081465e+05        0
       0        0        0

1.694082e+05 1.731110e+05        0
1.731110e+05 -2.070509e+05        0
       0        0        0

-8.101558e+04 1.882901e+05        0
1.882901e+05 -2.064844e+05        0
       0        0        0

-3.318902e+05 1.882595e+05        0
1.882595e+05 -2.064501e+05        0
       0        0        0

-5.832146e+05 1.730266e+05        0
1.730266e+05 -2.069480e+05        0
       0        0        0

-8.349850e+05 1.425985e+05        0
1.425985e+05 -2.079751e+05        0
       0        0        0

-1.087195e+06 9.698212e+04        0
9.698212e+04 -2.095255e+05        0
       0        0        0

-1.339837e+06 3.618473e+04        0
3.618473e+04 -2.115900e+05        0
       0        0        0

8.392176e+05 3.623549e+04        0
3.623549e+04 -2.221602e+05        0
       0        0        0

6.054771e+05 9.708877e+04        0
9.708877e+04 -2.199165e+05        0
       0        0        0

3.712647e+05 1.427100e+05        0
1.427100e+05 -2.182158e+05        0
       0        0        0

1.365712e+05 1.731068e+05        0
1.731068e+05 -2.170659e+05        0
       0        0        0

-9.860864e+04 1.882872e+05        0
1.882872e+05 -2.164724e+05        0
       0        0        0

-3.342765e+05 1.882584e+05        0
1.882584e+05 -2.164382e+05        0
       0        0        0

-5.704308e+05 1.730276e+05        0
1.730276e+05 -2.169635e+05        0
       0        0        0

-8.070675e+05 1.426012e+05        0
1.426012e+05 -2.180457e+05        0
       0        0        0

-1.044181e+06 9.698542e+04        0
9.698542e+04 -2.196789e+05        0
       0        0        0

-1.281762e+06 3.618648e+04        0
3.618648e+04 -2.218536e+05        0
       0        0        0

7.608587e+05 3.623441e+04        0
3.623441e+04 -2.319907e+05        0
       0        0        0

5.424659e+05 9.708574e+04        0
9.708574e+04 -2.296457e+05        0
       0        0        0

3.235656e+05 1.427057e+05        0
1.427057e+05 -2.278689e+05        0
       0        0        0

1.041483e+05 1.731025e+05        0
1.731025e+05 -2.266683e+05        0
       0        0        0

-1.157908e+05 1.882839e+05        0
1.882839e+05 -2.260497e+05        0
       0        0        0

-3.362528e+05 1.882570e+05        0
1.882570e+05 -2.260161e+05        0
       0        0        0

-5.572357e+05 1.730284e+05        0
1.730284e+05 -2.265676e+05        0
       0        0        0

-7.787347e+05 1.426040e+05        0
1.426040e+05 -2.277016e+05        0
       0        0        0

-1.000743e+06 9.698906e+04        0
9.698906e+04 -2.294125e+05        0
       0        0        0

-1.223254e+06 3.618856e+04        0
3.618856e+04 -2.316909e+05        0
       0        0        0

6.829760e+05 3.623369e+04        0
3.623369e+04 -2.413511e+05        0
       0        0        0

4.799229e+05 9.708277e+04        0
9.708277e+04 -2.389114e+05        0
       0        0        0

2.763276e+05 1.427012e+05        0
1.427012e+05 -2.370634e+05        0
       0        0        0

7.218087e+04 1.730980e+05        0
1.730980e+05 -2.358157e+05        0
       0        0        0

-1.325208e+05 1.882809e+05        0
1.882809e+05 -2.351747e+05        0
       0        0        0

-3.377778e+05 1.882559e+05        0
1.882559e+05 -2.351431e+05        0
       0        0        0

-5.435877e+05 1.730290e+05        0
1.730290e+05 -2.357200e+05        0
       0        0        0

-7.499453e+05 1.426064e+05        0
1.426064e+05 -2.369023e+05        0
       0        0        0

-9.568429e+05 9.699276e+04        0
9.699276e+04 -2.386852e+05        0
       0        0        0

-1.164273e+06 3.619101e+04        0
3.619101e+04 -2.410604e+05        0
       0        0        0

6.056084e+05 3.623301e+04        0
3.623301e+04 -2.502023e+05        0
       0        0        0

4.178875e+05 9.707857e+04        0
9.707857e+04 -2.476736e+05        0
       0        0        0

2.295888e+05 1.426952e+05        0
1.426952e+05 -2.457577e+05        0
       0        0        0

4.070634e+04 1.730940e+05        0
1.730940e+05 -2.444664e+05        0
       0        0        0

-1.487606e+05 1.882802e+05        0
1.882802e+05 -2.438075e+05        0
       0        0        0

-3.388122e+05 1.882570e+05        0
1.882570e+05 -2.437819e+05        0
       0        0        0

-5.294473e+05 1.730301e+05        0
1.730301e+05 -2.443850e+05        0
       0        0        0

-7.206604e+05 1.426075e+05        0
1.426075e+05 -2.456121e+05        0
       0        0        0

-9.124409e+05 9.699522e+04        0
9.699522e+04 -2.474600e+05        0
       0        0        0

-1.104778e+06 3.619349e+04        0
3.619349e+04 -2.499235e+05        0
       0        0        0

5.287939e+05 3.623081e+04        0
3.623081e+04 -2.585072e+05        0
       0        0        0

3.563969e+05 9.706911e+04        0
9.706911e+04 -2.558920e+05        0
       0        0        0

1.833828e+05 1.426855e+05        0
1.426855e+05 -2.539084e+05        0
       0        0        0

9.756310e+03 1.730925e+05        0
1.730925e+05 -2.525770e+05        0
       0        0        0

-1.644766e+05 1.882878e+05        0
1.882878e+05 -2.519091e+05        0
       0        0        0

-3.393183e+05 1.882664e+05        0
1.882664e+05 -2.518997e+05        0
       0        0        0

-5.147744e+05 1.730337e+05        0
1.730337e+05 -2.525345e+05        0
       0        0        0

-6.908416e+05 1.426048e+05        0
1.426048e+05 -2.538028e+05        0
       0        0        0

-8.675026e+05 9.699244e+04        0
9.699244e+04 -2.557048e+05        0
       0        0        0

-1.044737e+06 3.619444e+04        0
3.619444e+04 -2.582448e+05        0
       0        0        0

4.525735e+05 3.622227e+04        0
3.622227e+04 -2.662302e+05        0
       0        0        0

2.954862e+05 9.704395e+04        0
9.704395e+04 -2.635237e+05        0
       0        0        0

1.377341e+05 1.426661e+05        0
1.426661e+05 -2.614653e+05        0
       0        0        0

-2.064834e+04 1.730995e+05        0
1.730995e+05 -2.600980e+05        0
       0        0        0

-1.796412e+05 1.883188e+05        0
1.883188e+05 -2.594396e+05        0
       0        0        0

-3.392575e+05 1.882993e+05        0
1.882993e+05 -2.594707e+05        0
       0        0        0

-4.995241e+05 1.730458e+05        0
1.730458e+05 -2.601524e+05        0
       0        0        0

-6.604477e+05 1.425925e+05        0
1.425925e+05 -2.614588e+05        0
       0        0        0

-8.219969e+05 9.697395e+04        0
9.697395e+04 -2.633963e+05        0
       0        0        0

-9.841220e+05 3.618908e+04        0
3.618908e+04 -2.659926e+05        0
       0        0        0

3.769999e+05 3.619491e+04        0
3.619491e+04 -2.733355e+05        0
       0        0        0

2.351876e+05 9.697873e+04        0
9.697873e+04 -2.705173e+05        0
       0        0        0

9.264925e+04 1.426254e+05        0
1.426254e+05 -2.683625e+05        0
       0        0        0

-5.050757e+04 1.731291e+05        0
1.731291e+05 -2.669651e+05        0
       0        0        0

-1.942376e+05 1.884077e+05        0
1.884077e+05 -2.663549e+05        0
       0        0        0

-3.385863e+05 1.883900e+05        0
1.883900e+05 -2.664785e+05        0
       0        0        0

-4.836367e+05 1.730805e+05        0
1.730805e+05 -2.672430e+05        0
       0        0        0

-6.294261e+05 1.425587e+05        0
1.425587e+05 -2.685866e+05        0
       0        0        0

-7.758958e+05 9.691543e+04        0
9.691543e+04 -2.705260e+05        0
       0        0        0

-9.229238e+05 3.616489e+04        0
3.616489e+04 -2.731404e+05        0
       0        0        0

3.021551e+05 3.611968e+04        0
3.611968e+04 -2.797852e+05        0
       0        0        0

1.755272e+05 9.682192e+04        0
9.682192e+04 -2.768046e+05        0
       0        0        0

4.809852e+04 1.425411e+05        0
1.425411e+05 -2.745059e+05        0
       0        0        0

-7.986142e+04 1.732130e+05        0
1.732130e+05 -2.730891e+05        0
       0        0        0

-2.082671e+05 1.886254e+05        0
1.886254e+05 -2.726022e+05        0
       0        0        0

-3.372477e+05 1.886096e+05        0
1.886096e+05 -2.729203e+05        0
       0        0        0

-4.670183e+05 1.731695e+05        0
1.731695e+05 -2.738415e+05        0
       0        0        0

-5.976951e+05 1.424815e+05        0
1.424815e+05 -2.752284e+05        0
       0        0        0

-7.291735e+05 9.676536e+04        0
9.676536e+04 -2.771100e+05        0
       0        0        0

-8.611682e+05 3.609288e+04        0
3.609288e+04 -2.796699e+05        0
       0        0        0

2.281848e+05 3.593499e+04        0
3.593499e+04 -2.855376e+05        0
       0        0        0

1.165148e+05 9.647436e+04        0
9.647436e+04 -2.822905e+05        0
       0        0        0

3.980551e+03 1.423776e+05        0
1.423776e+05 -2.797608e+05        0
       0        0        0

-1.088226e+05 1.734154e+05        0
1.734154e+05 -2.783474e+05        0
       0        0        0

-2.217611e+05 1.891044e+05        0
1.891044e+05 -2.781167e+05        0
       0        0        0

-3.351576e+05 1.890904e+05        0
1.890904e+05 -2.788079e+05        0
       0        0        0

-4.495080e+05 1.733769e+05        0
1.733769e+05 -2.800226e+05        0
       0        0        0

-5.651112e+05 1.423250e+05        0
1.423250e+05 -2.814769e+05        0
       0        0        0

-6.817997e+05 9.642459e+04        0
9.642459e+04 -2.832033e+05        0
       0        0        0

-7.989543e+05 3.591144e+04        0
3.591144e+04 -2.855765e+05        0
       0        0        0

1.553548e+05 3.552131e+04        0
3.552131e+04 -2.905480e+05        0
       0        0        0

5.811770e+04 9.576658e+04        0
9.576658e+04 -2.868506e+05        0
       0        0        0

-3.993583e+04 1.420905e+05        0
1.420905e+05 -2.839602e+05        0
       0        0        0

-1.376207e+05 1.738531e+05        0
1.738531e+05 -2.826007e+05        0
       0        0        0

-2.347945e+05 1.900609e+05        0
1.900609e+05 -2.828291e+05        0
       0        0        0

-3.321861e+05 1.900487e+05        0
1.900487e+05 -2.841559e+05        0
       0        0        0

-4.308319e+05 1.738198e+05        0
1.738198e+05 -2.858811e+05        0
       0        0        0

-5.314145e+05 1.420450e+05        0
1.420450e+05 -2.874699e+05        0
       0        0        0

-6.337227e+05 9.572370e+04        0
9.572370e+04 -2.889112e+05        0
       0        0        0

-7.365211e+05 3.550109e+04        0
3.550109e+04 -2.908781e+05        0
       0        0        0

8.412916e+04 3.466984e+04        0
3.466984e+04 -2.947795e+05        0
       0        0        0

1.956757e+02 9.446097e+04        0
9.446097e+04 -2.903704e+05        0
       0        0        0

-8.408791e+04 1.416647e+05        0
1.416647e+05 -2.869959e+05        0
       0        0        0

-1.666329e+05 1.747121e+05        0
1.747121e+05 -2.857998e+05        0
       0        0        0

-2.474856e+05 1.917707e+05        0
1.917707e+05 -2.867085e+05        0
       0        0        0

-3.281475e+05 1.917604e+05        0
1.917604e+05 -2.889276e+05        0
       0        0        0

-4.105667e+05 1.746839e+05        0
1.746839e+05 -2.914199e+05        0
       0        0        0

-4.961568e+05 1.416263e+05        0
1.416263e+05 -2.933049e+05        0
       0        0        0

-5.848223e+05 9.442508e+04        0
9.442508e+04 -2.943685e+05        0
       0        0        0

-6.743508e+05 3.465305e+04        0
3.465305e+04 -2.956301e+05        0
       0        0        0

1.522423e+04 3.307106e+04        0
3.307106e+04 -2.982628e+05        0
       0        0        0

-5.763720e+04 9.236726e+04        0
9.236726e+04 -2.929089e+05        0
       0        0        0

-1.291657e+05 1.412394e+05        0
1.412394e+05 -2.891638e+05        0
       0        0        0

-1.963077e+05 1.762087e+05        0
1.762087e+05 -2.883256e+05        0
       0        0        0

-2.599402e+05 1.943777e+05        0
1.943777e+05 -2.899008e+05        0
       0        0        0

-3.228338e+05 1.943694e+05        0
1.943694e+05 -2.928749e+05        0
       0        0        0

-3.882008e+05 1.761859e+05        0
1.761859e+05 -2.961954e+05        0
       0        0        0

-4.586577e+05 1.412084e+05        0
1.412084e+05 -2.986956e+05        0
       0        0        0

-5.348033e+05 9.233846e+04        0
9.233846e+04 -2.996063e+05        0
       0        0        0

-6.132826e+05 3.305779e+04        0
3.305779e+04 -2.999247e+05        0
       0        0        0

-5.052450e+04 3.043485e+04        0
3.043485e+04 -3.012165e+05        0
       0        0        0

-1.162917e+05 8.982660e+04        0
8.982660e+04 -2.953579e+05        0
       0        0        0

-1.759063e+05 1.413833e+05        0
1.413833e+05 -2.921216e+05        0
       0        0        0

-2.267580e+05 1.783445e+05        0
1.783445e+05 -2.918491e+05        0
       0        0        0

-2.720348e+05 1.972600e+05        0
1.972600e+05 -2.930330e+05        0
       0        0        0

-3.161935e+05 1.972541e+05        0
1.972541e+05 -2.951961e+05        0
       0        0        0

-3.635074e+05 1.783280e+05        0
1.783280e+05 -2.984226e+05        0
       0        0        0

-4.181971e+05 1.413602e+05        0
1.413602e+05 -3.020013e+05        0
       0        0        0

-4.829608e+05 8.980491e+04        0
8.980491e+04 -3.039389e+05        0
       0        0        0

-5.545067e+05 3.042507e+04        0
3.042507e+04 -3.038979e+05        0
       0        0        0

-1.131370e+05 2.724827e+04        0
2.724827e+04 -3.051062e+05        0
       0        0        0

-1.773534e+05 8.909551e+04        0
8.909551e+04 -3.012453e+05        0
       0        0        0

-2.240899e+05 1.434065e+05        0
1.434065e+05 -3.015478e+05        0
       0        0        0

-2.565828e+05 1.798676e+05        0
1.798676e+05 -3.007817e+05        0
       0        0        0

-2.829934e+05 1.976152e+05        0
1.976152e+05 -2.975574e+05        0
       0        0        0

-3.086972e+05 1.976123e+05        0
1.976123e+05 -2.941335e+05        0
       0        0        0

-3.376544e+05 1.798589e+05        0
1.798589e+05 -2.934579e+05        0
       0        0        0

-3.749554e+05 1.433928e+05        0
1.433928e+05 -2.975051e+05        0
       0        0        0

-4.280510e+05 8.908097e+04        0
8.908097e+04 -3.041800e+05        0
       0        0        0

-4.988477e+05 2.724164e+04        0
2.724164e+04 -3.069277e+05        0
       0        0        0

-1.767131e+05 2.836014e+04        0
2.836014e+04 -3.133565e+05        0
       0        0        0

-2.421568e+05 9.771576e+04        0
9.771576e+04 -3.255645e+05        0
       0        0        0

-2.686581e+05 1.472296e+05        0
1.472296e+05 -3.314527e+05        0
       0        0        0

-2.813183e+05 1.754876e+05        0
1.754876e+05 -3.228909e+05        0
       0        0        0

-2.911551e+05 1.884199e+05        0
1.884199e+05 -3.057730e+05        0
       0        0        0

-3.015042e+05 1.884210e+05        0
1.884210e+05 -2.868864e+05        0
       0        0        0

-3.146457e+05 1.754895e+05        0
1.754895e+05 -2.730726e+05        0
       0        0        0

-3.337135e+05 1.472291e+05        0
1.472291e+05 -2.709191e+05        0
       0        0        0

-3.690444e+05 9.771019e+04        0
9.771019e+04 -2.856416e+05        0
       0        0        0

-4.438289e+05 2.835556e+04        0
2.835556e+04 -3.072098e+05        0
       0        0        0

-2.617551e+05 6.459584e+04        0
6.459584e+04 -3.666967e+05        0
       0        0        0

-2.960862e+05 1.209722e+05        0
1.209722e+05 -4.108084e+05        0
       0        0        0

-2.956281e+05 1.421106e+05        0
1.421106e+05 -4.018277e+05        0
       0        0        0

-2.945376e+05 1.524817e+05        0
1.524817e+05 -3.669485e+05        0
       0        0        0

-2.943306e+05 1.570236e+05        0
1.570236e+05 -3.198886e+05        0
       0        0        0

-2.960690e+05 1.570284e+05        0
1.570284e+05 -2.705101e+05        0
       0        0        0

-3.000949e+05 1.524948e+05        0
1.524948e+05 -2.276774e+05        0
       0        0        0

-3.075816e+05 1.421279e+05        0
1.421279e+05 -2.013679e+05        0
       0        0        0

-3.201080e+05 1.209865e+05        0
1.209865e+05 -2.053707e+05        0
       0        0        0

-3.704697e+05 6.459528e+04        0
6.459528e+04 -2.655286e+05        0
       0        0        0

POINT_DATA     451
VECTORS DISPLACEMENT_1.800000e-01 double
0.000000e+00    0.000000e+00    0.000000e+00
0.000000e+00    0.000000e+00    0.000000e+00
0.000000e+00    0.000000e+00    0.000000e+00
0.000000e+00    0.000000e+00    0.000000e+00
0.000000e+00    0.000000e+00    0.000000e+00
0.000000e+00    0.000000e+00    0.000000e+00
0.000000e+00    0.000000e+00    0.000000e+00
0.000000e+00    0.000000e+00    0.000000e+00
0.000000e+00    0.000000e+00    0.000000e+00
0.000000e+00    0.000000e+00    0.000000e+00
0.000000e+00    0.000000e+00    0.000000e+00
-2.047261e-06    -1.488396e-06    0.000000e+00
-1.297199e-06    -7.465819e-07    0.000000e+00
-9.255656e-07    -3.868690e-07    0.000000e+00
-5.975806e-07    -1.915852e-07    0.000000e+00
-2.946201e-07    -9.051724e-08    0.000000e+00
-5.211623e-20    -5.909299e-08    0.000000e+00
2.946201e-07    -9.051724e-08    0.000000e+00
5.975806e-07    -1.915852e-07    0.000000e+00
9.255656e-07    -3.868690e-07    0.000000e+00
1.297199e-06    -7.465819e-07    0.000000e+00
2.047261e-06    -1.488396e-06    0.000000e+00
-3.862735e-06    -2.475356e-06    0.000000e+00
-2.823489e-06    -1.791122e-06    0.000000e+00
-1.981800e-06    -1.258119e-06    0.000000e+00
-1.278341e-06    -9.284197e-07    0.000000e+00
-6.278504e-07    -7.487704e-07    0.000000e+00
-1.101738e-19    -6.917074e-07    0.000000e+00
6.278504e-07    -7.487704e-07    0.000000e+00
1.278341e-06    -9.284197e-07    0.000000e+00
1.981800e-06    -1.258119e-06    0.000000e+00
2.823489e-06    -1.791122e-06    0.000000e+00
3.862735e-06    -2.475356e-06    0.000000e+00
-5.617488e-06    -3.702579e-06    0.000000e+00
-4.293543e-06    -3.016849e-06    0.000000e+00
-3.089380e-06    -2.476166e-06    0.000000e+00
-1.999998e-06    -2.094787e-06    0.000000e+00
-9.840901e-07    -1.874968e-06    0.000000e+00
-1.736682e-19    -1.803364e-06    0.000000e+00
9.840901e-07    -1.874968e-06    0.000000e+00
1.999998e-06    -2.094787e-06    0.000000e+00
3.089380e-06    -2.476166e-06    0.000000e+00
4.293543e-06    -3.016849e-06    0.000000e+00
5.617488e-06    -3.702579e-06    0.000000e+00
-7.352806e-06    -5.217118e-06    0.000000e+00
-5.715133e-06    -4.547039e-06    0.000000e+00
-4.173013e-06    -4.015370e-06    0.000000e+00
-2.724807e-06    -3.631690e-06    0.000000e+00
-1.345100e-06    -3.401388e-06    0.000000e+00
-2.394456e-19    -3.325022e-06    0.000000e+00
1.345100e-06    -3.401388e-06    0.000000e+00
2.724807e-06    -3.631690e-06    0.000000e+00
4.173013e-06    -4.015370e-06    0.000000e+00
5.715133e-06    -4.547039e-06    0.000000e+00
7.352806e-06    -5.217118e-06    0.000000e+00
-9.058741e-06    -7.059736e-06    0.000000e+00
-7.095285e-06    -6.405296e-06    0.000000e+00
-5.222164e-06    -5.889682e-06    0.000000e+00
-3.430407e-06    -5.516097e-06    0.000000e+00
-1.699274e-06    -5.289936e-06    0.000000e+00
-3.074200e-19    -5.214233e-06    0.000000e+00
1.699274e-06    -5.289936e-06    0.000000e+00
3.430407e-06    -5.516097e-06    0.000000e+00
5.222164e-06    -5.889682e-06    0.000000e+00
7.095285e-06    -6.405296e-06    0.000000e+00
9.058741e-06    -7.059736e-06    0.000000e+00
-1.072750e-05    -9.235207e-06    0.000000e+00
-8.436763e-06    -8.598082e-06    0.000000e+00
-6.236748e-06    -8.098773e-06    0.000000e+00
-4.111974e-06    -7.738408e-06    0.000000e+00
-2.041682e-06    -7.520290e-06    0.000000e+00
-3.770620e-19    -7.447250e-06    0.000000e+00
2.041682e-06    -7.520290e-06    0.000000e+00
4.111974e-06    -7.738408e-06    0.000000e+00
6.236748e-06    -8.098773e-06    0.000000e+00
8.436763e-06    -8.598082e-06    0.000000e+00
1.072750e-05    -9.235207e-06    0.000000e+00
-1.235349e-05    -1.173984e-05    0.000000e+00
-9.740052e-06    -1.112074e-05    0.000000e+00
-7.218697e-06    -1.063732e-05    0.000000e+00
-4.769854e-06    -1.028984e-05    0.000000e+00
-2.371795e-06    -1.008013e-05    0.000000e+00
-4.420453e-19    -1.000998e-05    0.000000e+00
2.371795e-06    -1.008013e-05    0.000000e+00
4.769854e-06    -1.028984e-05    0.000000e+00
7.218697e-06    -1.063732e-05    0.000000e+00
9.740052e-06    -1.112074e-05    0.000000e+00
1.235349e-05    -1.173984e-05    0.000000e+00
-1.393362e-05    -1.456571e-05    0.000000e+00
-1.100499e-05    -1.396506e-05    0.000000e+00
-8.169549e-06    -1.349701e-05    0.000000e+00
-5.405515e-06    -1.316156e-05    0.000000e+00
-2.690311e-06    -1.295961e-05    0.000000e+00
-5.055199e-19    -1.289215e-05    0.000000e+00
2.690311e-06    -1.295961e-05    0.000000e+00
5.405515e-06    -1.316156e-05    0.000000e+00
8.169549e-06    -1.349701e-05    0.000000e+00
1.100499e-05    -1.396506e-05    0.000000e+00
1.393362e-05    -1.456571e-05    0.000000e+00
-1.546632e-05    -1.770350e-05    0.000000e+00
-1.223134e-05    -1.712150e-05    0.000000e+00
-9.090253e-06    -1.666846e-05    0.000000e+00
-6.020174e-06    -1.634433e-05    0.000000e+00
-2.997996e-06    -1.614951e-05    0.000000e+00
-5.731237e-19    -1.608450e-05    0.000000e+00
2.997996e-06    -1.614951e-05    0.000000e+00
6.020174e-06    -1.634433e-05    0.000000e+00
9.090253e-06    -1.666846e-05    0.000000e+00
1.223134e-05    -1.712150e-05    0.000000e+00
1.546632e-05    -1.770350e-05    0.000000e+00
-1.695082e-05    -2.114345e-05    0.000000e+00
-1.341894e-05    -2.058018e-05    0.000000e+00
-9.981321e-06    -2.014194e-05    0.000000e+00
-6.614599e-06    -1.982869e-05    0.000000e+00
-3.295374e-06    -1.964058e-05    0.000000e+00
-6.380276e-19    -1.957784e-05    0.000000e+00
3.295374e-06    -1.964058e-05    0.000000e+00
6.614599e-06    -1.982869e-05    0.000000e+00
9.981321e-06    -2.014194e-05    0.000000e+00
1.341894e-05    -2.058018e-05    0.000000e+00
1.695082e-05    -2.114345e-05    0.000000e+00
-1.838681e-05    -2.487570e-05    0.000000e+00
-1.456769e-05    -2.433119e-05    0.000000e+00
-1.084300e-05    -2.390765e-05    0.000000e+00
-7.189206e-06    -2.360503e-05    0.000000e+00
-3.582747e-06    -2.342339e-05    0.000000e+00
-6.911789e-19    -2.336283e-05    0.000000e+00
3.582747e-06    -2.342339e-05    0.000000e+00
7.189206e-06    -2.360503e-05    0.000000e+00
1.084300e-05    -2.390765e-05    0.000000e+00
1.456769e-05    -2.433119e-05    0.000000e+00
1.838681e-05    -2.487570e-05    0.000000e+00
-1.977417e-05    -2.889041e-05    0.000000e+00
-1.567753e-05    -2.836468e-05    0.000000e+00
-1.167541e-05    -2.795577e-05    0.000000e+00
-7.744198e-06    -2.766367e-05    0.000000e+00
-3.860270e-06    -2.748838e-05    0.000000e+00
-7.480360e-19    -2.742995e-05    0.000000e+00
3.860270e-06    -2.748838e-05    0.000000e+00
7.744198e-06    -2.766367e-05    0.000000e+00
1.167541e-05    -2.795577e-05    0.000000e+00
1.567753e-05    -2.836468e-05    0.000000e+00
1.977417e-05    -2.889041e-05    0.000000e+00
-2.111284e-05    -3.317779e-05    0.000000e+00
-1.674844e-05    -3.267083e-05    0.000000e+00
-1.247860e-05    -3.227654e-05    0.000000e+00
-8.279668e-06    -3.199490e-05    0.000000e+00
-4.128013e-06    -3.182590e-05    0.000000e+00
-8.123046e-19    -3.176957e-05    0.000000e+00
4.128013e-06    -3.182590e-05    0.000000e+00
8.279668e-06    -3.199490e-05    0.000000e+00
1.247860e-05    -3.227654e-05    0.000000e+00
1.674844e-05    -3.267083e-05    0.000000e+00
2.111284e-05    -3.317779e-05    0.000000e+00
-2.240283e-05    -3.772805e-05    0.000000e+00
-1.778042e-05    -3.723988e-05    0.000000e+00
-1.325257e-05    -3.686019e-05    0.000000e+00
-8.795652e-06    -3.658899e-05    0.000000e+00
-4.386006e-06    -3.642626e-05    0.000000e+00
-8.466094e-19    -3.637202e-05    0.000000e+00
4.386006e-06    -3.642626e-05    0.000000e+00
8.795652e-06    -3.658899e-05    0.000000e+00
1.325257e-05    -3.686019e-05    0.000000e+00
1.778042e-05    -3.723988e-05    0.000000e+00
2.240283e-05    -3.772805e-05    0.000000e+00
-2.364413e-05    -4.253146e-05    0.000000e+00
-1.877345e-05    -4.206206e-05    0.000000e+00
-1.399734e-05    -4.169698e-05    0.000000e+00
-9.292162e-06    -4.143620e-05    0.000000e+00
-4.634261e-06    -4.127974e-05    0.000000e+00
-8.800672e-19    -4.122759e-05    0.000000e+00
4.634261e-06    -4.127974e-05    0.000000e+00
9.292162e-06    -4.143620e-05    0.000000e+00
1.399734e-05    -4.169698e-05    0.000000e+00
1.877345e-05    -4.206206e-05    0.000000e+00
2.364413e-05    -4.253146e-05    0.000000e+00
-2.483675e-05    -4.757826e-05    0.000000e+00
-1.972754e-05    -4.712764e-05    0.000000e+00
-1.471291e-05    -4.677716e-05    0.000000e+00
-9.769203e-06    -4.652681e-05    0.000000e+00
-4.872781e-06    -4.637661e-05    0.000000e+00
-8.989137e-19    -4.632654e-05    0.000000e+00
4.872781e-06    -4.637661e-05    0.000000e+00
9.769203e-06    -4.652681e-05    0.000000e+00
1.471291e-05    -4.677716e-05    0.000000e+00
1.972754e-05    -4.712764e-05    0.000000e+00
2.483675e-05    -4.757826e-05    0.000000e+00
-2.598069e-05    -5.285872e-05    0.000000e+00
-2.064269e-05    -5.242687e-05    0.000000e+00
-1.539927e-05    -5.209099e-05    0.000000e+00
-1.022677e-05    -5.185108e-05    0.000000e+00
-5.101566e-06    -5.170713e-05    0.000000e+00
-8.976432e-19    -5.165915e-05    0.000000e+00
5.101566e-06    -5.170713e-05    0.000000e+00
1.022677e-05    -5.185108e-05    0.000000e+00
1.539927e-05    -5.209099e-05    0.000000e+00
2.064269e-05    -5.242687e-05    0.000000e+00
2.598069e-05    -5.285872e-05    0.000000e+00
-2.707595e-05    -5.836309e-05    0.000000e+00
-2.151890e-05    -5.795002e-05    0.000000e+00
-1.605642e-05    -5.762875e-05    0.000000e+00
-1.066488e-05    -5.739927e-05    0.000000e+00
-5.320617e-06    -5.726158e-05    0.000000e+00
-9.097134e-19    -5.721568e-05    0.000000e+00
5.320617e-06    -5.726158e-05    0.000000e+00
1.066488e-05    -5.739927e-05    0.000000e+00
1.605642e-05    -5.762875e-05    0.000000e+00
2.151890e-05    -5.795002e-05    0.000000e+00
2.707595e-05    -5.836309e-05    0.000000e+00
-2.812253e-05    -6.408165e-05    0.000000e+00
-2.235616e-05    -6.368736e-05    0.000000e+00
-1.668437e-05    -6.338069e-05    0.000000e+00
-1.108351e-05    -6.316164e-05    0.000000e+00
-5.529932e-06    -6.303020e-05    0.000000e+00
-9.471946e-19    -6.298639e-05    0.000000e+00
5.529932e-06    -6.303020e-05    0.000000e+00
1.108351e-05    -6.316164e-05    0.000000e+00
1.668437e-05    -6.338069e-05    0.000000e+00
2.235616e-05    -6.368736e-05    0.000000e+00
2.812253e-05    -6.408165e-05    0.000000e+00
-2.912043e-05    -7.000466e-05    0.000000e+00
-2.315448e-05    -6.962914e-05    0.000000e+00
-1.728311e-05    -6.933707e-05    0.000000e+00
-1.148267e-05    -6.912845e-05    0.000000e+00
-5.729512e-06    -6.900328e-05    0.000000e+00
-1.016863e-18    -6.896156e-05    0.000000e+00
5.729512e-06    -6.900328e-05    0.000000e+00
1.148267e-05    -6.912845e-05    0.000000e+00
1.728311e-05    -6.933707e-05    0.000000e+00
2.315448e-05    -6.962914e-05    0.000000e+00
2.912043e-05    -7.000466e-05    0.000000e+00
-3.006966e-05    -7.612238e-05    0.000000e+00
-2.391386e-05    -7.576564e-05    0.000000e+00
-1.785264e-05    -7.548817e-05    0.000000e+00
-1.186236e-05    -7.528998e-05    0.000000e+00
-5.919357e-06    -7.517107e-05    0.000000e+00
-1.130365e-18    -7.513143e-05    0.000000e+00
5.919357e-06    -7.517107e-05    0.000000e+00
1.186236e-05    -7.528998e-05    0.000000e+00
1.785264e-05    -7.548817e-05    0.000000e+00
2.391386e-05    -7.576564e-05    0.000000e+00
3.006966e-05    -7.612238e-05    0.000000e+00
-3.097020e-05    -8.242508e-05    0.000000e+00
-2.463430e-05    -8.208711e-05    0.000000e+00
-1.839297e-05    -8.182425e-05    0.000000e+00
-1.222257e-05    -8.163649e-05    0.000000e+00
-6.099466e-06    -8.152383e-05    0.000000e+00
-1.215069e-18    -8.148628e-05    0.000000e+00
6.099466e-06    -8.152383e-05    0.000000e+00
1.222257e-05    -8.163649e-05    0.000000e+00
1.839297e-05    -8.182425e-05    0.000000e+00
2.463430e-05    -8.208711e-05    0.000000e+00
3.097020e-05    -8.242508e-05    0.000000e+00
-3.182207e-05    -8.890301e-05    0.000000e+00
-2.531579e-05    -8.858382e-05    0.000000e+00
-1.890409e-05    -8.833557e-05    0.000000e+00
-1.256332e-05    -8.815824e-05    0.000000e+00
-6.269839e-06    -8.805184e-05    0.000000e+00
-1.268855e-18    -8.801637e-05    0.000000e+00
6.269839e-06    -8.805184e-05    0.000000e+00
1.256332e-05    -8.815824e-05    0.000000e+00
1.890409e-05    -8.833557e-05    0.000000e+00
2.531579e-05    -8.858382e-05    0.000000e+00
3.182207e-05    -8.890301e-05    0.000000e+00
-3.262526e-05    -9.554646e-05    0.000000e+00
-2.595834e-05    -9.524604e-05    0.000000e+00
-1.938601e-05    -9.501239e-05    0.000000e+00
-1.288460e-05    -9.484549e-05    0.000000e+00
-6.430478e-06    -9.474535e-05    0.000000e+00
-1.342971e-18    -9.471197e-05    0.000000e+00
6.430478e-06    -9.474535e-05    0.000000e+00
1.288460e-05    -9.484549e-05    0.000000e+00
1.938601e-05    -9.501239e-05    0.000000e+00
2.595834e-05    -9.524604e-05    0.000000e+00
3.262526e-05    -9.554646e-05    0.000000e+00
-3.337976e-05    -1.023457e-04    0.000000e+00
-2.656195e-05    -1.020640e-04    0.000000e+00
-1.983871e-05    -1.018450e-04    0.000000e+00
-1.318640e-05    -1.016885e-04    0.000000e+00
-6.581381e-06    -1.015946e-04    0.000000e+00
-1.367111e-18    -1.015633e-04    0.000000e+00
6.581381e-06    -1.015946e-04    0.000000e+00
1.318640e-05    -1.016885e-04    0.000000e+00
1.983871e-05    -1.018450e-04    0.000000e+00
2.656195e-05    -1.020640e-04    0.000000e+00
3.337976e-05    -1.023457e-04    0.000000e+00
-3.408559e-05    -1.092909e-04    0.000000e+00
-2.712662e-05    -1.090281e-04    0.000000e+00
-2.026221e-05    -1.088236e-04    0.000000e+00
-1.346874e-05    -1.086776e-04    0.000000e+00
-6.722550e-06    -1.085899e-04    0.000000e+00
-1.379393e-18    -1.085607e-04    0.000000e+00
6.722550e-06    -1.085899e-04    0.000000e+00
1.346874e-05    -1.086776e-04    0.000000e+00
2.026221e-05    -1.088236e-04    0.000000e+00
2.712662e-05    -1.090281e-04    0.000000e+00
3.408559e-05    -1.092909e-04    0.000000e+00
-3.474274e-05    -1.163725e-04    0.000000e+00
-2.765234e-05    -1.161284e-04    0.000000e+00
-2.065651e-05    -1.159385e-04    0.000000e+00
-1.373161e-05    -1.158029e-04    0.000000e+00
-6.853983e-06    -1.157216e-04    0.000000e+00
-1.388711e-18    -1.156944e-04    0.000000e+00
6.853983e-06    -1.157216e-04    0.000000e+00
1.373161e-05    -1.158029e-04    0.000000e+00
2.065651e-05    -1.159385e-04    0.000000e+00
2.765234e-05    -1.161284e-04    0.000000e+00
3.474274e-05    -1.163725e-04    0.000000e+00
-3.535121e-05    -1.235806e-04    0.000000e+00
-2.813912e-05    -1.233553e-04    0.000000e+00
-2.102160e-05    -1.231800e-04    0.000000e+00
-1.397500e-05    -1.230548e-04    0.000000e+00
-6.975681e-06    -1.229797e-04    0.000000e+00
-1.357794e-18    -1.229547e-04    0.000000e+00
6.975681e-06    -1.229797e-04    0.000000e+00
1.397500e-05    -1.230548e-04    0.000000e+00
2.102160e-05    -1.231800e-04    0.000000e+00
2.813912e-05    -1.233553e-04    0.000000e+00
3.535121e-05    -1.235806e-04    0.000000e+00
-3.591098e-05    -1.309055e-04    0.000000e+00
-2.858696e-05    -1.306989e-04    0.000000e+00
-2.135749e-05    -1.305383e-04    0.000000e+00
-1.419892e-05    -1.304236e-04    0.000000e+00
-7.087635e-06    -1.303548e-04    0.000000e+00
-1.343394e-18    -1.303318e-04    0.000000e+00
7.087635e-06    -1.303548e-04    0.000000e+00
1.419892e-05    -1.304236e-04    0.000000e+00
2.135749e-05    -1.305383e-04    0.000000e+00
2.858696e-05    -1.306989e-04    0.000000e+00
3.591098e-05    -1.309055e-04    0.000000e+00
-3.642208e-05    -1.383374e-04    0.000000e+00
-2.899587e-05    -1.381497e-04    0.000000e+00
-2.166415e-05    -1.380037e-04    0.000000e+00
-1.440334e-05    -1.378994e-04    0.000000e+00
-7.189831e-06    -1.378369e-04    0.000000e+00
-1.396334e-18    -1.378161e-04    0.000000e+00
7.189831e-06    -1.378369e-04    0.000000e+00
1.440334e-05    -1.378994e-04    0.000000e+00
2.166415e-05    -1.380037e-04    0.000000e+00
2.899587e-05    -1.381497e-04    0.000000e+00
3.642208e-05    -1.383374e-04    0.000000e+00
-3.688452e-05    -1.458667e-04    0.000000e+00
-2.936585e-05    -1.456977e-04    0.000000e+00
-2.194158e-05    -1.455663e-04    0.000000e+00
-1.458821e-05    -1.454726e-04    0.000000e+00
-7.282226e-06    -1.454165e-04    0.000000e+00
-1.469179e-18    -1.453978e-04    0.000000e+00
7.282226e-06    -1.454165e-04    0.000000e+00
1.458821e-05    -1.454726e-04    0.000000e+00
2.194158e-05    -1.455663e-04    0.000000e+00
2.936585e-05    -1.456977e-04    0.000000e+00
3.688452e-05    -1.458667e-04    0.000000e+00
-3.729836e-05    -1.534834e-04    0.000000e+00
-2.969695e-05    -1.533332e-04    0.000000e+00
-2.218970e-05    -1.532165e-04    0.000000e+00
-1.475340e-05    -1.531335e-04    0.000000e+00
-7.364727e-06    -1.530839e-04    0.000000e+00
-1.575481e-18    -1.530674e-04    0.000000e+00
7.364727e-06    -1.530839e-04    0.000000e+00
1.475340e-05    -1.531335e-04    0.000000e+00
2.218970e-05    -1.532165e-04    0.000000e+00
2.969695e-05    -1.533332e-04    0.000000e+00
3.729836e-05    -1.534834e-04    0.000000e+00
-3.766378e-05    -1.611777e-04    0.000000e+00
-2.998921e-05    -1.610462e-04    0.000000e+00
-2.240837e-05    -1.609444e-04    0.000000e+00
-1.489867e-05    -1.608724e-04    0.000000e+00
-7.437148e-06    -1.608296e-04    0.000000e+00
-1.673737e-18    -1.608154e-04    0.000000e+00
7.437148e-06    -1.608296e-04    0.000000e+00
1.489867e-05    -1.608724e-04    0.000000e+00
2.240837e-05    -1.609444e-04    0.000000e+00
2.998921e-05    -1.610462e-04    0.000000e+00
3.766378e-05    -1.611777e-04    0.000000e+00
-3.798124e-05    -1.689399e-04    0.000000e+00
-3.024276e-05    -1.688270e-04    0.000000e+00
-2.259726e-05    -1.687403e-04    0.000000e+00
-1.502352e-05    -1.686797e-04    0.000000e+00
-7.499146e-06    -1.686442e-04    0.000000e+00
-1.701689e-18    -1.686325e-04    0.000000e+00
7.499146e-06    -1.686442e-04    0.000000e+00
1.502352e-05    -1.686797e-04    0.000000e+00
2.259726e-05    -1.687403e-04    0.000000e+00
3.024276e-05    -1.688270e-04    0.000000e+00
3.798124e-05    -1.689399e-04    0.000000e+00
-3.825169e-05    -1.767604e-04    0.000000e+00
-3.045776e-05    -1.766658e-04    0.000000e+00
-2.275577e-05    -1.765945e-04    0.000000e+00
-1.512714e-05    -1.765461e-04    0.000000e+00
-7.550188e-06    -1.765183e-04    0.000000e+00
-1.785545e-18    -1.765093e-04    0.000000e+00
7.550188e-06    -1.765183e-04    0.000000e+00
1.512714e-05    -1.765461e-04    0.000000e+00
2.275577e-05    -1.765945e-04    0.000000e+00
3.045776e-05    -1.766658e-04    0.000000e+00
3.825169e-05    -1.767604e-04    0.000000e+00
-3.847710e-05    -1.846303e-04    0.000000e+00
-3.063436e-05    -1.845535e-04    0.000000e+00
-2.288288e-05    -1.844981e-04    0.000000e+00
-1.520840e-05    -1.844623e-04    0.000000e+00
-7.589645e-06    -1.844425e-04    0.000000e+00
-1.866014e-18    -1.844361e-04    0.000000e+00
7.589645e-06    -1.844425e-04    0.000000e+00
1.520840e-05    -1.844623e-04    0.000000e+00
2.288288e-05    -1.844981e-04    0.000000e+00
3.063436e-05    -1.845535e-04    0.000000e+00
3.847710e-05    -1.846303e-04    0.000000e+00
-3.866100e-05    -1.925431e-04    0.000000e+00
-3.077244e-05    -1.924833e-04    0.000000e+00
-2.297724e-05    -1.924436e-04    0.000000e+00
-1.526648e-05    -1.924193e-04    0.000000e+00
-7.617327e-06    -1.924058e-04    0.000000e+00
-1.760981e-18    -1.924014e-04    0.000000e+00
7.617327e-06    -1.924058e-04    0.000000e+00
1.526648e-05    -1.924193e-04    0.000000e+00
2.297724e-05    -1.924436e-04    0.000000e+00
3.077244e-05    -1.924833e-04    0.000000e+00
3.866100e-05    -1.925431e-04    0.000000e+00
-3.880895e-05    -2.004988e-04    0.000000e+00
-3.087097e-05    -2.004539e-04    0.000000e+00
-2.303843e-05    -2.004267e-04    0.000000e+00
-1.530300e-05    -2.004070e-04    0.000000e+00
-7.634726e-06    -2.003936e-04    0.000000e+00
-1.605127e-18    -2.003887e-04    0.000000e+00
7.634726e-06    -2.003936e-04    0.000000e+00
1.530300e-05    -2.004070e-04    0.000000e+00
2.303843e-05    -2.004267e-04    0.000000e+00
3.087097e-05    -2.004539e-04    0.000000e+00
3.880895e-05    -2.004988e-04    0.000000e+00
-3.892454e-05    -2.085116e-04    0.000000e+00
-3.092811e-05    -2.084792e-04    0.000000e+00
-2.307349e-05    -2.084460e-04    0.000000e+00
-1.532620e-05    -2.084091e-04    0.000000e+00
-7.646534e-06    -2.083815e-04    0.000000e+00
-1.585646e-18    -2.083714e-04    0.000000e+00
7.646534e-06    -2.083815e-04    0.000000e+00
1.532620e-05    -2.084091e-04    0.000000e+00
2.307349e-05    -2.084460e-04    0.000000e+00
3.092811e-05    -2.084792e-04    0.000000e+00
3.892454e-05    -2.085116e-04    0.000000e+00
-3.898571e-05    -2.166536e-04    0.000000e+00
-3.096431e-05    -2.165914e-04    0.000000e+00
-2.310904e-05    -2.164864e-04    0.000000e+00
-1.535331e-05    -2.163917e-04    0.000000e+00
-7.661193e-06    -2.163286e-04    0.000000e+00
-1.586916e-18    -2.163066e-04    0.000000e+00
7.661193e-06    -2.163286e-04    0.000000e+00
1.535331e-05    -2.163917e-04    0.000000e+00
2.310904e-05    -2.164864e-04    0.000000e+00
3.096431e-05    -2.165914e-04    0.000000e+00
3.898571e-05    -2.166536e-04    0.000000e+00

CELL_DATA      400
TENSORS Element_Stress1.800000e-01 double
3.269388e+06 4.582045e+05        0
4.582045e+05 7.481902e+05        0
       0        0        0

2.232537e+06 2.348706e+05        0
2.348706e+05 6.403511e+05        0
       0        0        0

1.552452e+06 7.718310e+04        0
7.718310e+04 4.935364e+05        0
       0        0        0

9.149505e+05 -6.416642e+03        0
-6.416642e+03 3.032075e+05        0
       0        0        0

3.028372e+05 -4.462828e+04        0
-4.462828e+04 1.021240e+05        0
       0        0        0

-3.027223e+05 -4.460859e+04        0
-4.460859e+04 -1.021500e+05        0
       0        0        0

-9.134205e+05 -6.419049e+03        0
-6.419049e+03 -3.026781e+05        0
       0        0        0

-1.547915e+06 7.695215e+04        0
7.695215e+04 -4.918360e+05        0
       0        0        0

-2.222933e+06 2.339423e+05        0
2.339423e+05 -6.366725e+05        0
       0        0        0

-3.249373e+06 4.555980e+05        0
4.555980e+05 -7.412698e+05        0
       0        0        0

2.948067e+06 7.466008e+04        0
7.466008e+04 8.378054e+03        0
       0        0        0

2.373223e+06 2.165270e+05        0
2.165270e+05 2.309537e+05        0
       0        0        0

1.629188e+06 1.776534e+05        0
1.776534e+05 2.354879e+05        0
       0        0        0

9.615679e+05 1.359934e+05        0
1.359934e+05 1.642173e+05        0
       0        0        0

3.163535e+05 1.133823e+05        0
1.133823e+05 5.674910e+04        0
       0        0        0

-3.196911e+05 1.133233e+05        0
1.133233e+05 -6.025905e+04        0
       0        0        0

-9.632848e+05 1.357829e+05        0
1.357829e+05 -1.671497e+05        0
       0        0        0

-1.627432e+06 1.772027e+05        0
1.772027e+05 -2.371564e+05        0
       0        0        0

-2.365107e+06 2.157631e+05        0
2.157631e+05 -2.301435e+05        0
       0        0        0

-2.933261e+06 7.438139e+04        0
7.438139e+04 -4.846039e+03        0
       0        0        0

2.843757e+06 2.766950e+04        0
2.766950e+04 1.093859e+04        0
       0        0        0

2.280404e+06 1.226222e+05        0
1.226222e+05 3.003058e+04        0
       0        0        0

1.639064e+06 1.822296e+05        0
1.822296e+05 7.401759e+04        0
       0        0        0

9.719315e+05 1.928000e+05        0
1.928000e+05 6.214279e+04        0
       0        0        0

3.188957e+05 1.926332e+05        0
1.926332e+05 2.039839e+04        0
       0        0        0

-3.296152e+05 1.925435e+05        0
1.925435e+05 -3.130570e+04        0
       0        0        0

-9.809402e+05 1.925326e+05        0
1.925326e+05 -7.243918e+04        0
       0        0        0

-1.644436e+06 1.818144e+05        0
1.818144e+05 -8.294552e+04        0
       0        0        0

-2.280318e+06 1.222528e+05        0
1.222528e+05 -3.675742e+04        0
       0        0        0

-2.837404e+06 2.756687e+04        0
2.756687e+04 -1.510817e+04        0
       0        0        0

2.771716e+06 2.561744e+04        0
2.561744e+04 -1.035852e+04        0
       0        0        0

2.197344e+06 9.956043e+04        0
9.956043e+04 -7.411507e+03        0
       0        0        0

1.586260e+06 1.658702e+05        0
1.658702e+05 8.959220e+02        0
       0        0        0

9.517036e+05 2.055787e+05        0
2.055787e+05 5.888006e+03        0
       0        0        0

3.097566e+05 2.212418e+05        0
2.212418e+05 -3.553546e+03        0
       0        0        0

-3.312067e+05 2.211469e+05        0
2.211469e+05 -1.808350e+04        0
       0        0        0

-9.714621e+05 2.053159e+05        0
2.053159e+05 -2.690248e+04        0
       0        0        0

-1.602601e+06 1.655241e+05        0
1.655241e+05 -2.059477e+04        0
       0        0        0

-2.208619e+06 9.927677e+04        0
9.927677e+04 -1.021975e+04        0
       0        0        0

-2.776229e+06 2.552733e+04        0
2.552733e+04 -4.197902e+03        0
       0        0        0

2.702721e+06 3.074430e+04        0
3.074430e+04 -1.628377e+04        0
       0        0        0

2.120060e+06 9.777267e+04        0
9.777267e+04 -2.233817e+04        0
       0        0        0

1.525080e+06 1.597739e+05        0
1.597739e+05 -2.232675e+04        0
       0        0        0

9.138918e+05 2.038487e+05        0
2.038487e+05 -1.975459e+04        0
       0        0        0

2.937218e+05 2.257005e+05        0
2.257005e+05 -1.789713e+04        0
       0        0        0

-3.287272e+05 2.256094e+05        0
2.256094e+05 -1.728571e+04        0
       0        0        0

-9.473055e+05 2.036035e+05        0
2.036035e+05 -1.483556e+04        0
       0        0        0

-1.555305e+06 1.594569e+05        0
1.594569e+05 -1.103023e+04        0
       0        0        0

-2.145481e+06 9.750498e+04        0
9.750498e+04 -9.041233e+03        0
       0        0        0

-2.721519e+06 3.063826e+04        0
3.063826e+04 -1.212047e+04        0
       0        0        0

2.627591e+06 3.515668e+04        0
3.515668e+04 -2.420982e+04        0
       0        0        0

2.047720e+06 1.012844e+05        0
1.012844e+05 -2.950881e+04        0
       0        0        0

1.464519e+06 1.585709e+05        0
1.585709e+05 -3.236683e+04        0
       0        0        0

8.728847e+05 2.004938e+05        0
2.004938e+05 -3.118952e+04        0
       0        0        0

2.745778e+05 2.223207e+05        0
2.223207e+05 -2.774754e+04        0
       0        0        0

-3.255960e+05 2.222350e+05        0
2.222350e+05 -2.343587e+04        0
       0        0        0

-9.224422e+05 2.002626e+05        0
2.002626e+05 -1.946267e+04        0
       0        0        0

-1.511148e+06 1.582679e+05        0
1.582679e+05 -1.718453e+04        0
       0        0        0

-2.089903e+06 1.010153e+05        0
1.010153e+05 -1.828233e+04        0
       0        0        0

-2.663636e+06 3.503836e+04        0
3.503836e+04 -2.097875e+04        0
       0        0        0

2.546789e+06 3.794584e+04        0
3.794584e+04 -3.318842e+04        0
       0        0        0

1.976720e+06 1.046987e+05        0
1.046987e+05 -3.693637e+04        0
       0        0        0

1.406561e+06 1.590263e+05        0
1.590263e+05 -3.949709e+04        0
       0        0        0

8.325291e+05 1.979272e+05        0
1.979272e+05 -3.924035e+04        0
       0        0        0

2.547901e+05 2.182159e+05        0
2.182159e+05 -3.654296e+04        0
       0        0        0

-3.240207e+05 2.181347e+05        0
2.181347e+05 -3.284122e+04        0
       0        0        0

-9.004528e+05 1.977067e+05        0
1.977067e+05 -2.970344e+04        0
       0        0        0

-1.471860e+06 1.587318e+05        0
1.587318e+05 -2.853733e+04        0
       0        0        0

-2.038031e+06 1.044284e+05        0
1.044284e+05 -2.965529e+04        0
       0        0        0

-2.602636e+06 3.782147e+04        0
3.782147e+04 -3.131904e+04        0
       0        0        0

2.461930e+06 3.948376e+04        0
3.948376e+04 -4.352201e+04        0
       0        0        0

1.905722e+06 1.069652e+05        0
1.069652e+05 -4.579309e+04        0
       0        0        0

1.350274e+06 1.596852e+05        0
1.596852e+05 -4.754707e+04        0
       0        0        0

7.933787e+05 1.963876e+05        0
1.963876e+05 -4.759616e+04        0
       0        0        0

2.347759e+05 2.152771e+05        0
2.152771e+05 -4.597866e+04        0
       0        0        0

-3.242063e+05 2.151996e+05        0
2.151996e+05 -4.359489e+04        0
       0        0        0

-8.816708e+05 1.961756e+05        0
1.961756e+05 -4.164908e+04        0
       0        0        0

-1.436278e+06 1.593984e+05        0
1.593984e+05 -4.102139e+04        0
       0        0        0

-1.988255e+06 1.066970e+05        0
1.066970e+05 -4.170808e+04        0
       0        0        0

-2.539741e+06 3.935801e+04        0
3.935801e+04 -4.245970e+04        0
       0        0        0

2.374471e+06 4.025296e+04        0
4.025296e+04 -5.495351e+04        0
       0        0        0

1.834173e+06 1.082387e+05        0
1.082387e+05 -5.618717e+04        0
       0        0        0

1.294694e+06 1.601667e+05        0
1.601667e+05 -5.719404e+04        0
       0        0        0

7.548846e+05 1.955702e+05        0
1.955702e+05 -5.729611e+04        0
       0        0        0

2.144868e+05 2.135527e+05        0
2.135527e+05 -5.643388e+04        0
       0        0        0

-3.259000e+05 2.134781e+05        0
2.134781e+05 -5.511311e+04        0
       0        0        0

-8.653352e+05 1.953657e+05        0
1.953657e+05 -5.404640e+04        0
       0        0        0

-1.403210e+06 1.598879e+05        0
1.598879e+05 -5.372548e+04        0
       0        0        0

-1.939756e+06 1.079756e+05        0
1.079756e+05 -5.406316e+04        0
       0        0        0

-2.476083e+06 4.012860e+04        0
4.012860e+04 -5.434430e+04        0
       0        0        0

2.285371e+06 4.060478e+04        0
4.060478e+04 -6.729161e+04        0
       0        0        0

1.761940e+06 1.088788e+05        0
1.088788e+05 -6.782884e+04        0
       0        0        0

1.239167e+06 1.604482e+05        0
1.604482e+05 -6.828814e+04        0
       0        0        0

7.165069e+05 1.951745e+05        0
1.951745e+05 -6.832403e+04        0
       0        0        0

1.937840e+05 2.126557e+05        0
2.126557e+05 -6.788243e+04        0
       0        0        0

-3.287568e+05 2.125839e+05        0
2.125839e+05 -6.721534e+04        0
       0        0        0

-8.506940e+05 1.949768e+05        0
1.949768e+05 -6.669756e+04        0
       0        0        0

-1.371774e+06 1.601776e+05        0
1.601776e+05 -6.657071e+04        0
       0        0        0

-1.892154e+06 1.086224e+05        0
1.086224e+05 -6.676092e+04        0
       0        0        0

-2.412351e+06 4.048326e+04        0
4.048326e+04 -6.689657e+04        0
       0        0        0

2.195212e+06 4.075033e+04        0
4.075033e+04 -8.036373e+04        0
       0        0        0

1.689050e+06 1.091704e+05        0
1.091704e+05 -8.042434e+04        0
       0        0        0

1.183363e+06 1.605917e+05        0
1.605917e+05 -8.049537e+04        0
       0        0        0

6.779126e+05 1.949979e+05        0
1.949979e+05 -8.042078e+04        0
       0        0        0

1.725970e+05 2.122314e+05        0
2.122314e+05 -8.016720e+04        0
       0        0        0

-3.324982e+05 2.121620e+05        0
2.121620e+05 -7.985078e+04        0
       0        0        0

-8.372026e+05 1.948068e+05        0
1.948068e+05 -7.964912e+04        0
       0        0        0

-1.341423e+06 1.603297e+05        0
1.603297e+05 -7.966997e+04        0
       0        0        0

-1.845244e+06 1.089216e+05        0
1.089216e+05 -7.986382e+04        0
       0        0        0

-2.348883e+06 4.063235e+04        0
4.063235e+04 -8.005266e+04        0
       0        0        0

2.104333e+06 4.080259e+04        0
4.080259e+04 -9.402890e+04        0
       0        0        0

1.615586e+06 1.092890e+05        0
1.092890e+05 -9.373681e+04        0
       0        0        0

1.127160e+06 1.606563e+05        0
1.606563e+05 -9.352153e+04        0
       0        0        0

6.389578e+05 1.949250e+05        0
1.949250e+05 -9.332263e+04        0
       0        0        0

1.509248e+05 2.120478e+05        0
2.120478e+05 -9.312462e+04        0
       0        0        0

-3.369174e+05 2.119809e+05        0
2.119809e+05 -9.297700e+04        0
       0        0        0

-8.245091e+05 1.947404e+05        0
1.947404e+05 -9.295637e+04        0
       0        0        0

-1.311821e+06 1.604030e+05        0
1.604030e+05 -9.310470e+04        0
       0        0        0

-1.798893e+06 1.090483e+05        0
1.090483e+05 -9.339181e+04        0
       0        0        0

-2.285802e+06 4.068845e+04        0
4.068845e+04 -9.373639e+04        0
       0        0        0

2.012942e+06 4.081659e+04        0
4.081659e+04 -1.081667e+05        0
       0        0        0

1.541648e+06 1.093294e+05        0
1.093294e+05 -1.075878e+05        0
       0        0        0

1.070553e+06 1.606805e+05        0
1.606805e+05 -1.071444e+05        0
       0        0        0

5.996183e+05 1.948970e+05        0
1.948970e+05 -1.068201e+05        0
       0        0        0

1.288140e+05 2.119758e+05        0
2.119758e+05 -1.066108e+05        0
       0        0        0

-3.418597e+05 2.119112e+05        0
2.119112e+05 -1.065363e+05        0
       0        0        0

-8.123869e+05 1.947189e+05        0
1.947189e+05 -1.066260e+05        0
       0        0        0

-1.282761e+06 1.604361e+05        0
1.604361e+05 -1.068926e+05        0
       0        0        0

-1.752996e+06 1.090971e+05        0
1.090971e+05 -1.073175e+05        0
       0        0        0

-2.223110e+06 4.070641e+04        0
4.070641e+04 -1.078636e+05        0
       0        0        0

1.921180e+06 4.081684e+04        0
4.081684e+04 -1.226700e+05        0
       0        0        0

1.467340e+06 1.093377e+05        0
1.093377e+05 -1.218390e+05        0
       0        0        0

1.013597e+06 1.606861e+05        0
1.606861e+05 -1.211994e+05        0
       0        0        0

5.599344e+05 1.948863e+05        0
1.948863e+05 -1.207534e+05        0
       0        0        0

1.063370e+05 2.119507e+05        0
2.119507e+05 -1.205029e+05        0
       0        0        0

-3.472017e+05 2.118884e+05        0
2.118884e+05 -1.204559e+05        0
       0        0        0

-8.006804e+05 1.947147e+05        0
1.947147e+05 -1.206217e+05        0
       0        0        0

-1.254098e+06 1.604505e+05        0
1.604505e+05 -1.210012e+05        0
       0        0        0

-1.707457e+06 1.091138e+05        0
1.091138e+05 -1.215821e+05        0
       0        0        0

-2.160752e+06 4.071066e+04        0
4.071066e+04 -1.223453e+05        0
       0        0        0

1.829159e+06 4.081320e+04        0
4.081320e+04 -1.374407e+05        0
       0        0        0

1.392758e+06 1.093346e+05        0
1.093346e+05 -1.363770e+05        0
       0        0        0

9.563667e+05 1.606838e+05        0
1.606838e+05 -1.355592e+05        0
       0        0        0

5.199767e+05 1.948812e+05        0
1.948812e+05 -1.349964e+05        0
       0        0        0

8.357741e+04 2.119430e+05        0
2.119430e+05 -1.346934e+05        0
       0        0        0

-3.528377e+05 2.118831e+05        0
2.118831e+05 -1.346541e+05        0
       0        0        0

-7.892710e+05 1.947161e+05        0
1.947161e+05 -1.348804e+05        0
       0        0        0

-1.225722e+06 1.604571e+05        0
1.604571e+05 -1.353689e+05        0
       0        0        0

-1.662186e+06 1.091191e+05        0
1.091191e+05 -1.361102e+05        0
       0        0        0

-2.098652e+06 4.071104e+04        0
4.071104e+04 -1.370918e+05        0
       0        0        0

1.736975e+06 4.080910e+04        0
4.080910e+04 -1.523860e+05        0
       0        0        0

1.317996e+06 1.093282e+05        0
1.093282e+05 -1.511024e+05        0
       0        0        0

8.989495e+05 1.606786e+05        0
1.606786e+05 -1.501178e+05        0
       0        0        0

4.798276e+05 1.948774e+05        0
1.948774e+05 -1.494433e+05        0
       0        0        0

6.062201e+04 2.119406e+05        0
2.119406e+05 -1.490851e+05        0
       0        0        0

-3.586728e+05 2.118831e+05        0
2.118831e+05 -1.490461e+05        0
       0        0        0

-7.780589e+05 1.947187e+05        0
1.947187e+05 -1.493256e+05        0
       0        0        0

-1.197535e+06 1.604608e+05        0
1.604608e+05 -1.499193e+05        0
       0        0        0

-1.617094e+06 1.091212e+05        0
1.091212e+05 -1.508190e+05        0
       0        0        0

-2.036722e+06 4.071095e+04        0
4.071095e+04 -1.520140e+05        0
       0        0        0

1.644714e+06 4.080544e+04        0
4.080544e+04 -1.674181e+05        0
       0        0        0

1.243143e+06 1.093215e+05        0
1.093215e+05 -1.659246e+05        0
       0        0        0

8.414316e+05 1.606725e+05        0
1.606725e+05 -1.647816e+05        0
       0        0        0

4.395720e+05 1.948734e+05        0
1.948734e+05 -1.640004e+05        0
       0        0        0

3.755706e+04 2.119392e+05        0
2.119392e+05 -1.635880e+05        0
       0        0        0

-3.646178e+05 2.118840e+05        0
2.118840e+05 -1.635468e+05        0
       0        0        0

-7.669539e+05 1.947212e+05        0
1.947212e+05 -1.638761e+05        0
       0        0        0

-1.169448e+06 1.604636e+05        0
1.604636e+05 -1.645713e+05        0
       0        0        0

-1.572094e+06 1.091230e+05        0
1.091230e+05 -1.656245e+05        0
       0        0        0

-1.974878e+06 4.071130e+04        0
4.071130e+04 -1.670255e+05        0
       0        0        0

1.552462e+06 4.080229e+04        0
4.080229e+04 -1.824527e+05        0
       0        0        0

1.168283e+06 1.093151e+05        0
1.093151e+05 -1.807584e+05        0
       0        0        0

7.838970e+05 1.606662e+05        0
1.606662e+05 -1.794643e+05        0
       0        0        0

3.992936e+05 1.948691e+05        0
1.948691e+05 -1.785814e+05        0
       0        0        0

1.446632e+04 2.119373e+05        0
2.119373e+05 -1.781168e+05        0
       0        0        0

-3.705887e+05 2.118845e+05        0
2.118845e+05 -1.780734e+05        0
       0        0        0

-7.558718e+05 1.947233e+05        0
1.947233e+05 -1.784502e+05        0
       0        0        0

-1.141380e+06 1.604662e+05        0
1.604662e+05 -1.792429e+05        0
       0        0        0

-1.527104e+06 1.091251e+05        0
1.091251e+05 -1.804440e+05        0
       0        0        0

-1.913034e+06 4.071215e+04        0
4.071215e+04 -1.820427e+05        0
       0        0        0

1.460298e+06 4.079949e+04        0
4.079949e+04 -1.974094e+05        0
       0        0        0

1.093499e+06 1.093092e+05        0
1.093092e+05 -1.955232e+05        0
       0        0        0

7.264270e+05 1.606600e+05        0
1.606600e+05 -1.940848e+05        0
       0        0        0

3.590732e+05 1.948644e+05        0
1.948644e+05 -1.931051e+05        0
       0        0        0

-8.569659e+03 2.119350e+05        0
2.119350e+05 -1.925909e+05        0
       0        0        0

-3.765048e+05 2.118845e+05        0
2.118845e+05 -1.925455e+05        0
       0        0        0

-7.447323e+05 1.947251e+05        0
1.947251e+05 -1.929681e+05        0
       0        0        0

-1.113248e+06 1.604689e+05        0
1.604689e+05 -1.938545e+05        0
       0        0        0

-1.482045e+06 1.091276e+05        0
1.091276e+05 -1.951972e+05        0
       0        0        0

-1.851110e+06 4.071336e+04        0
4.071336e+04 -1.969852e+05        0
       0        0        0

1.368298e+06 4.079690e+04        0
4.079690e+04 -2.122111e+05        0
       0        0        0

1.018866e+06 1.093036e+05        0
1.093036e+05 -2.101420e+05        0
       0        0        0

6.690989e+05 1.606539e+05        0
1.606539e+05 -2.085661e+05        0
       0        0        0

3.189880e+05 1.948595e+05        0
1.948595e+05 -2.074942e+05        0
       0        0        0

-3.147376e+04 2.119323e+05        0
2.119323e+05 -2.069332e+05        0
       0        0        0

-3.822895e+05 2.118841e+05        0
2.118841e+05 -2.068864e+05        0
       0        0        0

-7.334588e+05 1.947267e+05        0
1.947267e+05 -2.073530e+05        0
       0        0        0

-1.084978e+06 1.604717e+05        0
1.604717e+05 -2.083292e+05        0
       0        0        0

-1.436838e+06 1.091305e+05        0
1.091305e+05 -2.098073e+05        0
       0        0        0

-1.789028e+06 4.071478e+04        0
4.071478e+04 -2.117761e+05        0
       0        0        0

1.276537e+06 4.079444e+04        0
4.079444e+04 -2.267843e+05        0
       0        0        0

9.444579e+05 1.092983e+05        0
1.092983e+05 -2.245413e+05        0
       0        0        0

6.119863e+05 1.606479e+05        0
1.606479e+05 -2.228348e+05        0
       0        0        0

2.791117e+05 1.948545e+05        0
1.948545e+05 -2.216755e+05        0
       0        0        0

-5.417243e+04 2.119293e+05        0
2.119293e+05 -2.210703e+05        0
       0        0        0

-3.878693e+05 2.118835e+05        0
2.118835e+05 -2.210224e+05        0
       0        0        0

-7.219781e+05 1.947282e+05        0
1.947282e+05 -2.215315e+05        0
       0        0        0

-1.056495e+06 1.604746e+05        0
1.604746e+05 -2.225934e+05        0
       0        0        0

-1.391411e+06 1.091335e+05        0
1.091335e+05 -2.242007e+05        0
       0        0        0

-1.726716e+06 4.071633e+04        0
4.071633e+04 -2.263420e+05        0
       0        0        0

1.185083e+06 4.079206e+04        0
4.079206e+04 -2.410592e+05        0
       0        0        0

8.703457e+05 1.092930e+05        0
1.092930e+05 -2.386513e+05        0
       0        0        0

5.551595e+05 1.606420e+05        0
1.606420e+05 -2.368210e+05        0
       0        0        0

2.395147e+05 1.948495e+05        0
1.948495e+05 -2.355790e+05        0
       0        0        0

-7.659562e+04 2.119262e+05        0
2.119262e+05 -2.349321e+05        0
       0        0        0

-3.931743e+05 2.118827e+05        0
2.118827e+05 -2.348836e+05        0
       0        0        0

-7.102205e+05 1.947297e+05        0
1.947297e+05 -2.354333e+05        0
       0        0        0

-1.027730e+06 1.604776e+05        0
1.604776e+05 -2.365771e+05        0
       0        0        0

-1.345695e+06 1.091368e+05        0
1.091368e+05 -2.383075e+05        0
       0        0        0

-1.664103e+06 4.071796e+04        0
4.071796e+04 -2.406130e+05        0
       0        0        0

1.094004e+06 4.078979e+04        0
4.078979e+04 -2.549692e+05        0
       0        0        0

7.965953e+05 1.092880e+05        0
1.092880e+05 -2.524055e+05        0
       0        0        0

4.986851e+05 1.606362e+05        0
1.606362e+05 -2.504584e+05        0
       0        0        0

2.002633e+05 1.948444e+05        0
1.948444e+05 -2.491384e+05        0
       0        0        0

-9.867681e+04 2.119229e+05        0
2.119229e+05 -2.484523e+05        0
       0        0        0

-3.981381e+05 2.118818e+05        0
2.118818e+05 -2.484036e+05        0
       0        0        0

-6.981195e+05 1.947311e+05        0
1.947311e+05 -2.489920e+05        0
       0        0        0

-9.986166e+05 1.604806e+05        0
1.604806e+05 -2.502138e+05        0
       0        0        0

-1.299621e+06 1.091402e+05        0
1.091402e+05 -2.520611e+05        0
       0        0        0

-1.601123e+06 4.071969e+04        0
4.071969e+04 -2.545227e+05        0
       0        0        0

1.003362e+06 4.078765e+04        0
4.078765e+04 -2.684513e+05        0
       0        0        0

7.232697e+05 1.092832e+05        0
1.092832e+05 -2.657410e+05        0
       0        0        0

4.426262e+05 1.606305e+05        0
1.606305e+05 -2.636841e+05        0
       0        0        0

1.614208e+05 1.948393e+05        0
1.948393e+05 -2.622908e+05        0
       0        0        0

-1.203530e+05 2.119194e+05        0
2.119194e+05 -2.615680e+05        0
       0        0        0

-4.026979e+05 2.118806e+05        0
2.118806e+05 -2.615193e+05        0
       0        0        0

-6.856125e+05 1.947324e+05        0
1.947324e+05 -2.621446e+05        0
       0        0        0

-9.690921e+05 1.604839e+05        0
1.604839e+05 -2.634403e+05        0
       0        0        0

-1.253129e+06 1.091438e+05        0
1.091438e+05 -2.653986e+05        0
       0        0        0

-1.537712e+06 4.072156e+04        0
4.072156e+04 -2.680080e+05        0
       0        0        0

9.132165e+05 4.078577e+04        0
4.078577e+04 -2.814463e+05        0
       0        0        0

6.504285e+05 1.092788e+05        0
1.092788e+05 -2.785985e+05        0
       0        0        0

3.870424e+05 1.606249e+05        0
1.606249e+05 -2.764387e+05        0
       0        0        0

1.230469e+05 1.948340e+05        0
1.948340e+05 -2.749768e+05        0
       0        0        0

-1.415646e+05 2.119156e+05        0
2.119156e+05 -2.742197e+05        0
       0        0        0

-4.067942e+05 2.118791e+05        0
2.118791e+05 -2.741713e+05        0
       0        0        0

-6.726401e+05 1.947336e+05        0
1.947336e+05 -2.748316e+05        0
       0        0        0

-9.390972e+05 1.604872e+05        0
1.604872e+05 -2.761971e+05        0
       0        0        0

-1.206157e+06 1.091478e+05        0
1.091478e+05 -2.782603e+05        0
       0        0        0

-1.473811e+06 4.072369e+04        0
4.072369e+04 -2.810094e+05        0
       0        0        0

8.236226e+05 4.078426e+04        0
4.078426e+04 -2.938981e+05        0
       0        0        0

5.781278e+05 1.092747e+05        0
1.092747e+05 -2.909220e+05        0
       0        0        0

3.319901e+05 1.606194e+05        0
1.606194e+05 -2.886659e+05        0
       0        0        0

8.519757e+04 1.948284e+05        0
1.948284e+05 -2.871400e+05        0
       0        0        0

-1.622557e+05 2.119114e+05        0
2.119114e+05 -2.863514e+05        0
       0        0        0

-4.103713e+05 2.118774e+05        0
2.118774e+05 -2.863038e+05        0
       0        0        0

-6.591467e+05 1.947345e+05        0
1.947345e+05 -2.869974e+05        0
       0        0        0

-9.085762e+05 1.604905e+05        0
1.604905e+05 -2.884287e+05        0
       0        0        0

-1.158651e+06 1.091522e+05        0
1.091522e+05 -2.905904e+05        0
       0        0        0

-1.409362e+06 4.072618e+04        0
4.072618e+04 -2.934709e+05        0
       0        0        0

7.346325e+05 4.078316e+04        0
4.078316e+04 -3.057541e+05        0
       0        0        0

5.064204e+05 1.092707e+05        0
1.092707e+05 -3.026583e+05        0
       0        0        0

2.775218e+05 1.606135e+05        0
1.606135e+05 -3.003123e+05        0
       0        0        0

4.792525e+04 1.948227e+05        0
1.948227e+05 -2.987269e+05        0
       0        0        0

-1.823740e+05 2.119076e+05        0
2.119076e+05 -2.979100e+05        0
       0        0        0

-4.133766e+05 2.118759e+05        0
2.118759e+05 -2.978650e+05        0
       0        0        0

-6.450797e+05 1.947353e+05        0
1.947353e+05 -2.985908e+05        0
       0        0        0

-8.774768e+05 1.604935e+05        0
1.604935e+05 -3.000835e+05        0
       0        0        0

-1.110558e+06 1.091567e+05        0
1.091567e+05 -3.023368e+05        0
       0        0        0

-1.344314e+06 4.072909e+04        0
4.072909e+04 -3.053400e+05        0
       0        0        0

6.462953e+05 4.078211e+04        0
4.078211e+04 -3.169649e+05        0
       0        0        0

4.353562e+05 1.092653e+05        0
1.092653e+05 -3.137568e+05        0
       0        0        0

2.236862e+05 1.606061e+05        0
1.606061e+05 -3.113255e+05        0
       0        0        0

1.127753e+04 1.948175e+05        0
1.948175e+05 -3.096851e+05        0
       0        0        0

-2.018713e+05 2.119063e+05        0
2.119063e+05 -3.088454e+05        0
       0        0        0

-4.157606e+05 2.118769e+05        0
2.118769e+05 -3.088074e+05        0
       0        0        0

-6.303890e+05 1.947366e+05        0
1.947366e+05 -3.095663e+05        0
       0        0        0

-8.457498e+05 1.604950e+05        0
1.604950e+05 -3.111160e+05        0
       0        0        0

-1.061830e+06 1.091598e+05        0
1.091598e+05 -3.134521e+05        0
       0        0        0

-1.278617e+06 4.073204e+04        0
4.073204e+04 -3.165677e+05        0
       0        0        0

5.586591e+05 4.077934e+04        0
4.077934e+04 -3.274838e+05        0
       0        0        0

3.649819e+05 1.092541e+05        0
1.092541e+05 -3.241673e+05        0
       0        0        0

1.705259e+05 1.605944e+05        0
1.605944e+05 -3.216516e+05        0
       0        0        0

-2.470501e+04 1.948152e+05        0
1.948152e+05 -3.199609e+05        0
       0        0        0

-2.207045e+05 2.119144e+05        0
2.119144e+05 -3.191085e+05        0
       0        0        0

-4.174756e+05 2.118874e+05        0
2.118874e+05 -3.190893e+05        0
       0        0        0

-6.150246e+05 1.947407e+05        0
1.947407e+05 -3.198871e+05        0
       0        0        0

-8.133470e+05 1.604922e+05        0
1.604922e+05 -3.214894e+05        0
       0        0        0

-1.012423e+06 1.091569e+05        0
1.091569e+05 -3.238955e+05        0
       0        0        0

-1.212227e+06 4.073328e+04        0
4.073328e+04 -3.271091e+05        0
       0        0        0

4.717746e+05 4.076946e+04        0
4.076946e+04 -3.372658e+05        0
       0        0        0

2.953419e+05 1.092251e+05        0
1.092251e+05 -3.338367e+05        0
       0        0        0

1.180730e+05 1.605719e+05        0
1.605719e+05 -3.312295e+05        0
       0        0        0

-5.999424e+04 1.948224e+05        0
1.948224e+05 -3.294936e+05        0
       0        0        0

-2.388382e+05 2.119489e+05        0
2.119489e+05 -3.286499e+05        0
       0        0        0

-4.184738e+05 2.119243e+05        0
2.119243e+05 -3.286768e+05        0
       0        0        0

-5.989312e+05 1.947544e+05        0
1.947544e+05 -3.295306e+05        0
       0        0        0

-7.802174e+05 1.604786e+05        0
1.604786e+05 -3.311814e+05        0
       0        0        0

-9.622960e+05 1.091365e+05        0
1.091365e+05 -3.336359e+05        0
       0        0        0

-1.145110e+06 4.072741e+04        0
4.072741e+04 -3.369237e+05        0
       0        0        0

3.857054e+05 4.073839e+04        0
4.073839e+04 -3.462663e+05        0
       0        0        0

2.264765e+05 1.091511e+05        0
1.091511e+05 -3.427029e+05        0
       0        0        0

6.633931e+04 1.605253e+05        0
1.605253e+05 -3.399809e+05        0
       0        0        0

-9.458590e+04 1.948551e+05        0
1.948551e+05 -3.382070e+05        0
       0        0        0

-2.562491e+05 2.120486e+05        0
2.120486e+05 -3.374157e+05        0
       0        0        0

-4.187018e+05 2.120262e+05        0
2.120262e+05 -3.375473e+05        0
       0        0        0

-5.820375e+05 1.947936e+05        0
1.947936e+05 -3.384971e+05        0
       0        0        0

-7.462973e+05 1.604409e+05        0
1.604409e+05 -3.401952e+05        0
       0        0        0

-9.114143e+05 1.090709e+05        0
1.090709e+05 -3.426593e+05        0
       0        0        0

-1.077250e+06 4.070037e+04        0
4.070037e+04 -3.459774e+05        0
       0        0        0

3.005479e+05 4.065345e+04        0
4.065345e+04 -3.544388e+05        0
       0        0        0

1.584186e+05 1.089740e+05        0
1.089740e+05 -3.506856e+05        0
       0        0        0

1.529481e+04 1.604298e+05        0
1.604298e+05 -3.477963e+05        0
       0        0        0

-1.285213e+05 1.949490e+05        0
1.949490e+05 -3.459968e+05        0
       0        0        0

-2.729347e+05 2.122932e+05        0
2.122932e+05 -3.453424e+05        0
       0        0        0

-4.180916e+05 2.122732e+05        0
2.122732e+05 -3.456935e+05        0
       0        0        0

-5.642339e+05 1.948939e+05        0
1.948939e+05 -3.468229e+05        0
       0        0        0

-7.114913e+05 1.603543e+05        0
1.603543e+05 -3.485747e+05        0
       0        0        0

-8.597449e+05 1.089024e+05        0
1.089024e+05 -3.509804e+05        0
       0        0        0

-1.008672e+06 4.061950e+04        0
4.061950e+04 -3.542455e+05        0
       0        0        0

2.164691e+05 4.044532e+04        0
4.044532e+04 -3.617329e+05        0
       0        0        0

9.118228e+04 1.085823e+05        0
1.085823e+05 -3.576750e+05        0
       0        0        0

-3.517158e+04 1.602451e+05        0
1.602451e+05 -3.545209e+05        0
       0        0        0

-1.619239e+05 1.951762e+05        0
1.951762e+05 -3.527215e+05        0
       0        0        0

-2.889267e+05 2.128320e+05        0
2.128320e+05 -3.523535e+05        0
       0        0        0

-4.165446e+05 2.128143e+05        0
2.128143e+05 -3.531253e+05        0
       0        0        0

-5.453358e+05 1.951275e+05        0
1.951275e+05 -3.545882e+05        0
       0        0        0

-6.756350e+05 1.601785e+05        0
1.601785e+05 -3.564212e+05        0
       0        0        0

-8.072508e+05 1.085192e+05        0
1.085192e+05 -3.586582e+05        0
       0        0        0

-9.394850e+05 4.041549e+04        0
4.041549e+04 -3.617195e+05        0
       0        0        0

1.337702e+05 3.997946e+04        0
3.997946e+04 -3.680967e+05        0
       0        0        0

2.473176e+04 1.077851e+05        0
1.077851e+05 -3.635297e+05        0
       0        0        0

-8.531803e+04 1.599214e+05        0
1.599214e+05 -3.599651e+05        0
       0        0        0

-1.950489e+05 1.956684e+05        0
1.956684e+05 -3.582213e+05        0
       0        0        0

-3.043055e+05 2.139082e+05        0
2.139082e+05 -3.583671e+05        0
       0        0        0

-4.139111e+05 2.138928e+05        0
2.138928e+05 -3.598549e+05        0
       0        0        0

-5.250321e+05 1.956261e+05        0
1.956261e+05 -3.618967e+05        0
       0        0        0

-6.384335e+05 1.598638e+05        0
1.598638e+05 -3.638875e+05        0
       0        0        0

-7.538725e+05 1.077308e+05        0
1.077308e+05 -3.658098e+05        0
       0        0        0

-8.699553e+05 3.995385e+04        0
3.995385e+04 -3.684176e+05        0
       0        0        0

5.297189e+04 3.902088e+04        0
3.902088e+04 -3.734899e+05        0
       0        0        0

-4.109207e+04 1.063151e+05        0
1.063151e+05 -3.681221e+05        0
       0        0        0

-1.356359e+05 1.594415e+05        0
1.594415e+05 -3.640060e+05        0
       0        0        0

-2.283176e+05 1.966346e+05        0
1.966346e+05 -3.624375e+05        0
       0        0        0

-3.191994e+05 2.158323e+05        0
2.158323e+05 -3.633436e+05        0
       0        0        0

-4.099770e+05 2.158193e+05        0
2.158193e+05 -3.658365e+05        0
       0        0        0

-5.028429e+05 1.965989e+05        0
1.965989e+05 -3.687486e+05        0
       0        0        0

-5.993819e+05 1.593930e+05        0
1.593930e+05 -3.710829e+05        0
       0        0        0

-6.994762e+05 1.062697e+05        0
1.062697e+05 -3.725883e+05        0
       0        0        0

-8.006272e+05 3.899962e+04        0
3.899962e+04 -3.744035e+05        0
       0        0        0

-2.512826e+04 3.722124e+04        0
3.722124e+04 -3.779559e+05        0
       0        0        0

-1.067300e+05 1.039582e+05        0
1.039582e+05 -3.715254e+05        0
       0        0        0

-1.869025e+05 1.589622e+05        0
1.589622e+05 -3.669774e+05        0
       0        0        0

-2.622305e+05 1.983185e+05        0
1.983185e+05 -3.657944e+05        0
       0        0        0

-3.337204e+05 2.187660e+05        0
2.187660e+05 -3.674402e+05        0
       0        0        0

-4.045012e+05 2.187555e+05        0
2.187555e+05 -3.707837e+05        0
       0        0        0

-4.781882e+05 1.982896e+05        0
1.982896e+05 -3.746401e+05        0
       0        0        0

-5.577151e+05 1.589230e+05        0
1.589230e+05 -3.776857e+05        0
       0        0        0

-6.437359e+05 1.039217e+05        0
1.039217e+05 -3.790352e+05        0
       0        0        0

-7.324536e+05 3.720443e+04        0
3.720443e+04 -3.797895e+05        0
       0        0        0

-9.961516e+04 3.425401e+04        0
3.425401e+04 -3.817658e+05        0
       0        0        0

-1.732217e+05 1.010982e+05        0
1.010982e+05 -3.747575e+05        0
       0        0        0

-2.399486e+05 1.591235e+05        0
1.591235e+05 -3.707462e+05        0
       0        0        0

-2.969062e+05 2.007218e+05        0
2.007218e+05 -3.701644e+05        0
       0        0        0

-3.477170e+05 2.220097e+05        0
2.220097e+05 -3.713498e+05        0
       0        0        0

-3.974134e+05 2.220022e+05        0
2.220022e+05 -3.737817e+05        0
       0        0        0

-4.508046e+05 2.007008e+05        0
2.007008e+05 -3.775544e+05        0
       0        0        0

-5.126238e+05 1.590943e+05        0
1.590943e+05 -3.818508e+05        0
       0        0        0

-5.858728e+05 1.010707e+05        0
1.010707e+05 -3.843931e+05        0
       0        0        0

-6.667991e+05 3.424163e+04        0
3.424163e+04 -3.847537e+05        0
       0        0        0

-1.705709e+05 3.066740e+04        0
3.066740e+04 -3.866286e+05        0
       0        0        0

-2.423753e+05 1.002748e+05        0
1.002748e+05 -3.818127e+05        0
       0        0        0

-2.945235e+05 1.613998e+05        0
1.613998e+05 -3.817001e+05        0
       0        0        0

-3.307515e+05 2.024352e+05        0
2.024352e+05 -3.804958e+05        0
       0        0        0

-3.602943e+05 2.224092e+05        0
2.224092e+05 -3.766855e+05        0
       0        0        0

-3.892217e+05 2.224056e+05        0
2.224056e+05 -3.728309e+05        0
       0        0        0

-4.219904e+05 2.024243e+05        0
2.024243e+05 -3.722489e+05        0
       0        0        0

-4.643086e+05 1.613825e+05        0
1.613825e+05 -3.771416e+05        0
       0        0        0

-5.245116e+05 1.002564e+05        0
1.002564e+05 -3.851006e+05        0
       0        0        0

-6.046511e+05 3.065900e+04        0
3.065900e+04 -3.886556e+05        0
       0        0        0

-2.427241e+05 3.191859e+04        0
3.191859e+04 -3.965128e+05        0
       0        0        0

-3.157137e+05 1.099759e+05        0
1.099759e+05 -4.095863e+05        0
       0        0        0

-3.449140e+05 1.657016e+05        0
1.657016e+05 -4.155871e+05        0
       0        0        0

-3.587096e+05 1.975050e+05        0
1.975050e+05 -4.054981e+05        0
       0        0        0

-3.695475e+05 2.120600e+05        0
2.120600e+05 -3.859994e+05        0
       0        0        0

-3.811956e+05 2.120613e+05        0
2.120613e+05 -3.647437e+05        0
       0        0        0

-3.962194e+05 1.975074e+05        0
1.975074e+05 -3.494303e+05        0
       0        0        0

-4.181313e+05 1.657010e+05        0
1.657010e+05 -3.474584e+05        0
       0        0        0

-4.585158e+05 1.099688e+05        0
1.099688e+05 -3.646494e+05        0
       0        0        0

-5.433371e+05 3.191280e+04        0
3.191280e+04 -3.895791e+05        0
       0        0        0

-3.392529e+05 7.270016e+04        0
7.270016e+04 -4.573606e+05        0
       0        0        0

-3.767537e+05 1.361487e+05        0
1.361487e+05 -5.058682e+05        0
       0        0        0

-3.753213e+05 1.599392e+05        0
1.599392e+05 -4.948442e+05        0
       0        0        0

-3.734901e+05 1.716119e+05        0
1.716119e+05 -4.549855e+05        0
       0        0        0

-3.729607e+05 1.767243e+05        0
1.767243e+05 -4.017254e+05        0
       0        0        0

-3.749200e+05 1.767304e+05        0
1.767304e+05 -3.461543e+05        0
       0        0        0

-3.797524e+05 1.716285e+05        0
1.716285e+05 -2.982485e+05        0
       0        0        0

-3.887857e+05 1.599610e+05        0
1.599610e+05 -2.692450e+05        0
       0        0        0

-4.038003e+05 1.361668e+05        0
1.361668e+05 -2.746666e+05        0
       0        0        0

-4.616065e+05 7.269945e+04        0
7.269945e+04 -3.434993e+05        0
       0        0        0

POINT_DATA     451
VECTORS DISPLACEMENT_2.000000e-01 double
0.000000e+00    0.000000e+00    0.000000e+00
0.000000e+00    0.000000e+00    0.000000e+00
0.000000e+00    0.000000e+00    0.000000e+00
0.000000e+00    0.000000e+00    0.000000e+00
0.000000e+00    0.000000e+00    0.000000e+00
0.000000e+00    0.000000e+00    0.000000e+00
0.000000e+00    0.000000e+00    0.000000e+00
0.000000e+00    0.000000e+00    0.000000e+00
0.000000e+00    0.000000e+00    0.000000e+00
0.000000e+00    0.000000e+00    0.000000e+00
0.000000e+00    0.000000e+00    0.000000e+00
-2.275580e-06    -1.654388e-06    0.000000e+00
-1.441867e-06    -8.298436e-07    0.000000e+00
-1.028788e-06    -4.300141e-07    0.000000e+00
-6.642251e-07    -2.129515e-07    0.000000e+00
-3.274773e-07    -1.006120e-07    0.000000e+00
-7.600526e-20    -6.568324e-08    0.000000e+00
3.274773e-07    -1.006120e-07    0.000000e+00
6.642251e-07    -2.129515e-07    0.000000e+00
1.028788e-06    -4.300141e-07    0.000000e+00
1.441867e-06    -8.298436e-07    0.000000e+00
2.275580e-06    -1.654388e-06    0.000000e+00
-4.293522e-06    -2.751417e-06    0.000000e+00
-3.138375e-06    -1.990875e-06    0.000000e+00
-2.202818e-06    -1.398430e-06    0.000000e+00
-1.420906e-06    -1.031961e-06    0.000000e+00
-6.978707e-07    -8.322761e-07    0.000000e+00
-1.605127e-19    -7.688492e-07    0.000000e+00
6.978707e-07    -8.322761e-07    0.000000e+00
1.420906e-06    -1.031961e-06    0.000000e+00
2.202818e-06    -1.398430e-06    0.000000e+00
3.138375e-06    -1.990875e-06    0.000000e+00
4.293522e-06    -2.751417e-06    0.000000e+00
-6.243972e-06    -4.115505e-06    0.000000e+00
-4.772375e-06    -3.353300e-06    0.000000e+00
-3.433920e-06    -2.752317e-06    0.000000e+00
-2.223045e-06    -2.328406e-06    0.000000e+00
-1.093840e-06    -2.084072e-06    0.000000e+00
-2.527599e-19    -2.004482e-06    0.000000e+00
1.093840e-06    -2.084072e-06    0.000000e+00
2.223045e-06    -2.328406e-06    0.000000e+00
3.433920e-06    -2.752317e-06    0.000000e+00
4.772375e-06    -3.353300e-06    0.000000e+00
6.243972e-06    -4.115505e-06    0.000000e+00
-8.172819e-06    -5.798951e-06    0.000000e+00
-6.352507e-06    -5.054142e-06    0.000000e+00
-4.638404e-06    -4.463180e-06    0.000000e+00
-3.028688e-06    -4.036710e-06    0.000000e+00
-1.495111e-06    -3.780724e-06    0.000000e+00
-3.478129e-19    -3.695841e-06    0.000000e+00
1.495111e-06    -3.780724e-06    0.000000e+00
3.028688e-06    -4.036710e-06    0.000000e+00
4.638404e-06    -4.463180e-06    0.000000e+00
6.352507e-06    -5.054142e-06    0.000000e+00
8.172819e-06    -5.798951e-06    0.000000e+00
-1.006901e-05    -7.847065e-06    0.000000e+00
-7.886578e-06    -7.119640e-06    0.000000e+00
-5.804560e-06    -6.546522e-06    0.000000e+00
-3.812979e-06    -6.131274e-06    0.000000e+00
-1.888783e-06    -5.879891e-06    0.000000e+00
-4.454864e-19    -5.795745e-06    0.000000e+00
1.888783e-06    -5.879891e-06    0.000000e+00
3.812979e-06    -6.131274e-06    0.000000e+00
5.804560e-06    -6.546522e-06    0.000000e+00
7.886578e-06    -7.119640e-06    0.000000e+00
1.006901e-05    -7.847065e-06    0.000000e+00
-1.192387e-05    -1.026515e-05    0.000000e+00
-9.377663e-06    -9.556973e-06    0.000000e+00
-6.932295e-06    -9.001979e-06    0.000000e+00
-4.570558e-06    -8.601425e-06    0.000000e+00
-2.269379e-06    -8.358982e-06    0.000000e+00
-5.453304e-19    -8.277796e-06    0.000000e+00
2.269379e-06    -8.358982e-06    0.000000e+00
4.570558e-06    -8.601425e-06    0.000000e+00
6.932295e-06    -9.001979e-06    0.000000e+00
9.377663e-06    -9.556973e-06    0.000000e+00
1.192387e-05    -1.026515e-05    0.000000e+00
-1.373119e-05    -1.304911e-05    0.000000e+00
-1.082630e-05    -1.236097e-05    0.000000e+00
-8.023754e-06    -1.182364e-05    0.000000e+00
-5.301807e-06    -1.143741e-05    0.000000e+00
-2.636307e-06    -1.120430e-05    0.000000e+00
-6.399863e-19    -1.112633e-05    0.000000e+00
2.636307e-06    -1.120430e-05    0.000000e+00
5.301807e-06    -1.143741e-05    0.000000e+00
8.023754e-06    -1.182364e-05    0.000000e+00
1.082630e-05    -1.236097e-05    0.000000e+00
1.373119e-05    -1.304911e-05    0.000000e+00
-1.548756e-05    -1.619013e-05    0.000000e+00
-1.223231e-05    -1.552250e-05    0.000000e+00
-9.080649e-06    -1.500225e-05    0.000000e+00
-6.008359e-06    -1.462939e-05    0.000000e+00
-2.990345e-06    -1.440491e-05    0.000000e+00
-7.333717e-19    -1.432993e-05    0.000000e+00
2.990345e-06    -1.440491e-05    0.000000e+00
6.008359e-06    -1.462939e-05    0.000000e+00
9.080649e-06    -1.500225e-05    0.000000e+00
1.223231e-05    -1.552250e-05    0.000000e+00
1.548756e-05    -1.619013e-05    0.000000e+00
-1.719118e-05    -1.967787e-05    0.000000e+00
-1.359543e-05    -1.903095e-05    0.000000e+00
-1.010403e-05    -1.852739e-05    0.000000e+00
-6.691568e-06    -1.816711e-05    0.000000e+00
-3.332344e-06    -1.795057e-05    0.000000e+00
-8.290335e-19    -1.787831e-05    0.000000e+00
3.332344e-06    -1.795057e-05    0.000000e+00
6.691568e-06    -1.816711e-05    0.000000e+00
1.010403e-05    -1.852739e-05    0.000000e+00
1.359543e-05    -1.903095e-05    0.000000e+00
1.719118e-05    -1.967787e-05    0.000000e+00
-1.884124e-05    -2.350145e-05    0.000000e+00
-1.491547e-05    -2.287536e-05    0.000000e+00
-1.109448e-05    -2.238825e-05    0.000000e+00
-7.352285e-06    -2.204006e-05    0.000000e+00
-3.662887e-06    -2.183097e-05    0.000000e+00
-9.281364e-19    -2.176124e-05    0.000000e+00
3.662887e-06    -2.183097e-05    0.000000e+00
7.352285e-06    -2.204006e-05    0.000000e+00
1.109448e-05    -2.238825e-05    0.000000e+00
1.491547e-05    -2.287536e-05    0.000000e+00
1.884124e-05    -2.350145e-05    0.000000e+00
-2.043738e-05    -2.764994e-05    0.000000e+00
-1.619233e-05    -2.704470e-05    0.000000e+00
-1.205226e-05    -2.657392e-05    0.000000e+00
-7.990974e-06    -2.623755e-05    0.000000e+00
-3.982309e-06    -2.603566e-05    0.000000e+00
-1.014428e-18    -2.596834e-05    0.000000e+00
3.982309e-06    -2.603566e-05    0.000000e+00
7.990974e-06    -2.623755e-05    0.000000e+00
1.205226e-05    -2.657392e-05    0.000000e+00
1.619233e-05    -2.704470e-05    0.000000e+00
2.043738e-05    -2.764994e-05    0.000000e+00
-2.197946e-05    -3.211238e-05    0.000000e+00
-1.742595e-05    -3.152802e-05    0.000000e+00
-1.297750e-05    -3.107351e-05    0.000000e+00
-8.607861e-06    -3.074883e-05    0.000000e+00
-4.290782e-06    -3.055399e-05    0.000000e+00
-1.102308e-18    -3.048904e-05    0.000000e+00
4.290782e-06    -3.055399e-05    0.000000e+00
8.607861e-06    -3.074883e-05    0.000000e+00
1.297750e-05    -3.107351e-05    0.000000e+00
1.742595e-05    -3.152802e-05    0.000000e+00
2.197946e-05    -3.211238e-05    0.000000e+00
-2.346743e-05    -3.687790e-05    0.000000e+00
-1.861629e-05    -3.631441e-05    0.000000e+00
-1.387026e-05    -3.587615e-05    0.000000e+00
-9.203049e-06    -3.556309e-05    0.000000e+00
-4.588385e-06    -3.537525e-05    0.000000e+00
-1.204481e-18    -3.531264e-05    0.000000e+00
4.588385e-06    -3.537525e-05    0.000000e+00
9.203049e-06    -3.556309e-05    0.000000e+00
1.387026e-05    -3.587615e-05    0.000000e+00
1.861629e-05    -3.631441e-05    0.000000e+00
2.346743e-05    -3.687790e-05    0.000000e+00
-2.490128e-05    -4.193563e-05    0.000000e+00
-1.976336e-05    -4.139301e-05    0.000000e+00
-1.473055e-05    -4.097098e-05    0.000000e+00
-9.776577e-06    -4.066953e-05    0.000000e+00
-4.875151e-06    -4.048866e-05    0.000000e+00
-1.273302e-18    -4.042837e-05    0.000000e+00
4.875151e-06    -4.048866e-05    0.000000e+00
9.776577e-06    -4.066953e-05    0.000000e+00
1.473055e-05    -4.097098e-05    0.000000e+00
1.976336e-05    -4.139301e-05    0.000000e+00
2.490128e-05    -4.193563e-05    0.000000e+00
-2.628102e-05    -4.727473e-05    0.000000e+00
-2.086714e-05    -4.675299e-05    0.000000e+00
-1.555838e-05    -4.634719e-05    0.000000e+00
-1.032846e-05    -4.605733e-05    0.000000e+00
-5.151092e-06    -4.588342e-05    0.000000e+00
-1.336618e-18    -4.582545e-05    0.000000e+00
5.151092e-06    -4.588342e-05    0.000000e+00
1.032846e-05    -4.605733e-05    0.000000e+00
1.555838e-05    -4.634719e-05    0.000000e+00
2.086714e-05    -4.675299e-05    0.000000e+00
2.628102e-05    -4.727473e-05    0.000000e+00
-2.760665e-05    -5.288437e-05    0.000000e+00
-2.192764e-05    -5.238350e-05    0.000000e+00
-1.635375e-05    -5.199393e-05    0.000000e+00
-1.085870e-05    -5.171567e-05    0.000000e+00
-5.416212e-06    -5.154871e-05    0.000000e+00
-1.382993e-18    -5.149306e-05    0.000000e+00
5.416212e-06    -5.154871e-05    0.000000e+00
1.085870e-05    -5.171567e-05    0.000000e+00
1.635375e-05    -5.199393e-05    0.000000e+00
2.192764e-05    -5.238350e-05    0.000000e+00
2.760665e-05    -5.288437e-05    0.000000e+00
-2.887816e-05    -5.875372e-05    0.000000e+00
-2.294485e-05    -5.827372e-05    0.000000e+00
-1.711666e-05    -5.790038e-05    0.000000e+00
-1.136730e-05    -5.763371e-05    0.000000e+00
-5.670513e-06    -5.747371e-05    0.000000e+00
-1.398875e-18    -5.742038e-05    0.000000e+00
5.670513e-06    -5.747371e-05    0.000000e+00
1.136730e-05    -5.763371e-05    0.000000e+00
1.711666e-05    -5.790038e-05    0.000000e+00
2.294485e-05    -5.827372e-05    0.000000e+00
2.887816e-05    -5.875372e-05    0.000000e+00
-3.009557e-05    -6.487197e-05    0.000000e+00
-2.391877e-05    -6.441283e-05    0.000000e+00
-1.784710e-05    -6.405573e-05    0.000000e+00
-1.185426e-05    -6.380066e-05    0.000000e+00
-5.913993e-06    -6.364761e-05    0.000000e+00
-1.441438e-18    -6.359660e-05    0.000000e+00
5.913993e-06    -6.364761e-05    0.000000e+00
1.185426e-05    -6.380066e-05    0.000000e+00
1.784710e-05    -6.405573e-05    0.000000e+00
2.391877e-05    -6.441283e-05    0.000000e+00
3.009557e-05    -6.487197e-05    0.000000e+00
-3.125887e-05    -7.122829e-05    0.000000e+00
-2.484941e-05    -7.079002e-05    0.000000e+00
-1.854508e-05    -7.044915e-05    0.000000e+00
-1.231958e-05    -7.020567e-05    0.000000e+00
-6.146652e-06    -7.005958e-05    0.000000e+00
-1.499460e-18    -7.001088e-05    0.000000e+00
6.146652e-06    -7.005958e-05    0.000000e+00
1.231958e-05    -7.020567e-05    0.000000e+00
1.854508e-05    -7.044915e-05    0.000000e+00
2.484941e-05    -7.079002e-05    0.000000e+00
3.125887e-05    -7.122829e-05    0.000000e+00
-3.236806e-05    -7.781185e-05    0.000000e+00
-2.573676e-05    -7.739445e-05    0.000000e+00
-1.921059e-05    -7.706981e-05    0.000000e+00
-1.276326e-05    -7.683793e-05    0.000000e+00
-6.368490e-06    -7.669880e-05    0.000000e+00
-1.594116e-18    -7.665242e-05    0.000000e+00
6.368490e-06    -7.669880e-05    0.000000e+00
1.276326e-05    -7.683793e-05    0.000000e+00
1.921059e-05    -7.706981e-05    0.000000e+00
2.573676e-05    -7.739445e-05    0.000000e+00
3.236806e-05    -7.781185e-05    0.000000e+00
-3.342314e-05    -8.461184e-05    0.000000e+00
-2.658083e-05    -8.421532e-05    0.000000e+00
-1.984364e-05    -8.390691e-05    0.000000e+00
-1.318529e-05    -8.368662e-05    0.000000e+00
-6.579506e-06    -8.355444e-05    0.000000e+00
-1.727524e-18    -8.351038e-05    0.000000e+00
6.579506e-06    -8.355444e-05    0.000000e+00
1.318529e-05    -8.368662e-05    0.000000e+00
1.984364e-05    -8.390691e-05    0.000000e+00
2.658083e-05    -8.421532e-05    0.000000e+00
3.342314e-05    -8.461184e-05    0.000000e+00
-3.442412e-05    -9.161744e-05    0.000000e+00
-2.738161e-05    -9.124178e-05    0.000000e+00
-2.044423e-05    -9.094961e-05    0.000000e+00
-1.358568e-05    -9.074091e-05    0.000000e+00
-6.779702e-06    -9.061569e-05    0.000000e+00
-1.832979e-18    -9.057395e-05    0.000000e+00
6.779702e-06    -9.061569e-05    0.000000e+00
1.358568e-05    -9.074091e-05    0.000000e+00
2.044423e-05    -9.094961e-05    0.000000e+00
2.738161e-05    -9.124178e-05    0.000000e+00
3.442412e-05    -9.161744e-05    0.000000e+00
-3.537099e-05    -9.881782e-05    0.000000e+00
-2.813911e-05    -9.846304e-05    0.000000e+00
-2.101235e-05    -9.818709e-05    0.000000e+00
-1.396443e-05    -9.798999e-05    0.000000e+00
-6.969076e-06    -9.787173e-05    0.000000e+00
-1.909212e-18    -9.783230e-05    0.000000e+00
6.969076e-06    -9.787173e-05    0.000000e+00
1.396443e-05    -9.798999e-05    0.000000e+00
2.101235e-05    -9.818709e-05    0.000000e+00
2.813911e-05    -9.846304e-05    0.000000e+00
3.537099e-05    -9.881782e-05    0.000000e+00
-3.626375e-05    -1.062022e-04    0.000000e+00
-2.885332e-05    -1.058683e-04    0.000000e+00
-2.154801e-05    -1.056085e-04    0.000000e+00
-1.432154e-05    -1.054230e-04    0.000000e+00
-7.147630e-06    -1.053117e-04    0.000000e+00
-2.002809e-18    -1.052746e-04    0.000000e+00
7.147630e-06    -1.053117e-04    0.000000e+00
1.432154e-05    -1.054230e-04    0.000000e+00
2.154801e-05    -1.056085e-04    0.000000e+00
2.885332e-05    -1.058683e-04    0.000000e+00
3.626375e-05    -1.062022e-04    0.000000e+00
-3.710241e-05    -1.137597e-04    0.000000e+00
-2.952424e-05    -1.134466e-04    0.000000e+00
-2.205120e-05    -1.132031e-04    0.000000e+00
-1.465700e-05    -1.130292e-04    0.000000e+00
-7.315363e-06    -1.129249e-04    0.000000e+00
-2.035844e-18    -1.128901e-04    0.000000e+00
7.315363e-06    -1.129249e-04    0.000000e+00
1.465700e-05    -1.130292e-04    0.000000e+00
2.205120e-05    -1.132031e-04    0.000000e+00
2.952424e-05    -1.134466e-04    0.000000e+00
3.710241e-05    -1.137597e-04    0.000000e+00
-3.788695e-05    -1.214795e-04    0.000000e+00
-3.015188e-05    -1.211873e-04    0.000000e+00
-2.252194e-05    -1.209600e-04    0.000000e+00
-1.497083e-05    -1.207977e-04    0.000000e+00
-7.472275e-06    -1.207003e-04    0.000000e+00
-2.058290e-18    -1.206679e-04    0.000000e+00
7.472275e-06    -1.207003e-04    0.000000e+00
1.497083e-05    -1.207977e-04    0.000000e+00
2.252194e-05    -1.209600e-04    0.000000e+00
3.015188e-05    -1.211873e-04    0.000000e+00
3.788695e-05    -1.214795e-04    0.000000e+00
-3.861739e-05    -1.293508e-04    0.000000e+00
-3.073624e-05    -1.290795e-04    0.000000e+00
-2.296021e-05    -1.288684e-04    0.000000e+00
-1.526301e-05    -1.287177e-04    0.000000e+00
-7.618367e-06    -1.286273e-04    0.000000e+00
-2.087089e-18    -1.285971e-04    0.000000e+00
7.618367e-06    -1.286273e-04    0.000000e+00
1.526301e-05    -1.287177e-04    0.000000e+00
2.296021e-05    -1.288684e-04    0.000000e+00
3.073624e-05    -1.290795e-04    0.000000e+00
3.861739e-05    -1.293508e-04    0.000000e+00
-3.929371e-05    -1.373627e-04    0.000000e+00
-3.127730e-05    -1.371123e-04    0.000000e+00
-2.336601e-05    -1.369175e-04    0.000000e+00
-1.553355e-05    -1.367784e-04    0.000000e+00
-7.753636e-06    -1.366949e-04    0.000000e+00
-2.063796e-18    -1.366671e-04    0.000000e+00
7.753636e-06    -1.366949e-04    0.000000e+00
1.553355e-05    -1.367784e-04    0.000000e+00
2.336601e-05    -1.369175e-04    0.000000e+00
3.127730e-05    -1.371123e-04    0.000000e+00
3.929371e-05    -1.373627e-04    0.000000e+00
-3.991592e-05    -1.455046e-04    0.000000e+00
-3.177509e-05    -1.452750e-04    0.000000e+00
-2.373936e-05    -1.450965e-04    0.000000e+00
-1.578244e-05    -1.449689e-04    0.000000e+00
-7.878076e-06    -1.448924e-04    0.000000e+00
-2.062525e-18    -1.448669e-04    0.000000e+00
7.878076e-06    -1.448924e-04    0.000000e+00
1.578244e-05    -1.449689e-04    0.000000e+00
2.373936e-05    -1.450965e-04    0.000000e+00
3.177509e-05    -1.452750e-04    0.000000e+00
3.991592e-05    -1.455046e-04    0.000000e+00
-4.048402e-05    -1.537654e-04    0.000000e+00
-3.222960e-05    -1.535567e-04    0.000000e+00
-2.408023e-05    -1.533944e-04    0.000000e+00
-1.600966e-05    -1.532785e-04    0.000000e+00
-7.991669e-06    -1.532090e-04    0.000000e+00
-2.142146e-18    -1.531859e-04    0.000000e+00
7.991669e-06    -1.532090e-04    0.000000e+00
1.600966e-05    -1.532785e-04    0.000000e+00
2.408023e-05    -1.533944e-04    0.000000e+00
3.222960e-05    -1.535567e-04    0.000000e+00
4.048402e-05    -1.537654e-04    0.000000e+00
-4.099802e-05    -1.621343e-04    0.000000e+00
-3.264085e-05    -1.619465e-04    0.000000e+00
-2.438859e-05    -1.618005e-04    0.000000e+00
-1.621514e-05    -1.616963e-04    0.000000e+00
-8.094368e-06    -1.616339e-04    0.000000e+00
-2.241249e-18    -1.616132e-04    0.000000e+00
8.094368e-06    -1.616339e-04    0.000000e+00
1.621514e-05    -1.616963e-04    0.000000e+00
2.438859e-05    -1.618005e-04    0.000000e+00
3.264085e-05    -1.619465e-04    0.000000e+00
4.099802e-05    -1.621343e-04    0.000000e+00
-4.145802e-05    -1.706004e-04    0.000000e+00
-3.300887e-05    -1.704335e-04    0.000000e+00
-2.466438e-05    -1.703038e-04    0.000000e+00
-1.639876e-05    -1.702116e-04    0.000000e+00
-8.186070e-06    -1.701564e-04    0.000000e+00
-2.402185e-18    -1.701381e-04    0.000000e+00
8.186070e-06    -1.701564e-04    0.000000e+00
1.639876e-05    -1.702116e-04    0.000000e+00
2.466438e-05    -1.703038e-04    0.000000e+00
3.300887e-05    -1.704335e-04    0.000000e+00
4.145802e-05    -1.706004e-04    0.000000e+00
-4.186420e-05    -1.791529e-04    0.000000e+00
-3.333373e-05    -1.790067e-04    0.000000e+00
-2.490743e-05    -1.788936e-04    0.000000e+00
-1.656023e-05    -1.788135e-04    0.000000e+00
-8.266568e-06    -1.787660e-04    0.000000e+00
-2.533476e-18    -1.787502e-04    0.000000e+00
8.266568e-06    -1.787660e-04    0.000000e+00
1.656023e-05    -1.788135e-04    0.000000e+00
2.490743e-05    -1.788936e-04    0.000000e+00
3.333373e-05    -1.790067e-04    0.000000e+00
4.186420e-05    -1.791529e-04    0.000000e+00
-4.221706e-05    -1.877808e-04    0.000000e+00
-3.361555e-05    -1.876552e-04    0.000000e+00
-2.511739e-05    -1.875589e-04    0.000000e+00
-1.669901e-05    -1.874916e-04    0.000000e+00
-8.335481e-06    -1.874521e-04    0.000000e+00
-2.610556e-18    -1.874391e-04    0.000000e+00
8.335481e-06    -1.874521e-04    0.000000e+00
1.669901e-05    -1.874916e-04    0.000000e+00
2.511739e-05    -1.875589e-04    0.000000e+00
3.361555e-05    -1.876552e-04    0.000000e+00
4.221706e-05    -1.877808e-04    0.000000e+00
-4.251767e-05    -1.964734e-04    0.000000e+00
-3.385453e-05    -1.963682e-04    0.000000e+00
-2.529359e-05    -1.962891e-04    0.000000e+00
-1.681418e-05    -1.962352e-04    0.000000e+00
-8.392214e-06    -1.962043e-04    0.000000e+00
-2.719823e-18    -1.961943e-04    0.000000e+00
8.392214e-06    -1.962043e-04    0.000000e+00
1.681418e-05    -1.962352e-04    0.000000e+00
2.529359e-05    -1.962891e-04    0.000000e+00
3.385453e-05    -1.963682e-04    0.000000e+00
4.251767e-05    -1.964734e-04    0.000000e+00
-4.276821e-05    -2.052210e-04    0.000000e+00
-3.405082e-05    -2.051356e-04    0.000000e+00
-2.543487e-05    -2.050741e-04    0.000000e+00
-1.690450e-05    -2.050343e-04    0.000000e+00
-8.436072e-06    -2.050122e-04    0.000000e+00
-2.824855e-18    -2.050052e-04    0.000000e+00
8.436072e-06    -2.050122e-04    0.000000e+00
1.690450e-05    -2.050343e-04    0.000000e+00
2.543487e-05    -2.050741e-04    0.000000e+00
3.405082e-05    -2.051356e-04    0.000000e+00
4.276821e-05    -2.052210e-04    0.000000e+00
-4.297263e-05    -2.140163e-04    0.000000e+00
-3.420430e-05    -2.139498e-04    0.000000e+00
-2.553975e-05    -2.139057e-04    0.000000e+00
-1.696906e-05    -2.138787e-04    0.000000e+00
-8.466842e-06    -2.138637e-04    0.000000e+00
-2.702035e-18    -2.138588e-04    0.000000e+00
8.466842e-06    -2.138637e-04    0.000000e+00
1.696906e-05    -2.138787e-04    0.000000e+00
2.553975e-05    -2.139057e-04    0.000000e+00
3.420430e-05    -2.139498e-04    0.000000e+00
4.297263e-05    -2.140163e-04    0.000000e+00
-4.313708e-05    -2.228592e-04    0.000000e+00
-3.431382e-05    -2.228093e-04    0.000000e+00
-2.560777e-05    -2.227791e-04    0.000000e+00
-1.700965e-05    -2.227572e-04    0.000000e+00
-8.486180e-06    -2.227423e-04    0.000000e+00
-2.530087e-18    -2.227369e-04    0.000000e+00
8.486180e-06    -2.227423e-04    0.000000e+00
1.700965e-05    -2.227572e-04    0.000000e+00
2.560777e-05    -2.227791e-04    0.000000e+00
3.431382e-05    -2.228093e-04    0.000000e+00
4.313708e-05    -2.228592e-04    0.000000e+00
-4.326556e-05    -2.317656e-04    0.000000e+00
-3.437734e-05    -2.317297e-04    0.000000e+00
-2.564674e-05    -2.316928e-04    0.000000e+00
-1.703544e-05    -2.316517e-04    0.000000e+00
-8.499305e-06    -2.316210e-04    0.000000e+00
-2.504676e-18    -2.316098e-04    0.000000e+00
8.499305e-06    -2.316210e-04    0.000000e+00
1.703544e-05    -2.316517e-04    0.000000e+00
2.564674e-05    -2.316928e-04    0.000000e+00
3.437734e-05    -2.317297e-04    0.000000e+00
4.326556e-05    -2.317656e-04    0.000000e+00
-4.333355e-05    -2.408157e-04    0.000000e+00
-3.441757e-05    -2.407465e-04    0.000000e+00
-2.568625e-05    -2.406298e-04    0.000000e+00
-1.706557e-05    -2.405246e-04    0.000000e+00
-8.515599e-06    -2.404544e-04    0.000000e+00
-2.491971e-18    -2.404299e-04    0.000000e+00
8.515599e-06    -2.404544e-04    0.000000e+00
1.706557e-05    -2.405246e-04    0.000000e+00
2.568625e-05    -2.406298e-04    0.000000e+00
3.441757e-05    -2.407465e-04    0.000000e+00
4.333355e-05    -2.408157e-04    0.000000e+00

CELL_DATA      400
TENSORS Element_Stress2.000000e-01 double
3.635251e+06 5.094679e+05        0
5.094679e+05 8.320629e+05        0
       0        0        0

2.482116e+06 2.611220e+05        0
2.611220e+05 7.119945e+05        0
       0        0        0

1.725870e+06 8.580520e+04        0
8.580520e+04 5.486832e+05        0
       0        0        0

1.017084e+06 -7.132117e+03        0
-7.132117e+03 3.370552e+05        0
       0        0        0

3.366179e+05 -4.960664e+04        0
-4.960664e+04 1.135117e+05        0
       0        0        0

-3.364760e+05 -4.958231e+04        0
-4.958231e+04 -1.135438e+05        0
       0        0        0

-1.015194e+06 -7.135091e+03        0
-7.135091e+03 -3.364012e+05        0
       0        0        0

-1.720264e+06 8.551987e+04        0
8.551987e+04 -5.465824e+05        0
       0        0        0

-2.470250e+06 2.599752e+05        0
2.599752e+05 -7.074496e+05        0
       0        0        0

-3.610523e+06 5.062475e+05        0
5.062475e+05 -8.235128e+05        0
       0        0        0

3.277770e+06 8.300382e+04        0
8.300382e+04 9.532237e+03        0
       0        0        0

2.638399e+06 2.407224e+05        0
2.407224e+05 2.567610e+05        0
       0        0        0

1.810990e+06 1.974940e+05        0
1.974940e+05 2.616467e+05        0
       0        0        0

1.068699e+06 1.511730e+05        0
1.511730e+05 1.823494e+05        0
       0        0        0

3.514274e+05 1.260308e+05        0
1.260308e+05 6.286031e+04        0
       0        0        0

-3.555510e+05 1.259579e+05        0
1.259579e+05 -6.719680e+04        0
       0        0        0

-1.070820e+06 1.509129e+05        0
1.509129e+05 -1.859723e+05        0
       0        0        0

-1.808820e+06 1.969371e+05        0
1.969371e+05 -2.637081e+05        0
       0        0        0

-2.628371e+06 2.397786e+05        0
2.397786e+05 -2.557600e+05        0
       0        0        0

-3.259476e+06 8.265950e+04        0
8.265950e+04 -5.168478e+03        0
       0        0        0

3.161298e+06 3.076168e+04        0
3.076168e+04 1.189908e+04        0
       0        0        0

2.534727e+06 1.363204e+05        0
1.363204e+05 3.296146e+04        0
       0        0        0

1.821524e+06 2.025783e+05        0
2.025783e+05 8.171762e+04        0
       0        0        0

1.079765e+06 2.143183e+05        0
2.143183e+05 6.843406e+04        0
       0        0        0

3.537952e+05 2.141218e+05        0
2.141218e+05 2.199692e+04        0
       0        0        0

-3.670390e+05 2.140109e+05        0
2.140109e+05 -3.547272e+04        0
       0        0        0

-1.090895e+06 2.139878e+05        0
2.139878e+05 -8.115509e+04        0
       0        0        0

-1.828161e+06 2.020652e+05        0
2.020652e+05 -9.274795e+04        0
       0        0        0

-2.534621e+06 1.358640e+05        0
1.358640e+05 -4.127237e+04        0
       0        0        0

-3.153449e+06 3.063488e+04        0
3.063488e+04 -1.705054e+04        0
       0        0        0

3.080545e+06 2.847997e+04        0
2.847997e+04 -1.241936e+04        0
       0        0        0

2.441696e+06 1.106813e+05        0
1.106813e+05 -9.334137e+03        0
       0        0        0

1.762148e+06 1.843899e+05        0
1.843899e+05 -2.277807e+02        0
       0        0        0

1.056613e+06 2.285215e+05        0
2.285215e+05 5.240422e+03        0
       0        0        0

3.429712e+05 2.459210e+05        0
2.459210e+05 -5.291520e+03        0
       0        0        0

-3.694725e+05 2.458037e+05        0
2.458037e+05 -2.144068e+04        0
       0        0        0

-1.081025e+06 2.281969e+05        0
2.281969e+05 -3.120346e+04        0
       0        0        0

-1.782337e+06 1.839623e+05        0
1.839623e+05 -2.410982e+04        0
       0        0        0

-2.455626e+06 1.103308e+05        0
1.103308e+05 -1.244901e+04        0
       0        0        0

-3.086120e+06 2.836865e+04        0
2.836865e+04 -5.564884e+03        0
       0        0        0

3.002963e+06 3.417956e+04        0
3.417956e+04 -1.986681e+04        0
       0        0        0

2.354912e+06 1.086930e+05        0
1.086930e+05 -2.677993e+04        0
       0        0        0

1.693281e+06 1.776117e+05        0
1.776117e+05 -2.688848e+04        0
       0        0        0

1.013736e+06 2.265974e+05        0
2.265974e+05 -2.410428e+04        0
       0        0        0

3.243073e+05 2.508765e+05        0
2.508765e+05 -2.207461e+04        0
       0        0        0

-3.675559e+05 2.507639e+05        0
2.507639e+05 -2.139315e+04        0
       0        0        0

-1.055018e+06 2.262944e+05        0
2.262944e+05 -1.863123e+04        0
       0        0        0

-1.730623e+06 1.772201e+05        0
1.772201e+05 -1.432349e+04        0
       0        0        0

-2.386319e+06 1.083623e+05        0
1.083623e+05 -1.198879e+04        0
       0        0        0

-3.026188e+06 3.404855e+04        0
3.404855e+04 -1.522617e+04        0
       0        0        0

2.918377e+06 3.908472e+04        0
3.908472e+04 -2.972067e+04        0
       0        0        0

2.273459e+06 1.125964e+05        0
1.125964e+05 -3.577012e+04        0
       0        0        0

1.624946e+06 1.762735e+05        0
1.762735e+05 -3.905381e+04        0
       0        0        0

9.671531e+05 2.228671e+05        0
2.228671e+05 -3.781105e+04        0
       0        0        0

3.020351e+05 2.471191e+05        0
2.471191e+05 -3.401560e+04        0
       0        0        0

-3.650672e+05 2.470132e+05        0
2.470132e+05 -2.922051e+04        0
       0        0        0

-1.028380e+06 2.225815e+05        0
2.225815e+05 -2.476875e+04        0
       0        0        0

-1.682555e+06 1.758991e+05        0
1.758991e+05 -2.216594e+04        0
       0        0        0

-2.325576e+06 1.122639e+05        0
1.122639e+05 -2.327493e+04        0
       0        0        0

-2.962911e+06 3.893855e+04        0
3.893855e+04 -2.610900e+04        0
       0        0        0

2.827329e+06 4.218525e+04        0
4.218525e+04 -4.090186e+04        0
       0        0        0

2.193350e+06 1.163913e+05        0
1.163913e+05 -4.519417e+04        0
       0        0        0

1.559363e+06 1.767789e+05        0
1.767789e+05 -4.812683e+04        0
       0        0        0

9.211562e+05 2.200134e+05        0
2.200134e+05 -4.789457e+04        0
       0        0        0

2.789112e+05 2.425559e+05        0
2.425559e+05 -4.492031e+04        0
       0        0        0

-3.644441e+05 2.424556e+05        0
2.424556e+05 -4.080237e+04        0
       0        0        0

-1.005074e+06 2.197410e+05        0
2.197410e+05 -3.728403e+04        0
       0        0        0

-1.640038e+06 1.764151e+05        0
1.764151e+05 -3.592828e+04        0
       0        0        0

-2.269098e+06 1.160574e+05        0
1.160574e+05 -3.707846e+04        0
       0        0        0

-2.896327e+06 4.203158e+04        0
4.203158e+04 -3.879582e+04        0
       0        0        0

2.731637e+06 4.389469e+04        0
4.389469e+04 -5.372291e+04        0
       0        0        0

2.113113e+06 1.189102e+05        0
1.189102e+05 -5.633760e+04        0
       0        0        0

1.495511e+06 1.775105e+05        0
1.775105e+05 -5.834931e+04        0
       0        0        0

8.763747e+05 2.183011e+05        0
2.183011e+05 -5.844169e+04        0
       0        0        0

2.554122e+05 2.392888e+05        0
2.392888e+05 -5.665994e+04        0
       0        0        0

-3.659014e+05 2.391930e+05        0
2.391930e+05 -5.400611e+04        0
       0        0        0

-9.854576e+05 2.180393e+05        0
2.180393e+05 -5.181875e+04        0
       0        0        0

-1.601767e+06 1.771562e+05        0
1.771562e+05 -5.107499e+04        0
       0        0        0

-2.215080e+06 1.185789e+05        0
1.185789e+05 -5.176814e+04        0
       0        0        0

-2.827770e+06 4.373932e+04        0
4.373932e+04 -5.250560e+04        0
       0        0        0

2.632940e+06 4.474950e+04        0
4.474950e+04 -6.787850e+04        0
       0        0        0

2.032149e+06 1.203253e+05        0
1.203253e+05 -6.930389e+04        0
       0        0        0

1.432333e+06 1.780449e+05        0
1.780449e+05 -7.045952e+04        0
       0        0        0

8.322117e+05 2.173918e+05        0
2.173918e+05 -7.059414e+04        0
       0        0        0

2.314972e+05 2.373715e+05        0
2.373715e+05 -6.964334e+04        0
       0        0        0

-3.691454e+05 2.372794e+05        0
2.372794e+05 -6.817017e+04        0
       0        0        0

-9.686708e+05 2.171391e+05        0
2.171391e+05 -6.696674e+04        0
       0        0        0

-1.566401e+06 1.777004e+05        0
1.777004e+05 -6.657877e+04        0
       0        0        0

-2.162594e+06 1.200001e+05        0
1.200001e+05 -6.690768e+04        0
       0        0        0

-2.758480e+06 4.459585e+04        0
4.459585e+04 -6.715630e+04        0
       0        0        0

2.532323e+06 4.514029e+04        0
4.514029e+04 -8.313930e+04        0
       0        0        0

1.950327e+06 1.210361e+05        0
1.210361e+05 -8.375541e+04        0
       0        0        0

1.369116e+06 1.783570e+05        0
1.783570e+05 -8.427665e+04        0
       0        0        0

7.880805e+05 2.169511e+05        0
2.169511e+05 -8.432064e+04        0
       0        0        0

2.070247e+05 2.363739e+05        0
2.363739e+05 -8.382854e+04        0
       0        0        0

-3.737799e+05 2.362852e+05        0
2.362852e+05 -8.308106e+04        0
       0        0        0

-9.538650e+05 2.167068e+05        0
2.167068e+05 -8.249483e+04        0
       0        0        0

-1.532949e+06 1.780227e+05        0
1.780227e+05 -8.233779e+04        0
       0        0        0

-2.111203e+06 1.207193e+05        0
1.207193e+05 -8.252661e+04        0
       0        0        0

-2.689203e+06 4.499016e+04        0
4.499016e+04 -8.264662e+04        0
       0        0        0

2.430447e+06 4.530176e+04        0
4.530176e+04 -9.929874e+04        0
       0        0        0

1.867692e+06 1.213594e+05        0
1.213594e+05 -9.935125e+04        0
       0        0        0

1.305507e+06 1.785156e+05        0
1.785156e+05 -9.941567e+04        0
       0        0        0

7.436238e+05 2.167540e+05        0
2.167540e+05 -9.931997e+04        0
       0        0        0

1.819293e+05 2.359017e+05        0
2.359017e+05 -9.902802e+04        0
       0        0        0

-3.794824e+05 2.358160e+05        0
2.358160e+05 -9.866944e+04        0
       0        0        0

-9.404218e+05 2.165179e+05        0
2.165179e+05 -9.844165e+04        0
       0        0        0

-1.500785e+06 1.781919e+05        0
1.781919e+05 -9.846386e+04        0
       0        0        0

-2.060665e+06 1.210521e+05        0
1.210521e+05 -9.868007e+04        0
       0        0        0

-2.620303e+06 4.515600e+04        0
4.515600e+04 -9.889102e+04        0
       0        0        0

2.327702e+06 4.535951e+04        0
4.535951e+04 -1.161866e+05        0
       0        0        0

1.784348e+06 1.214905e+05        0
1.214905e+05 -1.158146e+05        0
       0        0        0

1.241383e+06 1.785864e+05        0
1.785864e+05 -1.155364e+05        0
       0        0        0

6.986948e+05 2.166722e+05        0
2.166722e+05 -1.152860e+05        0
       0        0        0

1.562225e+05 2.356970e+05        0
2.356970e+05 -1.150472e+05        0
       0        0        0

-3.860104e+05 2.356143e+05        0
2.356143e+05 -1.148754e+05        0
       0        0        0

-9.279374e+05 2.164441e+05        0
2.164441e+05 -1.148557e+05        0
       0        0        0

-1.469526e+06 1.782735e+05        0
1.782735e+05 -1.150344e+05        0
       0        0        0

-2.010819e+06 1.211932e+05        0
1.211932e+05 -1.153768e+05        0
       0        0        0

-2.551901e+06 4.521849e+04        0
4.521849e+04 -1.157914e+05        0
       0        0        0

2.224332e+06 4.537472e+04        0
4.537472e+04 -1.336563e+05        0
       0        0        0

1.700422e+06 1.215346e+05        0
1.215346e+05 -1.329343e+05        0
       0        0        0

1.176752e+06 1.786125e+05        0
1.786125e+05 -1.323789e+05        0
       0        0        0

6.532790e+05 2.166402e+05        0
2.166402e+05 -1.319733e+05        0
       0        0        0

1.299688e+05 2.356163e+05        0
2.356163e+05 -1.317136e+05        0
       0        0        0

-3.931793e+05 2.355365e+05        0
2.355365e+05 -1.316223e+05        0
       0        0        0

-9.161474e+05 2.164202e+05        0
2.164202e+05 -1.317319e+05        0
       0        0        0

-1.438927e+06 1.783105e+05        0
1.783105e+05 -1.320562e+05        0
       0        0        0

-1.961535e+06 1.212476e+05        0
1.212476e+05 -1.325737e+05        0
       0        0        0

-2.483988e+06 4.523860e+04        0
4.523860e+04 -1.332416e+05        0
       0        0        0

2.120508e+06 4.537466e+04        0
4.537466e+04 -1.515767e+05        0
       0        0        0

1.616038e+06 1.215431e+05        0
1.215431e+05 -1.505445e+05        0
       0        0        0

1.111687e+06 1.786178e+05        0
1.786178e+05 -1.497484e+05        0
       0        0        0

6.074337e+05 2.166274e+05        0
2.166274e+05 -1.491922e+05        0
       0        0        0

1.032607e+05 2.355878e+05        0
2.355878e+05 -1.488786e+05        0
       0        0        0

-4.008399e+05 2.355108e+05        0
2.355108e+05 -1.488170e+05        0
       0        0        0

-9.048664e+05 2.164154e+05        0
2.164154e+05 -1.490178e+05        0
       0        0        0

-1.408818e+06 1.783267e+05        0
1.783267e+05 -1.494814e+05        0
       0        0        0

-1.912694e+06 1.212665e+05        0
1.212665e+05 -1.501932e+05        0
       0        0        0

-2.416490e+06 4.524348e+04        0
4.524348e+04 -1.511307e+05        0
       0        0        0

2.016364e+06 4.537026e+04        0
4.537026e+04 -1.698267e+05        0
       0        0        0

1.531317e+06 1.215388e+05        0
1.215388e+05 -1.685071e+05        0
       0        0        0

1.046283e+06 1.786143e+05        0
1.786143e+05 -1.674913e+05        0
       0        0        0

5.612489e+05 2.166209e+05        0
2.166209e+05 -1.667905e+05        0
       0        0        0

7.620278e+04 2.355786e+05        0
2.355786e+05 -1.664109e+05        0
       0        0        0

-4.088631e+05 2.355046e+05        0
2.355046e+05 -1.663572e+05        0
       0        0        0

-8.939512e+05 2.164169e+05        0
2.164169e+05 -1.666314e+05        0
       0        0        0

-1.379060e+06 1.783342e+05        0
1.783342e+05 -1.672295e+05        0
       0        0        0

-1.864185e+06 1.212727e+05        0
1.212727e+05 -1.681398e+05        0
       0        0        0

-2.349311e+06 4.524404e+04        0
4.524404e+04 -1.693472e+05        0
       0        0        0

1.912018e+06 4.536534e+04        0
4.536534e+04 -1.882922e+05        0
       0        0        0

1.446375e+06 1.215310e+05        0
1.215310e+05 -1.867006e+05        0
       0        0        0

9.806482e+05 1.786075e+05        0
1.786075e+05 -1.854786e+05        0
       0        0        0

5.148275e+05 2.166158e+05        0
2.166158e+05 -1.846395e+05        0
       0        0        0

4.890298e+04 2.355753e+05        0
2.355753e+05 -1.841912e+05        0
       0        0        0

-4.171319e+05 2.355042e+05        0
2.355042e+05 -1.841372e+05        0
       0        0        0

-8.832795e+05 2.164197e+05        0
2.164197e+05 -1.844767e+05        0
       0        0        0

-1.349537e+06 1.783384e+05        0
1.783384e+05 -1.852044e+05        0
       0        0        0

-1.815897e+06 1.212753e+05        0
1.212753e+05 -1.863103e+05        0
       0        0        0

-2.282343e+06 4.524408e+04        0
4.524408e+04 -1.877810e+05        0
       0        0        0

1.807578e+06 4.536092e+04        0
4.536092e+04 -2.068646e+05        0
       0        0        0

1.361320e+06 1.215227e+05        0
1.215227e+05 -2.050133e+05        0
       0        0        0

9.148895e+05 1.785998e+05        0
1.785998e+05 -2.035952e+05        0
       0        0        0

4.682749e+05 2.166105e+05        0
2.166105e+05 -2.026242e+05        0
       0        0        0

2.146798e+04 2.355730e+05        0
2.355730e+05 -2.021085e+05        0
       0        0        0

-4.255367e+05 2.355048e+05        0
2.355048e+05 -2.020516e+05        0
       0        0        0

-8.727403e+05 2.164224e+05        0
2.164224e+05 -2.024524e+05        0
       0        0        0

-1.320139e+06 1.783417e+05        0
1.783417e+05 -2.033051e+05        0
       0        0        0

-1.767725e+06 1.212774e+05        0
1.212774e+05 -2.046004e+05        0
       0        0        0

-2.215480e+06 4.524462e+04        0
4.524462e+04 -2.063252e+05        0
       0        0        0

1.703149e+06 4.535706e+04        0
4.535706e+04 -2.254398e+05        0
       0        0        0

1.276258e+06 1.215148e+05        0
1.215148e+05 -2.233402e+05        0
       0        0        0

8.491107e+05 1.785919e+05        0
1.785919e+05 -2.217351e+05        0
       0        0        0

4.216944e+05 2.166047e+05        0
2.166047e+05 -2.206381e+05        0
       0        0        0

-5.998733e+03 2.355703e+05        0
2.355703e+05 -2.200579e+05        0
       0        0        0

-4.339732e+05 2.355050e+05        0
2.355050e+05 -2.199979e+05        0
       0        0        0

-8.622295e+05 2.164247e+05        0
2.164247e+05 -2.204572e+05        0
       0        0        0

-1.290763e+06 1.783447e+05        0
1.783447e+05 -2.214303e+05        0
       0        0        0

-1.719565e+06 1.212800e+05        0
1.212800e+05 -2.229079e+05        0
       0        0        0

-2.148618e+06 4.524571e+04        0
4.524571e+04 -2.248766e+05        0
       0        0        0

1.598830e+06 4.535360e+04        0
4.535360e+04 -2.439184e+05        0
       0        0        0

1.191289e+06 1.215075e+05        0
1.215075e+05 -2.415815e+05        0
       0        0        0

7.834120e+05 1.785840e+05        0
1.785840e+05 -2.397979e+05        0
       0        0        0

3.751858e+05 2.165986e+05        0
2.165986e+05 -2.385811e+05        0
       0        0        0

-3.339762e+04 2.355670e+05        0
2.355670e+05 -2.379395e+05        0
       0        0        0

-4.423423e+05 2.355046e+05        0
2.355046e+05 -2.378770e+05        0
       0        0        0

-8.516480e+05 2.164266e+05        0
2.164266e+05 -2.383926e+05        0
       0        0        0

-1.261310e+06 1.783479e+05        0
1.783479e+05 -2.394813e+05        0
       0        0        0

-1.671318e+06 1.212831e+05        0
1.212831e+05 -2.411335e+05        0
       0        0        0

-2.081658e+06 4.524720e+04        0
4.524720e+04 -2.433358e+05        0
       0        0        0

1.494714e+06 4.535037e+04        0
4.535037e+04 -2.622052e+05        0
       0        0        0

1.106508e+06 1.215005e+05        0
1.215005e+05 -2.596422e+05        0
       0        0        0

7.178890e+05 1.785763e+05        0
1.785763e+05 -2.576886e+05        0
       0        0        0

3.288446e+05 2.165923e+05        0
2.165923e+05 -2.563578e+05        0
       0        0        0

-6.063344e+04 2.355633e+05        0
2.355633e+05 -2.556582e+05        0
       0        0        0

-4.505488e+05 2.355038e+05        0
2.355038e+05 -2.555937e+05        0
       0        0        0

-8.409010e+05 2.164283e+05        0
2.164283e+05 -2.561637e+05        0
       0        0        0

-1.231685e+06 1.783511e+05        0
1.783511e+05 -2.573631e+05        0
       0        0        0

-1.622891e+06 1.212865e+05        0
1.212865e+05 -2.591824e+05        0
       0        0        0

-2.014503e+06 4.524892e+04        0
4.524892e+04 -2.616079e+05        0
       0        0        0

1.390893e+06 4.534728e+04        0
4.534728e+04 -2.802095e+05        0
       0        0        0

1.022006e+06 1.214937e+05        0
1.214937e+05 -2.774315e+05        0
       0        0        0

6.526327e+05 1.785687e+05        0
1.785687e+05 -2.753165e+05        0
       0        0        0

2.827618e+05 2.165859e+05        0
2.165859e+05 -2.738775e+05        0
       0        0        0

-8.761533e+04 2.355594e+05        0
2.355594e+05 -2.731232e+05        0
       0        0        0

-4.585023e+05 2.355028e+05        0
2.355028e+05 -2.730574e+05        0
       0        0        0

-8.298982e+05 2.164299e+05        0
2.164299e+05 -2.736797e+05        0
       0        0        0

-1.201798e+06 1.783545e+05        0
1.783545e+05 -2.749849e+05        0
       0        0        0

-1.574191e+06 1.212902e+05        0
1.212902e+05 -2.769638e+05        0
       0        0        0

-1.947064e+06 4.525078e+04        0
4.525078e+04 -2.796022e+05        0
       0        0        0

1.287453e+06 4.534429e+04        0
4.534429e+04 -2.978449e+05        0
       0        0        0

9.378685e+05 1.214871e+05        0
1.214871e+05 -2.948631e+05        0
       0        0        0

5.877298e+05 1.785612e+05        0
1.785612e+05 -2.925951e+05        0
       0        0        0

2.370240e+05 2.165795e+05        0
2.165795e+05 -2.910540e+05        0
       0        0        0

-1.142568e+05 2.355552e+05        0
2.355552e+05 -2.902481e+05        0
       0        0        0

-4.661162e+05 2.355016e+05        0
2.355016e+05 -2.901816e+05        0
       0        0        0

-8.185533e+05 2.164315e+05        0
2.164315e+05 -2.908539e+05        0
       0        0        0

-1.171562e+06 1.783580e+05        0
1.783580e+05 -2.922603e+05        0
       0        0        0

-1.525134e+06 1.212941e+05        0
1.212941e+05 -2.943911e+05        0
       0        0        0

-1.879254e+06 4.525275e+04        0
4.525275e+04 -2.972323e+05        0
       0        0        0

1.184476e+06 4.534141e+04        0
4.534141e+04 -3.150292e+05        0
       0        0        0

8.541789e+05 1.214807e+05        0
1.214807e+05 -3.118549e+05        0
       0        0        0

5.232625e+05 1.785538e+05        0
1.785538e+05 -3.094426e+05        0
       0        0        0

1.917137e+05 2.165730e+05        0
2.165730e+05 -3.078051e+05        0
       0        0        0

-1.404756e+05 2.355510e+05        0
2.355510e+05 -3.069509e+05        0
       0        0        0

-4.733086e+05 2.355002e+05        0
2.355002e+05 -3.068841e+05        0
       0        0        0

-8.067843e+05 2.164330e+05        0
2.164330e+05 -3.076043e+05        0
       0        0        0

-1.140897e+06 1.783616e+05        0
1.783616e+05 -3.091069e+05        0
       0        0        0

-1.475637e+06 1.212981e+05        0
1.212981e+05 -3.113822e+05        0
       0        0        0

-1.810989e+06 4.525482e+04        0
4.525482e+04 -3.144161e+05        0
       0        0        0

1.082040e+06 4.533870e+04        0
4.533870e+04 -3.316847e+05        0
       0        0        0

7.710146e+05 1.214746e+05        0
1.214746e+05 -3.283293e+05        0
       0        0        0

4.593087e+05 1.785466e+05        0
1.785466e+05 -3.257813e+05        0
       0        0        0

1.469086e+05 2.165664e+05        0
2.165664e+05 -3.240533e+05        0
       0        0        0

-1.661939e+05 2.355464e+05        0
2.355464e+05 -3.231538e+05        0
       0        0        0

-4.800019e+05 2.354986e+05        0
2.354986e+05 -3.230871e+05        0
       0        0        0

-7.945137e+05 2.164344e+05        0
2.164344e+05 -3.238530e+05        0
       0        0        0

-1.109724e+06 1.783654e+05        0
1.783654e+05 -3.254469e+05        0
       0        0        0

-1.425621e+06 1.213024e+05        0
1.213024e+05 -3.278594e+05        0
       0        0        0

-1.742194e+06 4.525706e+04        0
4.525706e+04 -3.310759e+05        0
       0        0        0

9.802169e+05 4.533627e+04        0
4.533627e+04 -3.477379e+05        0
       0        0        0

6.884491e+05 1.214689e+05        0
1.214689e+05 -3.442128e+05        0
       0        0        0

3.959423e+05 1.785395e+05        0
1.785395e+05 -3.415377e+05        0
       0        0        0

1.026825e+05 2.165597e+05        0
2.165597e+05 -3.397251e+05        0
       0        0        0

-1.913383e+05 2.355416e+05        0
2.355416e+05 -3.387835e+05        0
       0        0        0

-4.861226e+05 2.354966e+05        0
2.354966e+05 -3.387173e+05        0
       0        0        0

-7.816683e+05 2.164357e+05        0
2.164357e+05 -3.395266e+05        0
       0        0        0

-1.077969e+06 1.783693e+05        0
1.783693e+05 -3.412069e+05        0
       0        0        0

-1.375015e+06 1.213072e+05        0
1.213072e+05 -3.437489e+05        0
       0        0        0

-1.672793e+06 4.525957e+04        0
4.525957e+04 -3.471381e+05        0
       0        0        0

8.790765e+05 4.533425e+04        0
4.533425e+04 -3.631199e+05        0
       0        0        0

6.065517e+05 1.214636e+05        0
1.214636e+05 -3.594363e+05        0
       0        0        0

3.332325e+05 1.785324e+05        0
1.785324e+05 -3.566426e+05        0
       0        0        0

5.910460e+04 2.165527e+05        0
2.165527e+05 -3.547510e+05        0
       0        0        0

-2.158396e+05 2.355364e+05        0
2.355364e+05 -3.537706e+05        0
       0        0        0

-4.916018e+05 2.354943e+05        0
2.354943e+05 -3.537056e+05        0
       0        0        0

-7.681792e+05 2.164367e+05        0
2.164367e+05 -3.545562e+05        0
       0        0        0

-1.045565e+06 1.783732e+05        0
1.783732e+05 -3.563179e+05        0
       0        0        0

-1.323748e+06 1.213123e+05        0
1.213123e+05 -3.589818e+05        0
       0        0        0

-1.602717e+06 4.526250e+04        0
4.526250e+04 -3.625334e+05        0
       0        0        0

7.786827e+05 4.533270e+04        0
4.533270e+04 -3.777655e+05        0
       0        0        0

5.253876e+05 1.214585e+05        0
1.214585e+05 -3.739343e+05        0
       0        0        0

2.712446e+05 1.785250e+05        0
1.785250e+05 -3.710297e+05        0
       0        0        0

1.623965e+04 2.165456e+05        0
2.165456e+05 -3.690650e+05        0
       0        0        0

-2.396331e+05 2.355316e+05        0
2.355316e+05 -3.680498e+05        0
       0        0        0

-4.963746e+05 2.354924e+05        0
2.354924e+05 -3.679880e+05        0
       0        0        0

-7.539816e+05 2.164376e+05        0
2.164376e+05 -3.688785e+05        0
       0        0        0

-1.012446e+06 1.783767e+05        0
1.783767e+05 -3.707164e+05        0
       0        0        0

-1.271757e+06 1.213176e+05        0
1.213176e+05 -3.734937e+05        0
       0        0        0

-1.531901e+06 4.526590e+04        0
4.526590e+04 -3.771971e+05        0
       0        0        0

6.790963e+05 4.533120e+04        0
4.533120e+04 -3.916139e+05        0
       0        0        0

4.450182e+05 1.214518e+05        0
1.214518e+05 -3.876444e+05        0
       0        0        0

2.100384e+05 1.785159e+05        0
1.785159e+05 -3.846351e+05        0
       0        0        0

-2.585340e+04 2.165391e+05        0
2.165391e+05 -3.826028e+05        0
       0        0        0

-2.626592e+05 2.355296e+05        0
2.355296e+05 -3.815592e+05        0
       0        0        0

-5.003798e+05 2.354933e+05        0
2.354933e+05 -3.815058e+05        0
       0        0        0

-7.390136e+05 2.164391e+05        0
2.164391e+05 -3.824370e+05        0
       0        0        0

-9.785523e+05 1.783787e+05        0
1.783787e+05 -3.843457e+05        0
       0        0        0

-1.218981e+06 1.213213e+05        0
1.213213e+05 -3.872259e+05        0
       0        0        0

-1.460283e+06 4.526935e+04        0
4.526935e+04 -3.910686e+05        0
       0        0        0

5.803760e+05 4.532781e+04        0
4.532781e+04 -4.046073e+05        0
       0        0        0

3.655013e+05 1.214385e+05        0
1.214385e+05 -4.005052e+05        0
       0        0        0

1.496668e+05 1.785021e+05        0
1.785021e+05 -3.973932e+05        0
       0        0        0

-6.712388e+04 2.165358e+05        0
2.165358e+05 -3.952991e+05        0
       0        0        0

-2.848646e+05 2.355381e+05        0
2.355381e+05 -3.942388e+05        0
       0        0        0

-5.035591e+05 2.355047e+05        0
2.355047e+05 -3.942068e+05        0
       0        0        0

-7.232140e+05 2.164438e+05        0
2.164438e+05 -3.951851e+05        0
       0        0        0

-9.438240e+05 1.783758e+05        0
1.783758e+05 -3.971591e+05        0
       0        0        0

-1.165365e+06 1.213185e+05        0
1.213185e+05 -4.001272e+05        0
       0        0        0

-1.387810e+06 4.527091e+04        0
4.527091e+04 -4.040923e+05        0
       0        0        0

4.825838e+05 4.531650e+04        0
4.531650e+04 -4.166907e+05        0
       0        0        0

2.868910e+05 1.214056e+05        0
1.214056e+05 -4.124525e+05        0
       0        0        0

9.017095e+04 1.784763e+05        0
1.784763e+05 -4.092308e+05        0
       0        0        0

-1.075354e+05 2.165430e+05        0
2.165430e+05 -4.070814e+05        0
       0        0        0

-3.062047e+05 2.355760e+05        0
2.355760e+05 -4.060285e+05        0
       0        0        0

-5.058539e+05 2.355455e+05        0
2.355455e+05 -4.060483e+05        0
       0        0        0

-7.065164e+05 2.164590e+05        0
2.164590e+05 -4.070923e+05        0
       0        0        0

-9.081992e+05 1.783610e+05        0
1.783610e+05 -4.091268e+05        0
       0        0        0

-1.110861e+06 1.212961e+05        0
1.212961e+05 -4.121580e+05        0
       0        0        0

-1.314437e+06 4.526456e+04        0
4.526456e+04 -4.162178e+05        0
       0        0        0

3.857949e+05 4.528166e+04        0
4.528166e+04 -4.278095e+05        0
       0        0        0

2.092370e+05 1.213227e+05        0
1.213227e+05 -4.234128e+05        0
       0        0        0

3.156829e+04 1.784237e+05        0
1.784237e+05 -4.200565e+05        0
       0        0        0

-1.470785e+05 2.165787e+05        0
2.165787e+05 -4.178602e+05        0
       0        0        0

-3.266488e+05 2.356863e+05        0
2.356863e+05 -4.168635e+05        0
       0        0        0

-5.072002e+05 2.356587e+05        0
2.356587e+05 -4.170004e+05        0
       0        0        0

-6.888366e+05 2.165027e+05        0
2.165027e+05 -4.181546e+05        0
       0        0        0

-8.716028e+05 1.783194e+05        0
1.783194e+05 -4.202476e+05        0
       0        0        0

-1.055423e+06 1.212236e+05        0
1.212236e+05 -4.232980e+05        0
       0        0        0

-1.240143e+06 4.523469e+04        0
4.523469e+04 -4.274023e+05        0
       0        0        0

2.901210e+05 4.518694e+04        0
4.518694e+04 -4.379077e+05        0
       0        0        0

1.325799e+05 1.211252e+05        0
1.211252e+05 -4.332924e+05        0
       0        0        0

-2.617036e+04 1.783168e+05        0
1.783168e+05 -4.297442e+05        0
       0        0        0

-1.857950e+05 2.166825e+05        0
2.166825e+05 -4.275154e+05        0
       0        0        0

-3.461898e+05 2.359578e+05        0
2.359578e+05 -4.266690e+05        0
       0        0        0

-5.075180e+05 2.359331e+05        0
2.359331e+05 -4.270507e+05        0
       0        0        0

-6.700486e+05 2.166144e+05        0
2.166144e+05 -4.284079e+05        0
       0        0        0

-8.339245e+05 1.782235e+05        0
1.782235e+05 -4.305663e+05        0
       0        0        0

-9.990118e+05 1.210367e+05        0
1.210367e+05 -4.335592e+05        0
       0        0        0

-1.164951e+06 4.514500e+04        0
4.514500e+04 -4.376140e+05        0
       0        0        0

1.957512e+05 4.495530e+04        0
4.495530e+04 -4.469258e+05        0
       0        0        0

5.693833e+04 1.206891e+05        0
1.206891e+05 -4.419664e+05        0
       0        0        0

-8.316525e+04 1.781107e+05        0
1.781107e+05 -4.381188e+05        0
       0        0        0

-2.238183e+05 2.169343e+05        0
2.169343e+05 -4.358860e+05        0
       0        0        0

-3.648587e+05 2.365562e+05        0
2.365562e+05 -4.353558e+05        0
       0        0        0

-5.066938e+05 2.365344e+05        0
2.365344e+05 -4.362059e+05        0
       0        0        0

-6.499436e+05 2.168742e+05        0
2.168742e+05 -4.379376e+05        0
       0        0        0

-7.949781e+05 1.780285e+05        0
1.780285e+05 -4.401920e+05        0
       0        0        0

-9.415822e+05 1.206112e+05        0
1.206112e+05 -4.430043e+05        0
       0        0        0

-1.088977e+06 4.491845e+04        0
4.491845e+04 -4.468397e+05        0
       0        0        0

1.030222e+05 4.443721e+04        0
4.443721e+04 -4.548039e+05        0
       0        0        0

-1.772595e+04 1.198024e+05        0
1.198024e+05 -4.492762e+05        0
       0        0        0

-1.397011e+05 1.777502e+05        0
1.777502e+05 -4.449673e+05        0
       0        0        0

-2.614285e+05 2.174808e+05        0
2.174808e+05 -4.427908e+05        0
       0        0        0

-3.827408e+05 2.377520e+05        0
2.377520e+05 -4.428286e+05        0
       0        0        0

-5.045566e+05 2.377330e+05        0
2.377330e+05 -4.444755e+05        0
       0        0        0

-6.281721e+05 2.174286e+05        0
2.174286e+05 -4.468555e+05        0
       0        0        0

-7.544339e+05 1.776791e+05        0
1.776791e+05 -4.492926e+05        0
       0        0        0

-8.830666e+05 1.197353e+05        0
1.197353e+05 -4.517620e+05        0
       0        0        0

-1.012517e+06 4.440558e+04        0
4.440558e+04 -4.550976e+05        0
       0        0        0

1.251143e+04 4.337148e+04        0
4.337148e+04 -4.614988e+05        0
       0        0        0

-9.159147e+04 1.181679e+05        0
1.181679e+05 -4.550815e+05        0
       0        0        0

-1.963232e+05 1.772161e+05        0
1.772161e+05 -4.501522e+05        0
       0        0        0

-2.990904e+05 2.185541e+05        0
2.185541e+05 -4.481611e+05        0
       0        0        0

-3.999733e+05 2.398902e+05        0
2.398902e+05 -4.490381e+05        0
       0        0        0

-5.008633e+05 2.398741e+05        0
2.398741e+05 -4.518031e+05        0
       0        0        0

-6.041973e+05 2.185099e+05        0
2.185099e+05 -4.551582e+05        0
       0        0        0

-7.117296e+05 1.771561e+05        0
1.771561e+05 -4.579885e+05        0
       0        0        0

-8.233180e+05 1.181118e+05        0
1.181118e+05 -4.600036e+05        0
       0        0        0

-9.361759e+05 4.334522e+04        0
4.334522e+04 -4.624598e+05        0
       0        0        0

-7.490464e+04 4.137095e+04        0
4.137095e+04 -4.670685e+05        0
       0        0        0

-1.651553e+05 1.155476e+05        0
1.155476e+05 -4.594707e+05        0
       0        0        0

-2.538962e+05 1.766827e+05        0
1.766827e+05 -4.540452e+05        0
       0        0        0

-3.373551e+05 2.204250e+05        0
2.204250e+05 -4.524634e+05        0
       0        0        0

-4.166725e+05 2.431506e+05        0
2.431506e+05 -4.541509e+05        0
       0        0        0

-4.953380e+05 2.431377e+05        0
2.431377e+05 -4.578624e+05        0
       0        0        0

-5.773696e+05 2.203894e+05        0
2.203894e+05 -4.622809e+05        0
       0        0        0

-6.660156e+05 1.766343e+05        0
1.766343e+05 -4.659228e+05        0
       0        0        0

-7.619812e+05 1.155026e+05        0
1.155026e+05 -4.677827e+05        0
       0        0        0

-8.610226e+05 4.135019e+04        0
4.135019e+04 -4.690607e+05        0
       0        0        0

-1.582368e+05 3.807269e+04        0
3.807269e+04 -4.718423e+05        0
       0        0        0

-2.395891e+05 1.123682e+05        0
1.123682e+05 -4.635913e+05        0
       0        0        0

-3.133446e+05 1.768613e+05        0
1.768613e+05 -4.587225e+05        0
       0        0        0

-3.763456e+05 2.230956e+05        0
2.230956e+05 -4.577698e+05        0
       0        0        0

-4.326565e+05 2.467556e+05        0
2.467556e+05 -4.589235e+05        0
       0        0        0

-4.878888e+05 2.467463e+05        0
2.467463e+05 -4.616231e+05        0
       0        0        0

-5.473874e+05 2.230697e+05        0
2.230697e+05 -4.659731e+05        0
       0        0        0

-6.163940e+05 1.768252e+05        0
1.768252e+05 -4.710466e+05        0
       0        0        0

-6.982068e+05 1.123343e+05        0
1.123343e+05 -4.742737e+05        0
       0        0        0

-7.886013e+05 3.805740e+04        0
3.805740e+04 -4.751260e+05        0
       0        0        0

-2.376428e+05 3.408605e+04        0
3.408605e+04 -4.777857e+05        0
       0        0        0

-3.169289e+05 1.114525e+05        0
1.114525e+05 -4.719094e+05        0
       0        0        0

-3.743865e+05 1.793905e+05        0
1.793905e+05 -4.712804e+05        0
       0        0        0

-4.142725e+05 2.249994e+05        0
2.249994e+05 -4.695615e+05        0
       0        0        0

-4.469065e+05 2.471992e+05        0
2.471992e+05 -4.651247e+05        0
       0        0        0

-4.790566e+05 2.471947e+05        0
2.471947e+05 -4.608388e+05        0
       0        0        0

-5.156756e+05 2.249859e+05        0
2.249859e+05 -4.603900e+05        0
       0        0        0

-5.630851e+05 1.793691e+05        0
1.793691e+05 -4.662031e+05        0
       0        0        0

-6.304931e+05 1.114297e+05        0
1.114297e+05 -4.755452e+05        0
       0        0        0

-7.200759e+05 3.407568e+04        0
3.407568e+04 -4.800098e+05        0
       0        0        0

-3.185050e+05 3.547651e+04        0
3.547651e+04 -4.894365e+05        0
       0        0        0

-3.988903e+05 1.222341e+05        0
1.222341e+05 -5.032261e+05        0
       0        0        0

-4.306493e+05 1.841706e+05        0
1.841706e+05 -5.091996e+05        0
       0        0        0

-4.454790e+05 2.195188e+05        0
2.195188e+05 -4.974826e+05        0
       0        0        0

-4.572660e+05 2.356962e+05        0
2.356962e+05 -4.755516e+05        0
       0        0        0

-4.702130e+05 2.356978e+05        0
2.356978e+05 -4.519273e+05        0
       0        0        0

-4.871709e+05 2.195216e+05        0
2.195216e+05 -4.351666e+05        0
       0        0        0

-5.120270e+05 1.841699e+05        0
1.841699e+05 -4.334770e+05        0
       0        0        0

-5.576024e+05 1.222253e+05        0
1.222253e+05 -4.532741e+05        0
       0        0        0

-6.526039e+05 3.546935e+04        0
3.546935e+04 -4.817103e+05        0
       0        0        0

-4.266998e+05 8.080307e+04        0
8.080307e+04 -5.579713e+05        0
       0        0        0

-4.671155e+05 1.513224e+05        0
1.513224e+05 -6.106195e+05        0
       0        0        0

-4.645045e+05 1.777645e+05        0
1.777645e+05 -5.973482e+05        0
       0        0        0

-4.617983e+05 1.907387e+05        0
1.907387e+05 -5.523767e+05        0
       0        0        0

-4.608809e+05 1.964217e+05        0
1.964217e+05 -4.928516e+05        0
       0        0        0

-4.630619e+05 1.964292e+05        0
1.964292e+05 -4.310900e+05        0
       0        0        0

-4.687683e+05 1.907592e+05        0
1.907592e+05 -3.781794e+05        0
       0        0        0

-4.794834e+05 1.777915e+05        0
1.777915e+05 -3.466177e+05        0
       0        0        0

-4.971901e+05 1.513447e+05        0
1.513447e+05 -3.536623e+05        0
       0        0        0

-5.626898e+05 8.080220e+04        0
8.080220e+04 -4.314189e+05        0
       0        0        0

POINT_DATA     451
VECTORS DISPLACEMENT_2.200000e-01 double
0.000000e+00    0.000000e+00    0.000000e+00
0.000000e+00    0.000000e+00    0.000000e+00
0.000000e+00    0.000000e+00    0.000000e+00
0.000000e+00    0.000000e+00    0.000000e+00
0.000000e+00    0.000000e+00    0.000000e+00
0.000000e+00    0.000000e+00    0.000000e+00
0.000000e+00    0.000000e+00    0.000000e+00
0.000000e+00    0.000000e+00    0.000000e+00
0.000000e+00    0.000000e+00    0.000000e+00
0.000000e+00    0.000000e+00    0.000000e+00
0.000000e+00    0.000000e+00    0.000000e+00
-1.554733e-06    -1.140203e-06    0.000000e+00
-9.794038e-07    -5.792357e-07    0.000000e+00
-6.970123e-07    -3.094771e-07    0.000000e+00
-4.492911e-07    -1.639054e-07    0.000000e+00
-2.213249e-07    -8.884377e-08    0.000000e+00
-4.990937e-20    -6.554929e-08    0.000000e+00
2.213249e-07    -8.884377e-08    0.000000e+00
4.492911e-07    -1.639054e-07    0.000000e+00
6.970123e-07    -3.094771e-07    0.000000e+00
9.794038e-07    -5.792357e-07    0.000000e+00
1.554733e-06    -1.140203e-06    0.000000e+00
-2.926863e-06    -1.902516e-06    0.000000e+00
-2.130561e-06    -1.387061e-06    0.000000e+00
-1.491344e-06    -9.865088e-07    0.000000e+00
-9.604385e-07    -7.398092e-07    0.000000e+00
-4.712962e-07    -6.057851e-07    0.000000e+00
-1.054506e-19    -5.632794e-07    0.000000e+00
4.712962e-07    -6.057851e-07    0.000000e+00
9.604385e-07    -7.398092e-07    0.000000e+00
1.491344e-06    -9.865088e-07    0.000000e+00
2.130561e-06    -1.387061e-06    0.000000e+00
2.926863e-06    -1.902516e-06    0.000000e+00
-4.247556e-06    -2.846181e-06    0.000000e+00
-3.236423e-06    -2.331103e-06    0.000000e+00
-2.323385e-06    -1.925441e-06    0.000000e+00
-1.501802e-06    -1.639834e-06    0.000000e+00
-7.383198e-07    -1.475539e-06    0.000000e+00
-1.660912e-19    -1.422077e-06    0.000000e+00
7.383198e-07    -1.475539e-06    0.000000e+00
1.501802e-06    -1.639834e-06    0.000000e+00
2.323385e-06    -1.925441e-06    0.000000e+00
3.236423e-06    -2.331103e-06    0.000000e+00
4.247556e-06    -2.846181e-06    0.000000e+00
-5.549132e-06    -4.005196e-06    0.000000e+00
-4.302679e-06    -3.503429e-06    0.000000e+00
-3.135716e-06    -3.105426e-06    0.000000e+00
-2.044755e-06    -2.818442e-06    0.000000e+00
-1.008598e-06    -2.646334e-06    0.000000e+00
-2.291290e-19    -2.589299e-06    0.000000e+00
1.008598e-06    -2.646334e-06    0.000000e+00
2.044755e-06    -2.818442e-06    0.000000e+00
3.135716e-06    -3.105426e-06    0.000000e+00
4.302679e-06    -3.503429e-06    0.000000e+00
5.549132e-06    -4.005196e-06    0.000000e+00
-6.824524e-06    -5.409537e-06    0.000000e+00
-5.334648e-06    -4.921016e-06    0.000000e+00
-3.920096e-06    -4.536105e-06    0.000000e+00
-2.572141e-06    -4.257278e-06    0.000000e+00
-1.273250e-06    -4.088537e-06    0.000000e+00
-2.943042e-19    -4.032066e-06    0.000000e+00
1.273250e-06    -4.088537e-06    0.000000e+00
2.572141e-06    -4.257278e-06    0.000000e+00
3.920096e-06    -4.536105e-06    0.000000e+00
5.334648e-06    -4.921016e-06    0.000000e+00
6.824524e-06    -5.409537e-06    0.000000e+00
-8.068053e-06    -7.062053e-06    0.000000e+00
-6.334462e-06    -6.588017e-06    0.000000e+00
-4.676325e-06    -6.216439e-06    0.000000e+00
-3.080138e-06    -5.948238e-06    0.000000e+00
-1.528444e-06    -5.785906e-06    0.000000e+00
-3.602802e-19    -5.731548e-06    0.000000e+00
1.528444e-06    -5.785906e-06    0.000000e+00
3.080138e-06    -5.948238e-06    0.000000e+00
4.676325e-06    -6.216439e-06    0.000000e+00
6.334462e-06    -6.588017e-06    0.000000e+00
8.068053e-06    -7.062053e-06    0.000000e+00
-9.275601e-06    -8.959218e-06    0.000000e+00
-7.302530e-06    -8.500186e-06    0.000000e+00
-5.405808e-06    -8.141647e-06    0.000000e+00
-3.568913e-06    -7.883873e-06    0.000000e+00
-1.773711e-06    -7.728275e-06    0.000000e+00
-4.230665e-19    -7.676225e-06    0.000000e+00
1.773711e-06    -7.728275e-06    0.000000e+00
3.568913e-06    -7.883873e-06    0.000000e+00
5.405808e-06    -8.141647e-06    0.000000e+00
7.302530e-06    -8.500186e-06    0.000000e+00
9.275601e-06    -8.959218e-06    0.000000e+00
-1.044490e-05    -1.109430e-05    0.000000e+00
-8.238767e-06    -1.065058e-05    0.000000e+00
-6.109700e-06    -1.030468e-05    0.000000e+00
-4.039538e-06    -1.005671e-05    0.000000e+00
-2.009550e-06    -9.907387e-06    0.000000e+00
-4.855616e-19    -9.857505e-06    0.000000e+00
2.009550e-06    -9.907387e-06    0.000000e+00
4.039538e-06    -1.005671e-05    0.000000e+00
6.109700e-06    -1.030468e-05    0.000000e+00
8.238767e-06    -1.065058e-05    0.000000e+00
1.044490e-05    -1.109430e-05    0.000000e+00
-1.157479e-05    -1.345952e-05    0.000000e+00
-9.143039e-06    -1.303123e-05    0.000000e+00
-6.788736e-06    -1.269770e-05    0.000000e+00
-4.492931e-06    -1.245899e-05    0.000000e+00
-2.236530e-06    -1.231547e-05    0.000000e+00
-5.478186e-19    -1.226758e-05    0.000000e+00
2.236530e-06    -1.231547e-05    0.000000e+00
4.492931e-06    -1.245899e-05    0.000000e+00
6.788736e-06    -1.269770e-05    0.000000e+00
9.143039e-06    -1.303123e-05    0.000000e+00
1.157479e-05    -1.345952e-05    0.000000e+00
-1.266476e-05    -1.604674e-05    0.000000e+00
-1.001527e-05    -1.563392e-05    0.000000e+00
-7.443334e-06    -1.531257e-05    0.000000e+00
-4.929686e-06    -1.508278e-05    0.000000e+00
-2.455053e-06    -1.494475e-05    0.000000e+00
-6.106049e-19    -1.489871e-05    0.000000e+00
2.455053e-06    -1.494475e-05    0.000000e+00
4.929686e-06    -1.508278e-05    0.000000e+00
7.443334e-06    -1.531257e-05    0.000000e+00
1.001527e-05    -1.563392e-05    0.000000e+00
1.266476e-05    -1.604674e-05    0.000000e+00
-1.371466e-05    -1.884776e-05    0.000000e+00
-1.085544e-05    -1.845041e-05    0.000000e+00
-8.073728e-06    -1.814114e-05    0.000000e+00
-5.350147e-06    -1.792006e-05    0.000000e+00
-2.665362e-06    -1.778733e-05    0.000000e+00
-6.656620e-19    -1.774306e-05    0.000000e+00
2.665362e-06    -1.778733e-05    0.000000e+00
5.350147e-06    -1.792006e-05    0.000000e+00
8.073728e-06    -1.814114e-05    0.000000e+00
1.085544e-05    -1.845041e-05    0.000000e+00
1.371466e-05    -1.884776e-05    0.000000e+00
-1.472445e-05    -2.185440e-05    0.000000e+00
-1.166358e-05    -2.147249e-05    0.000000e+00
-8.680061e-06    -2.117523e-05    0.000000e+00
-5.754505e-06    -2.096276e-05    0.000000e+00
-2.867590e-06    -2.083521e-05    0.000000e+00
-7.205074e-19    -2.079268e-05    0.000000e+00
2.867590e-06    -2.083521e-05    0.000000e+00
5.754505e-06    -2.096276e-05    0.000000e+00
8.680061e-06    -2.117523e-05    0.000000e+00
1.166358e-05    -2.147249e-05    0.000000e+00
1.472445e-05    -2.185440e-05    0.000000e+00
-1.569422e-05    -2.505854e-05    0.000000e+00
-1.243977e-05    -2.469203e-05    0.000000e+00
-9.262431e-06    -2.440672e-05    0.000000e+00
-6.142872e-06    -2.420279e-05    0.000000e+00
-3.061813e-06    -2.408037e-05    0.000000e+00
-7.841408e-19    -2.403955e-05    0.000000e+00
3.061813e-06    -2.408037e-05    0.000000e+00
6.142872e-06    -2.420279e-05    0.000000e+00
9.262431e-06    -2.440672e-05    0.000000e+00
1.243977e-05    -2.469203e-05    0.000000e+00
1.569422e-05    -2.505854e-05    0.000000e+00
-1.662408e-05    -2.845208e-05    0.000000e+00
-1.318409e-05    -2.810092e-05    0.000000e+00
-9.820929e-06    -2.782751e-05    0.000000e+00
-6.515330e-06    -2.763207e-05    0.000000e+00
-3.248081e-06    -2.751474e-05    0.000000e+00
-8.257512e-19    -2.747562e-05    0.000000e+00
3.248081e-06    -2.751474e-05    0.000000e+00
6.515330e-06    -2.763207e-05    0.000000e+00
9.820929e-06    -2.782751e-05    0.000000e+00
1.318409e-05    -2.810092e-05    0.000000e+00
1.662408e-05    -2.845208e-05    0.000000e+00
-1.751417e-05    -3.202696e-05    0.000000e+00
-1.389666e-05    -3.169109e-05    0.000000e+00
-1.035565e-05    -3.142953e-05    0.000000e+00
-6.871947e-06    -3.124254e-05    0.000000e+00
-3.426432e-06    -3.113028e-05    0.000000e+00
-8.638677e-19    -3.109284e-05    0.000000e+00
3.426432e-06    -3.113028e-05    0.000000e+00
6.871947e-06    -3.124254e-05    0.000000e+00
1.035565e-05    -3.142953e-05    0.000000e+00
1.389666e-05    -3.169109e-05    0.000000e+00
1.751417e-05    -3.202696e-05    0.000000e+00
-1.836466e-05    -3.577517e-05    0.000000e+00
-1.457761e-05    -3.545451e-05    0.000000e+00
-1.086668e-05    -3.520475e-05    0.000000e+00
-7.212793e-06    -3.502617e-05    0.000000e+00
-3.596901e-06    -3.491894e-05    0.000000e+00
-8.943609e-19    -3.488319e-05    0.000000e+00
3.596901e-06    -3.491894e-05    0.000000e+00
7.212793e-06    -3.502617e-05    0.000000e+00
1.086668e-05    -3.520475e-05    0.000000e+00
1.457761e-05    -3.545451e-05    0.000000e+00
1.836466e-05    -3.577517e-05    0.000000e+00
-1.917572e-05    -3.968870e-05    0.000000e+00
-1.522708e-05    -3.938318e-05    0.000000e+00
-1.135415e-05    -3.914517e-05    0.000000e+00
-7.537943e-06    -3.897495e-05    0.000000e+00
-3.759529e-06    -3.887273e-05    0.000000e+00
-9.056900e-19    -3.883865e-05    0.000000e+00
3.759529e-06    -3.887273e-05    0.000000e+00
7.537943e-06    -3.897495e-05    0.000000e+00
1.135415e-05    -3.914517e-05    0.000000e+00
1.522708e-05    -3.938318e-05    0.000000e+00
1.917572e-05    -3.968870e-05    0.000000e+00
-1.994756e-05    -4.375960e-05    0.000000e+00
-1.584524e-05    -4.346915e-05    0.000000e+00
-1.181817e-05    -4.324281e-05    0.000000e+00
-7.847482e-06    -4.308091e-05    0.000000e+00
-3.914355e-06    -4.298368e-05    0.000000e+00
-9.232659e-19    -4.295125e-05    0.000000e+00
3.914355e-06    -4.298368e-05    0.000000e+00
7.847482e-06    -4.308091e-05    0.000000e+00
1.181817e-05    -4.324281e-05    0.000000e+00
1.584524e-05    -4.346915e-05    0.000000e+00
1.994756e-05    -4.375960e-05    0.000000e+00
-2.068041e-05    -4.797997e-05    0.000000e+00
-1.643227e-05    -4.770448e-05    0.000000e+00
-1.225888e-05    -4.748975e-05    0.000000e+00
-8.141502e-06    -4.733611e-05    0.000000e+00
-4.061428e-06    -4.724383e-05    0.000000e+00
-9.592648e-19    -4.721305e-05    0.000000e+00
4.061428e-06    -4.724383e-05    0.000000e+00
8.141502e-06    -4.733611e-05    0.000000e+00
1.225888e-05    -4.748975e-05    0.000000e+00
1.643227e-05    -4.770448e-05    0.000000e+00
2.068041e-05    -4.797997e-05    0.000000e+00
-2.137452e-05    -5.234194e-05    0.000000e+00
-1.698838e-05    -5.208132e-05    0.000000e+00
-1.267644e-05    -5.187810e-05    0.000000e+00
-8.420104e-06    -5.173267e-05    0.000000e+00
-4.200798e-06    -5.164531e-05    0.000000e+00
-1.022581e-18    -5.161617e-05    0.000000e+00
4.200798e-06    -5.164531e-05    0.000000e+00
8.420104e-06    -5.173267e-05    0.000000e+00
1.267644e-05    -5.187810e-05    0.000000e+00
1.698838e-05    -5.208132e-05    0.000000e+00
2.137452e-05    -5.234194e-05    0.000000e+00
-2.203016e-05    -5.683768e-05    0.000000e+00
-1.751378e-05    -5.659182e-05    0.000000e+00
-1.307102e-05    -5.640003e-05    0.000000e+00
-8.683400e-06    -5.626275e-05    0.000000e+00
-4.332521e-06    -5.618026e-05    0.000000e+00
-1.110672e-18    -5.615275e-05    0.000000e+00
4.332521e-06    -5.618026e-05    0.000000e+00
8.683400e-06    -5.626275e-05    0.000000e+00
1.307102e-05    -5.640003e-05    0.000000e+00
1.751378e-05    -5.659182e-05    0.000000e+00
2.203016e-05    -5.683768e-05    0.000000e+00
-2.264763e-05    -6.145945e-05    0.000000e+00
-1.800872e-05    -6.122821e-05    0.000000e+00
-1.344278e-05    -6.104777e-05    0.000000e+00
-8.931511e-06    -6.091857e-05    0.000000e+00
-4.456657e-06    -6.084091e-05    0.000000e+00
-1.178858e-18    -6.081501e-05    0.000000e+00
4.456657e-06    -6.084091e-05    0.000000e+00
8.931511e-06    -6.091857e-05    0.000000e+00
1.344278e-05    -6.104777e-05    0.000000e+00
1.800872e-05    -6.122821e-05    0.000000e+00
2.264763e-05    -6.145945e-05    0.000000e+00
-2.322726e-05    -6.619952e-05    0.000000e+00
-1.847345e-05    -6.598280e-05    0.000000e+00
-1.379193e-05    -6.581359e-05    0.000000e+00
-9.164568e-06    -6.569239e-05    0.000000e+00
-4.573271e-06    -6.561953e-05    0.000000e+00
-1.224810e-18    -6.559522e-05    0.000000e+00
4.573271e-06    -6.561953e-05    0.000000e+00
9.164568e-06    -6.569239e-05    0.000000e+00
1.379193e-05    -6.581359e-05    0.000000e+00
1.847345e-05    -6.598280e-05    0.000000e+00
2.322726e-05    -6.619952e-05    0.000000e+00
-2.376938e-05    -7.105028e-05    0.000000e+00
-1.890826e-05    -7.084792e-05    0.000000e+00
-1.411869e-05    -7.068984e-05    0.000000e+00
-9.382711e-06    -7.057656e-05    0.000000e+00
-4.682436e-06    -7.050845e-05    0.000000e+00
-1.279020e-18    -7.048572e-05    0.000000e+00
4.682436e-06    -7.050845e-05    0.000000e+00
9.382711e-06    -7.057656e-05    0.000000e+00
1.411869e-05    -7.068984e-05    0.000000e+00
1.890826e-05    -7.084792e-05    0.000000e+00
2.376938e-05    -7.105028e-05    0.000000e+00
-2.427439e-05    -7.600415e-05    0.000000e+00
-1.931344e-05    -7.581600e-05    0.000000e+00
-1.442326e-05    -7.566893e-05    0.000000e+00
-9.586092e-06    -7.556350e-05    0.000000e+00
-4.784225e-06    -7.550008e-05    0.000000e+00
-1.307395e-18    -7.547892e-05    0.000000e+00
4.784225e-06    -7.550008e-05    0.000000e+00
9.586092e-06    -7.556350e-05    0.000000e+00
1.442326e-05    -7.566893e-05    0.000000e+00
1.931344e-05    -7.581600e-05    0.000000e+00
2.427439e-05    -7.600415e-05    0.000000e+00
-2.474266e-05    -8.105363e-05    0.000000e+00
-1.968932e-05    -8.087954e-05    0.000000e+00
-1.470591e-05    -8.074336e-05    0.000000e+00
-9.774873e-06    -8.064568e-05    0.000000e+00
-4.878721e-06    -8.058690e-05    0.000000e+00
-1.341277e-18    -8.056728e-05    0.000000e+00
4.878721e-06    -8.058690e-05    0.000000e+00
9.774873e-06    -8.064568e-05    0.000000e+00
1.470591e-05    -8.074336e-05    0.000000e+00
1.968932e-05    -8.087954e-05    0.000000e+00
2.474266e-05    -8.105363e-05    0.000000e+00
-2.517464e-05    -8.619133e-05    0.000000e+00
-2.003624e-05    -8.603113e-05    0.000000e+00
-1.496688e-05    -8.590570e-05    0.000000e+00
-9.949225e-06    -8.581568e-05    0.000000e+00
-4.966009e-06    -8.576148e-05    0.000000e+00
-1.370499e-18    -8.574339e-05    0.000000e+00
4.966009e-06    -8.576148e-05    0.000000e+00
9.949225e-06    -8.581568e-05    0.000000e+00
1.496688e-05    -8.590570e-05    0.000000e+00
2.003624e-05    -8.603113e-05    0.000000e+00
2.517464e-05    -8.619133e-05    0.000000e+00
-2.557077e-05    -9.140992e-05    0.000000e+00
-2.035456e-05    -9.126342e-05    0.000000e+00
-1.520645e-05    -9.114861e-05    0.000000e+00
-1.010933e-05    -9.106614e-05    0.000000e+00
-5.046179e-06    -9.101647e-05    0.000000e+00
-1.360758e-18    -9.099989e-05    0.000000e+00
5.046179e-06    -9.101647e-05    0.000000e+00
1.010933e-05    -9.106614e-05    0.000000e+00
1.520645e-05    -9.114861e-05    0.000000e+00
2.035456e-05    -9.126342e-05    0.000000e+00
2.557077e-05    -9.140992e-05    0.000000e+00
-2.593154e-05    -9.670216e-05    0.000000e+00
-2.064467e-05    -9.656917e-05    0.000000e+00
-1.542490e-05    -9.646483e-05    0.000000e+00
-1.025538e-05    -9.638982e-05    0.000000e+00
-5.119325e-06    -9.634462e-05    0.000000e+00
-1.361605e-18    -9.632953e-05    0.000000e+00
5.119325e-06    -9.634462e-05    0.000000e+00
1.025538e-05    -9.638982e-05    0.000000e+00
1.542490e-05    -9.646483e-05    0.000000e+00
2.064467e-05    -9.656917e-05    0.000000e+00
2.593154e-05    -9.670216e-05    0.000000e+00
-2.625745e-05    -1.020609e-04    0.000000e+00
-2.090698e-05    -1.019412e-04    0.000000e+00
-1.562254e-05    -1.018472e-04    0.000000e+00
-1.038756e-05    -1.017796e-04    0.000000e+00
-5.185538e-06    -1.017388e-04    0.000000e+00
-1.419627e-18    -1.017252e-04    0.000000e+00
5.185538e-06    -1.017388e-04    0.000000e+00
1.038756e-05    -1.017796e-04    0.000000e+00
1.562254e-05    -1.018472e-04    0.000000e+00
2.090698e-05    -1.019412e-04    0.000000e+00
2.625745e-05    -1.020609e-04    0.000000e+00
-2.654905e-05    -1.074791e-04    0.000000e+00
-2.114193e-05    -1.073725e-04    0.000000e+00
-1.579968e-05    -1.072887e-04    0.000000e+00
-1.050606e-05    -1.072283e-04    0.000000e+00
-5.244903e-06    -1.071919e-04    0.000000e+00
-1.479343e-18    -1.071798e-04    0.000000e+00
5.244903e-06    -1.071919e-04    0.000000e+00
1.050606e-05    -1.072283e-04    0.000000e+00
1.579968e-05    -1.072887e-04    0.000000e+00
2.114193e-05    -1.073725e-04    0.000000e+00
2.654905e-05    -1.074791e-04    0.000000e+00
-2.680694e-05    -1.129498e-04    0.000000e+00
-2.134999e-05    -1.128561e-04    0.000000e+00
-1.595661e-05    -1.127823e-04    0.000000e+00
-1.061104e-05    -1.127292e-04    0.000000e+00
-5.297479e-06    -1.126972e-04    0.000000e+00
-1.575905e-18    -1.126865e-04    0.000000e+00
5.297479e-06    -1.126972e-04    0.000000e+00
1.061104e-05    -1.127292e-04    0.000000e+00
1.595661e-05    -1.127823e-04    0.000000e+00
2.134999e-05    -1.128561e-04    0.000000e+00
2.680694e-05    -1.129498e-04    0.000000e+00
-2.703182e-05    -1.184661e-04    0.000000e+00
-2.153165e-05    -1.183850e-04    0.000000e+00
-1.609361e-05    -1.183212e-04    0.000000e+00
-1.070257e-05    -1.182753e-04    0.000000e+00
-5.343273e-06    -1.182478e-04    0.000000e+00
-1.666961e-18    -1.182387e-04    0.000000e+00
5.343273e-06    -1.182478e-04    0.000000e+00
1.070257e-05    -1.182753e-04    0.000000e+00
1.609361e-05    -1.183212e-04    0.000000e+00
2.153165e-05    -1.183850e-04    0.000000e+00
2.703182e-05    -1.184661e-04    0.000000e+00
-2.722455e-05    -1.240214e-04    0.000000e+00
-2.168749e-05    -1.239526e-04    0.000000e+00
-1.621085e-05    -1.238986e-04    0.000000e+00
-1.078063e-05    -1.238602e-04    0.000000e+00
-5.382208e-06    -1.238374e-04    0.000000e+00
-1.722441e-18    -1.238298e-04    0.000000e+00
5.382208e-06    -1.238374e-04    0.000000e+00
1.078063e-05    -1.238602e-04    0.000000e+00
1.621085e-05    -1.238986e-04    0.000000e+00
2.168749e-05    -1.239526e-04    0.000000e+00
2.722455e-05    -1.240214e-04    0.000000e+00
-2.738636e-05    -1.296091e-04    0.000000e+00
-2.181812e-05    -1.295522e-04    0.000000e+00
-1.630837e-05    -1.295081e-04    0.000000e+00
-1.084498e-05    -1.294774e-04    0.000000e+00
-5.414095e-06    -1.294595e-04    0.000000e+00
-1.774111e-18    -1.294536e-04    0.000000e+00
5.414095e-06    -1.294595e-04    0.000000e+00
1.084498e-05    -1.294774e-04    0.000000e+00
1.630837e-05    -1.295081e-04    0.000000e+00
2.181812e-05    -1.295522e-04    0.000000e+00
2.738636e-05    -1.296091e-04    0.000000e+00
-2.751905e-05    -1.352233e-04    0.000000e+00
-2.192417e-05    -1.351777e-04    0.000000e+00
-1.638597e-05    -1.351436e-04    0.000000e+00
-1.089522e-05    -1.351207e-04    0.000000e+00
-5.438684e-06    -1.351078e-04    0.000000e+00
-1.836367e-18    -1.351036e-04    0.000000e+00
5.438684e-06    -1.351078e-04    0.000000e+00
1.089522e-05    -1.351207e-04    0.000000e+00
1.638597e-05    -1.351436e-04    0.000000e+00
2.192417e-05    -1.351777e-04    0.000000e+00
2.751905e-05    -1.352233e-04    0.000000e+00
-2.762542e-05    -1.408596e-04    0.000000e+00
-2.200615e-05    -1.408246e-04    0.000000e+00
-1.644325e-05    -1.408001e-04    0.000000e+00
-1.093109e-05    -1.407844e-04    0.000000e+00
-5.455963e-06    -1.407754e-04    0.000000e+00
-1.792745e-18    -1.407725e-04    0.000000e+00
5.455963e-06    -1.407754e-04    0.000000e+00
1.093109e-05    -1.407844e-04    0.000000e+00
1.644325e-05    -1.408001e-04    0.000000e+00
2.200615e-05    -1.408246e-04    0.000000e+00
2.762542e-05    -1.408596e-04    0.000000e+00
-2.770949e-05    -1.465174e-04    0.000000e+00
-2.206407e-05    -1.464914e-04    0.000000e+00
-1.648034e-05    -1.464746e-04    0.000000e+00
-1.095371e-05    -1.464620e-04    0.000000e+00
-5.466865e-06    -1.464534e-04    0.000000e+00
-1.696607e-18    -1.464503e-04    0.000000e+00
5.466865e-06    -1.464534e-04    0.000000e+00
1.095371e-05    -1.464620e-04    0.000000e+00
1.648034e-05    -1.464746e-04    0.000000e+00
2.206407e-05    -1.464914e-04    0.000000e+00
2.770949e-05    -1.465174e-04    0.000000e+00
-2.777432e-05    -1.522045e-04    0.000000e+00
-2.209750e-05    -1.521859e-04    0.000000e+00
-1.650158e-05    -1.521660e-04    0.000000e+00
-1.096798e-05    -1.521439e-04    0.000000e+00
-5.474170e-06    -1.521274e-04    0.000000e+00
-1.702536e-18    -1.521213e-04    0.000000e+00
5.474170e-06    -1.521274e-04    0.000000e+00
1.096798e-05    -1.521439e-04    0.000000e+00
1.650158e-05    -1.521660e-04    0.000000e+00
2.209750e-05    -1.521859e-04    0.000000e+00
2.777432e-05    -1.522045e-04    0.000000e+00
-2.780861e-05    -1.579622e-04    0.000000e+00
-2.211852e-05    -1.579265e-04    0.000000e+00
-1.652252e-05    -1.578658e-04    0.000000e+00
-1.098408e-05    -1.578104e-04    0.000000e+00
-5.482909e-06    -1.577733e-04    0.000000e+00
-1.691313e-18    -1.577603e-04    0.000000e+00
5.482909e-06    -1.577733e-04    0.000000e+00
1.098408e-05    -1.578104e-04    0.000000e+00
1.652252e-05    -1.578658e-04    0.000000e+00
2.211852e-05    -1.579265e-04    0.000000e+00
2.780861e-05    -1.579622e-04    0.000000e+00

CELL_DATA      400
TENSORS Element_Stress2.200000e-01 double
2.475882e+06 3.527965e+05        0
3.527965e+05 5.674315e+05        0
       0        0        0

1.683585e+06 1.868389e+05        0
1.868389e+05 4.842506e+05        0
       0        0        0

1.168565e+06 6.951121e+04        0
6.951121e+04 3.727601e+05        0
       0        0        0

6.879761e+05 7.633606e+03        0
7.633606e+03 2.288146e+05        0
       0        0        0

2.276167e+05 -2.059744e+04        0
-2.059744e+04 7.704195e+04        0
       0        0        0

-2.275805e+05 -2.059140e+04        0
-2.059140e+04 -7.708525e+04        0
       0        0        0

-6.871405e+05 7.617503e+03        0
7.617503e+03 -2.285445e+05        0
       0        0        0

-1.166025e+06 6.935744e+04        0
6.935744e+04 -3.718282e+05        0
       0        0        0

-1.678158e+06 1.862828e+05        0
1.862828e+05 -4.821951e+05        0
       0        0        0

-2.464469e+06 3.512748e+05        0
3.512748e+05 -5.635419e+05        0
       0        0        0

2.224679e+06 6.116541e+04        0
6.116541e+04 6.252567e+03        0
       0        0        0

1.787997e+06 1.735383e+05        0
1.735383e+05 1.761960e+05        0
       0        0        0

1.225288e+06 1.460803e+05        0
1.460803e+05 1.795499e+05        0
       0        0        0

7.226278e+05 1.156782e+05        0
1.156782e+05 1.252363e+05        0
       0        0        0

2.378407e+05 9.911159e+04        0
9.911159e+04 4.347138e+04        0
       0        0        0

-2.398196e+05 9.907312e+04        0
9.907312e+04 -4.554729e+04        0
       0        0        0

-7.237010e+05 1.155443e+05        0
1.155443e+05 -1.269952e+05        0
       0        0        0

-1.224417e+06 1.458020e+05        0
1.458020e+05 -1.806150e+05        0
       0        0        0

-1.783544e+06 1.730772e+05        0
1.730772e+05 -1.758937e+05        0
       0        0        0

-2.216487e+06 6.099279e+04        0
6.099279e+04 -4.489827e+03        0
       0        0        0

2.139181e+06 2.473365e+04        0
2.473365e+04 8.760790e+03        0
       0        0        0

1.714746e+06 1.018752e+05        0
1.018752e+05 2.413174e+04        0
       0        0        0

1.231734e+06 1.498103e+05        0
1.498103e+05 5.798679e+04        0
       0        0        0

7.302434e+05 1.592069e+05        0
1.592069e+05 4.883177e+04        0
       0        0        0

2.401601e+05 1.596999e+05        0
1.596999e+05 1.672853e+04        0
       0        0        0

-2.463802e+05 1.596440e+05        0
1.596440e+05 -2.305432e+04        0
       0        0        0

-7.355205e+05 1.590411e+05        0
1.590411e+05 -5.483417e+04        0
       0        0        0

-1.235002e+06 1.495538e+05        0
1.495538e+05 -6.326110e+04        0
       0        0        0

-1.714997e+06 1.016443e+05        0
1.016443e+05 -2.823550e+04        0
       0        0        0

-2.135984e+06 2.466472e+04        0
2.466472e+04 -1.152215e+04        0
       0        0        0

2.079090e+06 2.272372e+04        0
2.272372e+04 -6.611810e+03        0
       0        0        0

1.648756e+06 8.387752e+04        0
8.387752e+04 -3.644243e+03        0
       0        0        0

1.190472e+06 1.373525e+05        0
1.373525e+05 3.147186e+03        0
       0        0        0

7.148052e+05 1.692385e+05        0
1.692385e+05 6.987788e+03        0
       0        0        0

2.338950e+05 1.819053e+05        0
1.819053e+05 -4.794145e+02        0
       0        0        0

-2.462411e+05 1.818467e+05        0
1.818467e+05 -1.197147e+04        0
       0        0        0

-7.262323e+05 1.690763e+05        0
1.690763e+05 -1.912007e+04        0
       0        0        0

-1.200040e+06 1.371376e+05        0
1.371376e+05 -1.460290e+04        0
       0        0        0

-1.655568e+06 8.369819e+04        0
8.369819e+04 -6.741904e+03        0
       0        0        0

-2.082214e+06 2.266369e+04        0
2.266369e+04 -2.163106e+03        0
       0        0        0

2.022103e+06 2.637228e+04        0
2.637228e+04 -9.896437e+03        0
       0        0        0

1.587251e+06 8.216144e+04        0
8.216144e+04 -1.395227e+04        0
       0        0        0

1.142771e+06 1.325899e+05        0
1.325899e+05 -1.352983e+04        0
       0        0        0

6.860439e+05 1.680721e+05        0
1.680721e+05 -1.144221e+04        0
       0        0        0

2.225984e+05 1.856030e+05        0
1.856030e+05 -1.016232e+04        0
       0        0        0

-2.426408e+05 1.855469e+05        0
1.855469e+05 -9.979175e+03        0
       0        0        0

-7.052354e+05 1.679209e+05        0
1.679209e+05 -8.406708e+03        0
       0        0        0

-1.160255e+06 1.323931e+05        0
1.323931e+05 -5.705676e+03        0
       0        0        0

-1.602160e+06 8.199313e+04        0
8.199313e+04 -4.287235e+03        0
       0        0        0

-2.033447e+06 2.630423e+04        0
2.630423e+04 -6.817704e+03        0
       0        0        0

1.961028e+06 2.959083e+04        0
2.959083e+04 -1.435996e+04        0
       0        0        0

1.529732e+06 8.458947e+04        0
8.458947e+04 -1.798633e+04        0
       0        0        0

1.095591e+06 1.315236e+05        0
1.315236e+05 -1.982901e+04        0
       0        0        0

6.549234e+05 1.655292e+05        0
1.655292e+05 -1.876848e+04        0
       0        0        0

2.091258e+05 1.831500e+05        0
1.831500e+05 -1.616266e+04        0
       0        0        0

-2.382100e+05 1.830973e+05        0
1.830973e+05 -1.301333e+04        0
       0        0        0

-6.832407e+05 1.653869e+05        0
1.653869e+05 -1.015695e+04        0
       0        0        0

-1.122368e+06 1.313362e+05        0
1.313362e+05 -8.572069e+03        0
       0        0        0

-1.554166e+06 8.442187e+04        0
8.442187e+04 -9.563128e+03        0
       0        0        0

-1.982214e+06 2.951657e+04        0
2.951657e+04 -1.190455e+04        0
       0        0        0

1.896078e+06 3.162994e+04        0
3.162994e+04 -1.932667e+04        0
       0        0        0

1.473503e+06 8.701104e+04        0
8.701104e+04 -2.188647e+04        0
       0        0        0

1.050542e+06 1.317079e+05        0
1.317079e+05 -2.357453e+04        0
       0        0        0

6.244335e+05 1.634836e+05        0
1.634836e+05 -2.320792e+04        0
       0        0        0

1.953619e+05 1.799895e+05        0
1.799895e+05 -2.109295e+04        0
       0        0        0

-2.346724e+05 1.799398e+05        0
1.799398e+05 -1.830236e+04        0
       0        0        0

-6.630728e+05 1.633483e+05        0
1.633483e+05 -1.599448e+04        0
       0        0        0

-1.087831e+06 1.315267e+05        0
1.315267e+05 -1.522460e+04        0
       0        0        0

-1.508736e+06 8.684413e+04        0
8.684413e+04 -1.626064e+04        0
       0        0        0

-1.928484e+06 3.155291e+04        0
3.155291e+04 -1.785663e+04        0
       0        0        0

1.828400e+06 3.273895e+04        0
3.273895e+04 -2.506553e+04        0
       0        0        0

1.417555e+06 8.858495e+04        0
8.858495e+04 -2.659251e+04        0
       0        0        0

1.006971e+06 1.320280e+05        0
1.320280e+05 -2.772456e+04        0
       0        0        0

5.950448e+05 1.621414e+05        0
1.621414e+05 -2.759639e+04        0
       0        0        0

1.816341e+05 1.775999e+05        0
1.775999e+05 -2.626054e+04        0
       0        0        0

-2.322224e+05 1.775525e+05        0
1.775525e+05 -2.440625e+04        0
       0        0        0

-6.450653e+05 1.620118e+05        0
1.620118e+05 -2.294647e+04        0
       0        0        0

-1.055849e+06 1.318525e+05        0
1.318525e+05 -2.255815e+04        0
       0        0        0

-1.464694e+06 8.842054e+04        0
8.842054e+04 -2.326870e+04        0
       0        0        0

-1.873167e+06 3.266175e+04        0
3.266175e+04 -2.417656e+04        0
       0        0        0

1.759062e+06 3.326675e+04        0
3.326675e+04 -3.141039e+04        0
       0        0        0

1.361468e+06 8.940085e+04        0
8.940085e+04 -3.222589e+04        0
       0        0        0

9.641741e+05 1.321828e+05        0
1.321828e+05 -3.283738e+04        0
       0        0        0

5.663666e+05 1.612828e+05        0
1.612828e+05 -3.276016e+04        0
       0        0        0

1.679080e+05 1.760442e+05        0
1.760442e+05 -3.197567e+04        0
       0        0        0

-2.306986e+05 1.759989e+05        0
1.759989e+05 -3.088764e+04        0
       0        0        0

-6.286958e+05 1.611583e+05        0
1.611583e+05 -3.005417e+04        0
       0        0        0

-1.025574e+06 1.320131e+05        0
1.320131e+05 -2.987050e+04        0
       0        0        0

-1.421458e+06 8.924053e+04        0
8.924053e+04 -3.030158e+04        0
       0        0        0

-1.817135e+06 3.319095e+04        0
3.319095e+04 -3.084067e+04        0
       0        0        0

1.688780e+06 3.347128e+04        0
3.347128e+04 -3.823896e+04        0
       0        0        0

1.305140e+06 8.971550e+04        0
8.971550e+04 -3.859607e+04        0
       0        0        0

9.216638e+05 1.321457e+05        0
1.321457e+05 -3.883307e+04        0
       0        0        0

5.379979e+05 1.606829e+05        0
1.606829e+05 -3.871765e+04        0
       0        0        0

1.540732e+05 1.750416e+05        0
1.750416e+05 -3.823935e+04        0
       0        0        0

-2.298635e+05 1.749982e+05        0
1.749982e+05 -3.761841e+04        0
       0        0        0

-6.134330e+05 1.605633e+05        0
1.605633e+05 -3.716784e+04        0
       0        0        0

-9.963835e+05 1.319820e+05        0
1.319820e+05 -3.710172e+04        0
       0        0        0

-1.378774e+06 8.956028e+04        0
8.956028e+04 -3.739793e+04        0
       0        0        0

-1.760940e+06 3.339769e+04        0
3.339769e+04 -3.780877e+04        0
       0        0        0

1.617993e+06 3.350838e+04        0
3.350838e+04 -4.543950e+04        0
       0        0        0

1.248590e+06 8.973608e+04        0
8.973608e+04 -4.550317e+04        0
       0        0        0

8.791920e+05 1.319569e+05        0
1.319569e+05 -4.548399e+04        0
       0        0        0

5.096855e+05 1.601870e+05        0
1.601870e+05 -4.529674e+04        0
       0        0        0

1.400664e+05 1.743263e+05        0
1.743263e+05 -4.495142e+04        0
       0        0        0

-2.295275e+05 1.742847e+05        0
1.742847e+05 -4.457218e+04        0
       0        0        0

-5.988950e+05 1.600722e+05        0
1.600722e+05 -4.433032e+04        0
       0        0        0

-9.678942e+05 1.317994e+05        0
1.317994e+05 -4.434514e+04        0
       0        0        0

-1.336521e+06 8.958650e+04        0
8.958650e+04 -4.461737e+04        0
       0        0        0

-1.704875e+06 3.343742e+04        0
3.343742e+04 -4.504913e+04        0
       0        0        0

1.546966e+06 3.346155e+04        0
3.346155e+04 -5.292237e+04        0
       0        0        0

1.191885e+06 8.959056e+04        0
8.959056e+04 -5.278678e+04        0
       0        0        0

8.366660e+05 1.316560e+05        0
1.316560e+05 -5.258781e+04        0
       0        0        0

4.813154e+05 1.597049e+05        0
1.597049e+05 -5.231775e+04        0
       0        0        0

1.258751e+05 1.737215e+05        0
1.737215e+05 -5.200557e+04        0
       0        0        0

-2.295539e+05 1.736815e+05        0
1.736815e+05 -5.173108e+04        0
       0        0        0

-5.848425e+05 1.595947e+05        0
1.595947e+05 -5.159562e+04        0
       0        0        0

-9.398861e+05 1.315048e+05        0
1.315048e+05 -5.167480e+04        0
       0        0        0

-1.294635e+06 8.944691e+04        0
8.944691e+04 -5.198944e+04        0
       0        0        0

-1.649072e+06 3.339339e+04        0
3.339339e+04 -5.252015e+04        0
       0        0        0

1.475867e+06 3.337122e+04        0
3.337122e+04 -6.061270e+04        0
       0        0        0

1.135104e+06 8.934735e+04        0
8.934735e+04 -6.032899e+04        0
       0        0        0

7.940816e+05 1.312681e+05        0
1.312681e+05 -5.999423e+04        0
       0        0        0

4.528628e+05 1.591878e+05        0
1.591878e+05 -5.964001e+04        0
       0        0        0

1.115219e+05 1.731260e+05        0
1.731260e+05 -5.930971e+04        0
       0        0        0

-2.298451e+05 1.730878e+05        0
1.730878e+05 -5.906686e+04        0
       0        0        0

-5.711299e+05 1.590824e+05        0
1.590824e+05 -5.898332e+04        0
       0        0        0

-9.122328e+05 1.311233e+05        0
1.311233e+05 -5.911876e+04        0
       0        0        0

-1.253073e+06 8.920975e+04        0
8.920975e+04 -5.950889e+04        0
       0        0        0

-1.593576e+06 3.330593e+04        0
3.330593e+04 -6.017402e+04        0
       0        0        0

1.404816e+06 3.325502e+04        0
3.325502e+04 -6.844559e+04        0
       0        0        0

1.078331e+06 8.903887e+04        0
8.903887e+04 -6.804168e+04        0
       0        0        0

7.514782e+05 1.308061e+05        0
1.308061e+05 -6.759563e+04        0
       0        0        0

4.243518e+05 1.586113e+05        0
1.586113e+05 -6.715943e+04        0
       0        0        0

9.704845e+04 1.724870e+05        0
1.724870e+05 -6.678739e+04        0
       0        0        0

-2.303272e+05 1.724505e+05        0
1.724505e+05 -6.654041e+04        0
       0        0        0

-5.576652e+05 1.585105e+05        0
1.585105e+05 -6.648163e+04        0
       0        0        0

-8.848576e+05 1.306677e+05        0
1.306677e+05 -6.666826e+04        0
       0        0        0

-1.211801e+06 8.890737e+04        0
8.890737e+04 -6.714723e+04        0
       0        0        0

-1.538391e+06 3.319263e+04        0
3.319263e+04 -6.795945e+04        0
       0        0        0

1.333911e+06 3.311965e+04        0
3.311965e+04 -7.636268e+04        0
       0        0        0

1.021647e+06 8.867852e+04        0
8.867852e+04 -7.585513e+04        0
       0        0        0

7.089147e+05 1.302749e+05        0
1.302749e+05 -7.531195e+04        0
       0        0        0

3.958292e+05 1.579626e+05        0
1.579626e+05 -7.479705e+04        0
       0        0        0

8.250496e+04 1.717782e+05        0
1.717782e+05 -7.437370e+04        0
       0        0        0

-2.309400e+05 1.717434e+05        0
1.717434e+05 -7.410632e+04        0
       0        0        0

-5.443850e+05 1.578665e+05        0
1.578665e+05 -7.405906e+04        0
       0        0        0

-8.577087e+05 1.301430e+05        0
1.301430e+05 -7.429276e+04        0
       0        0        0

-1.170790e+06 8.855314e+04        0
8.855314e+04 -7.486353e+04        0
       0        0        0

-1.483505e+06 3.306017e+04        0
3.306017e+04 -7.582442e+04        0
       0        0        0

1.263240e+06 3.296700e+04        0
3.296700e+04 -8.431016e+04        0
       0        0        0

9.651298e+05 8.827056e+04        0
8.827056e+04 -8.371048e+04        0
       0        0        0

6.664568e+05 1.296755e+05        0
1.296755e+05 -8.307936e+04        0
       0        0        0

3.673512e+05 1.572348e+05        0
1.572348e+05 -8.248931e+04        0
       0        0        0

6.794410e+04 1.709865e+05        0
1.709865e+05 -8.201161e+04        0
       0        0        0

-2.316314e+05 1.709534e+05        0
1.709534e+05 -8.171681e+04        0
       0        0        0

-5.312405e+05 1.571434e+05        0
1.571434e+05 -8.167429e+04        0
       0        0        0

-8.307469e+05 1.295500e+05        0
1.295500e+05 -8.195116e+04        0
       0        0        0

-1.130013e+06 8.815131e+04        0
8.815131e+04 -8.261172e+04        0
       0        0        0

-1.428901e+06 3.291042e+04        0
3.291042e+04 -8.371789e+04        0
       0        0        0

1.192888e+06 3.279708e+04        0
3.279708e+04 -9.223781e+04        0
       0        0        0

9.088569e+05 8.781535e+04        0
8.781535e+04 -9.155548e+04        0
       0        0        0

6.241716e+05 1.290065e+05        0
1.290065e+05 -9.084345e+04        0
       0        0        0

3.389764e+05 1.564236e+05        0
1.564236e+05 -9.018181e+04        0
       0        0        0

5.341809e+04 1.701049e+05        0
1.701049e+05 -8.964950e+04        0
       0        0        0

-2.323545e+05 1.700735e+05        0
1.700735e+05 -8.932429e+04        0
       0        0        0

-5.181910e+05 1.563369e+05        0
1.563369e+05 -8.928251e+04        0
       0        0        0

-8.039399e+05 1.288874e+05        0
1.288874e+05 -8.959859e+04        0
       0        0        0

-1.089448e+06 8.770219e+04        0
8.770219e+04 -9.034474e+04        0
       0        0        0

-1.374563e+06 3.274341e+04        0
3.274341e+04 -9.159077e+04        0
       0        0        0

1.122934e+06 3.260932e+04        0
3.260932e+04 -1.000985e+05        0
       0        0        0

8.529020e+05 8.731173e+04        0
8.731173e+04 -9.934233e+04        0
       0        0        0

5.821249e+05 1.282660e+05        0
1.282660e+05 -9.855560e+04        0
       0        0        0

3.107624e+05 1.555256e+05        0
1.555256e+05 -9.782588e+04        0
       0        0        0

3.897724e+04 1.691291e+05        0
1.691291e+05 -9.723978e+04        0
       0        0        0

-2.330659e+05 1.690994e+05        0
1.690994e+05 -9.688276e+04        0
       0        0        0

-5.052008e+05 1.554436e+05        0
1.554436e+05 -9.683879e+04        0
       0        0        0

-7.772601e+05 1.281533e+05        0
1.281533e+05 -9.719009e+04        0
       0        0        0

-1.049076e+06 8.720466e+04        0
8.720466e+04 -9.801676e+04        0
       0        0        0

-1.320479e+06 3.255853e+04        0
3.255853e+04 -9.939644e+04        0
       0        0        0

1.053458e+06 3.240301e+04        0
3.240301e+04 -1.078483e+05        0
       0        0        0

7.973369e+05 8.675817e+04        0
8.675817e+04 -1.070267e+05        0
       0        0        0

5.403805e+05 1.274518e+05        0
1.274518e+05 -1.061712e+05        0
       0        0        0

2.827651e+05 1.545381e+05        0
1.545381e+05 -1.053769e+05        0
       0        0        0

2.466942e+04 1.680559e+05        0
1.680559e+05 -1.047382e+05        0
       0        0        0

-2.337257e+05 1.680278e+05        0
1.680278e+05 -1.043486e+05        0
       0        0        0

-4.922378e+05 1.544607e+05        0
1.544607e+05 -1.042999e+05        0
       0        0        0

-7.506834e+05 1.273455e+05        0
1.273455e+05 -1.046823e+05        0
       0        0        0

-1.008879e+06 8.665714e+04        0
8.665714e+04 -1.055842e+05        0
       0        0        0

-1.266639e+06 3.235508e+04        0
3.235508e+04 -1.070910e+05        0
       0        0        0

9.845383e+05 3.217749e+04        0
3.217749e+04 -1.154457e+05        0
       0        0        0

7.422311e+05 8.615310e+04        0
8.615310e+04 -1.145674e+05        0
       0        0        0

4.990001e+05 1.265617e+05        0
1.265617e+05 -1.136490e+05        0
       0        0        0

2.550379e+05 1.534585e+05        0
1.534585e+05 -1.127936e+05        0
       0        0        0

1.053982e+04 1.668824e+05        0
1.668824e+05 -1.121037e+05        0
       0        0        0

-2.342968e+05 1.668559e+05        0
1.668559e+05 -1.116807e+05        0
       0        0        0

-4.792731e+05 1.533857e+05        0
1.533857e+05 -1.116248e+05        0
       0        0        0

-7.241893e+05 1.264617e+05        0
1.264617e+05 -1.120344e+05        0
       0        0        0

-9.688449e+05 8.605806e+04        0
8.605806e+04 -1.130059e+05        0
       0        0        0

-1.213040e+06 3.213241e+04        0
3.213241e+04 -1.146333e+05        0
       0        0        0

9.162500e+05 3.193220e+04        0
3.193220e+04 -1.228526e+05        0
       0        0        0

6.876521e+05 8.549508e+04        0
8.549508e+04 -1.219260e+05        0
       0        0        0

4.580428e+05 1.255939e+05        0
1.255939e+05 -1.209506e+05        0
       0        0        0

2.276316e+05 1.522845e+05        0
1.522845e+05 -1.200377e+05        0
       0        0        0

-3.369134e+03 1.656060e+05        0
1.656060e+05 -1.192979e+05        0
       0        0        0

-2.347453e+05 1.655813e+05        0
1.655813e+05 -1.188410e+05        0
       0        0        0

-4.662812e+05 1.522162e+05        0
1.522162e+05 -1.187755e+05        0
       0        0        0

-6.977603e+05 1.255001e+05        0
1.255001e+05 -1.192082e+05        0
       0        0        0

-9.289655e+05 8.540598e+04        0
8.540598e+04 -1.202439e+05        0
       0        0        0

-1.159680e+06 3.188994e+04        0
3.188994e+04 -1.219851e+05        0
       0        0        0

8.486672e+05 3.166665e+04        0
3.166665e+04 -1.300336e+05        0
       0        0        0

6.336652e+05 8.478284e+04        0
8.478284e+04 -1.290670e+05        0
       0        0        0

4.175653e+05 1.245464e+05        0
1.245464e+05 -1.280406e+05        0
       0        0        0

2.005945e+05 1.510138e+05        0
1.510138e+05 -1.270737e+05        0
       0        0        0

-1.701778e+04 1.642246e+05        0
1.642246e+05 -1.262855e+05        0
       0        0        0

-2.350400e+05 1.642014e+05        0
1.642014e+05 -1.257941e+05        0
       0        0        0

-4.532395e+05 1.509500e+05        0
1.509500e+05 -1.257166e+05        0
       0        0        0

-6.713824e+05 1.244588e+05        0
1.244588e+05 -1.261683e+05        0
       0        0        0

-8.892350e+05 8.469962e+04        0
8.469962e+04 -1.272628e+05        0
       0        0        0

-1.106563e+06 3.162718e+04        0
3.162718e+04 -1.291112e+05        0
       0        0        0

7.818617e+05 3.138042e+04        0
3.138042e+04 -1.369560e+05        0
       0        0        0

5.803332e+05 8.401527e+04        0
8.401527e+04 -1.359580e+05        0
       0        0        0

3.776218e+05 1.234175e+05        0
1.234175e+05 -1.348864e+05        0
       0        0        0

1.739720e+05 1.496444e+05        0
1.496444e+05 -1.338691e+05        0
       0        0        0

-3.036921e+04 1.627358e+05        0
1.627358e+05 -1.330338e+05        0
       0        0        0

-2.351528e+05 1.627143e+05        0
1.627143e+05 -1.325074e+05        0
       0        0        0

-4.401284e+05 1.495851e+05        0
1.495851e+05 -1.324155e+05        0
       0        0        0

-6.450450e+05 1.233361e+05        0
1.233361e+05 -1.328823e+05        0
       0        0        0

-8.496512e+05 8.393784e+04        0
8.393784e+04 -1.340301e+05        0
       0        0        0

-1.053696e+06 3.134370e+04        0
3.134370e+04 -1.359789e+05        0
       0        0        0

7.159029e+05 3.107318e+04        0
3.107318e+04 -1.435902e+05        0
       0        0        0

5.277170e+05 8.319140e+04        0
8.319140e+04 -1.425692e+05        0
       0        0        0

3.382643e+05 1.222059e+05        0
1.222059e+05 -1.414582e+05        0
       0        0        0

1.478072e+05 1.481746e+05        0
1.481746e+05 -1.403941e+05        0
       0        0        0

-4.338927e+04 1.611377e+05        0
1.611377e+05 -1.395132e+05        0
       0        0        0

-2.350583e+05 1.611177e+05        0
1.611177e+05 -1.389512e+05        0
       0        0        0

-4.269317e+05 1.481196e+05        0
1.481196e+05 -1.388426e+05        0
       0        0        0

-6.187405e+05 1.221305e+05        0
1.221305e+05 -1.393205e+05        0
       0        0        0

-8.102158e+05 8.311968e+04        0
8.311968e+04 -1.405163e+05        0
       0        0        0

-1.001089e+06 3.103916e+04        0
3.103916e+04 -1.425588e+05        0
       0        0        0

6.508582e+05 3.074463e+04        0
3.074463e+04 -1.499095e+05        0
       0        0        0

4.758748e+05 8.231040e+04        0
8.231040e+04 -1.488736e+05        0
       0        0        0

2.995422e+05 1.209103e+05        0
1.209103e+05 -1.477292e+05        0
       0        0        0

1.221407e+05 1.466027e+05        0
1.466027e+05 -1.466218e+05        0
       0        0        0

-5.604653e+04 1.594284e+05        0
1.594284e+05 -1.456968e+05        0
       0        0        0

-2.347342e+05 1.594101e+05        0
1.594101e+05 -1.450986e+05        0
       0        0        0

-4.136360e+05 1.465520e+05        0
1.465520e+05 -1.449710e+05        0
       0        0        0

-5.924647e+05 1.208407e+05        0
1.208407e+05 -1.454562e+05        0
       0        0        0

-7.709335e+05 8.224428e+04        0
8.224428e+04 -1.466945e+05        0
       0        0        0

-9.487559e+05 3.071328e+04        0
3.071328e+04 -1.488239e+05        0
       0        0        0

5.867925e+05 3.039459e+04        0
3.039459e+04 -1.558898e+05        0
       0        0        0

4.248628e+05 8.137151e+04        0
8.137151e+04 -1.548471e+05        0
       0        0        0

2.615024e+05 1.195293e+05        0
1.195293e+05 -1.536749e+05        0
       0        0        0

9.701013e+04 1.449272e+05        0
1.449272e+05 -1.525278e+05        0
       0        0        0

-6.831229e+04 1.576065e+05        0
1.576065e+05 -1.515602e+05        0
       0        0        0

-2.341610e+05 1.575897e+05        0
1.575897e+05 -1.509257e+05        0
       0        0        0

-4.002309e+05 1.448807e+05        0
1.448807e+05 -1.507770e+05        0
       0        0        0

-5.662165e+05 1.194654e+05        0
1.194654e+05 -1.512655e+05        0
       0        0        0

-7.318123e+05 8.131088e+04        0
8.131088e+04 -1.525408e+05        0
       0        0        0

-8.967140e+05 3.036584e+04        0
3.036584e+04 -1.547505e+05        0
       0        0        0

5.237686e+05 3.002281e+04        0
3.002281e+04 -1.615099e+05        0
       0        0        0

3.747348e+05 8.037389e+04        0
8.037389e+04 -1.604680e+05        0
       0        0        0

2.241896e+05 1.180617e+05        0
1.180617e+05 -1.592733e+05        0
       0        0        0

7.245074e+04 1.431470e+05        0
1.431470e+05 -1.580899e+05        0
       0        0        0

-8.016065e+04 1.556709e+05        0
1.556709e+05 -1.570818e+05        0
       0        0        0

-2.333218e+05 1.556555e+05        0
1.556555e+05 -1.564114e+05        0
       0        0        0

-3.867090e+05 1.431046e+05        0
1.431046e+05 -1.562400e+05        0
       0        0        0

-5.399978e+05 1.180035e+05        0
1.180035e+05 -1.567278e+05        0
       0        0        0

-6.928637e+05 8.031862e+04        0
8.031862e+04 -1.580344e+05        0
       0        0        0

-8.449839e+05 2.999662e+04        0
2.999662e+04 -1.603172e+05        0
       0        0        0

4.618470e+05 2.962890e+04        0
2.962890e+04 -1.667511e+05        0
       0        0        0

3.255423e+05 7.931613e+04        0
7.931613e+04 -1.657168e+05        0
       0        0        0

1.876453e+05 1.165062e+05        0
1.165062e+05 -1.645038e+05        0
       0        0        0

4.849437e+04 1.412613e+05        0
1.412613e+05 -1.632875e+05        0
       0        0        0

-9.156869e+04 1.536218e+05        0
1.536218e+05 -1.622420e+05        0
       0        0        0

-2.322022e+05 1.536078e+05        0
1.536078e+05 -1.615380e+05        0
       0        0        0

-3.730648e+05 1.412229e+05        0
1.412229e+05 -1.613433e+05        0
       0        0        0

-5.138132e+05 1.164535e+05        0
1.164535e+05 -1.618266e+05        0
       0        0        0

-6.541024e+05 7.926610e+04        0
7.926610e+04 -1.631578e+05        0
       0        0        0

-7.935892e+05 2.960519e+04        0
2.960519e+04 -1.655059e+05        0
       0        0        0

4.010872e+05 2.921167e+04        0
2.921167e+04 -1.715970e+05        0
       0        0        0

2.773351e+05 7.819516e+04        0
7.819516e+04 -1.705747e+05        0
       0        0        0

1.519074e+05 1.148602e+05        0
1.148602e+05 -1.693455e+05        0
       0        0        0

2.516832e+04 1.392707e+05        0
1.392707e+05 -1.680997e+05        0
       0        0        0

-1.025171e+05 1.514620e+05        0
1.514620e+05 -1.670230e+05        0
       0        0        0

-2.307898e+05 1.514495e+05        0
1.514495e+05 -1.662915e+05        0
       0        0        0

-3.592939e+05 1.392362e+05        0
1.392362e+05 -1.660761e+05        0
       0        0        0

-4.876688e+05 1.148129e+05        0
1.148129e+05 -1.665510e+05        0
       0        0        0

-6.155463e+05 7.815022e+04        0
7.815022e+04 -1.678977e+05        0
       0        0        0

-7.425582e+05 2.919038e+04        0
2.919038e+04 -1.703010e+05        0
       0        0        0

3.415501e+05 2.876790e+04        0
2.876790e+04 -1.760329e+05        0
       0        0        0

2.301608e+05 7.700379e+04        0
7.700379e+04 -1.750221e+05        0
       0        0        0

1.170074e+05 1.131195e+05        0
1.131195e+05 -1.737737e+05        0
       0        0        0

2.492237e+03 1.371781e+05        0
1.371781e+05 -1.725022e+05        0
       0        0        0

-1.129914e+05 1.492006e+05        0
1.492006e+05 -1.714067e+05        0
       0        0        0

-2.290724e+05 1.491895e+05        0
1.491895e+05 -1.706632e+05        0
       0        0        0

-3.453895e+05 1.371473e+05        0
1.371473e+05 -1.704362e+05        0
       0        0        0

-4.615698e+05 1.130773e+05        0
1.130773e+05 -1.708992e+05        0
       0        0        0

-5.772170e+05 7.696379e+04        0
7.696379e+04 -1.722477e+05        0
       0        0        0

-6.919250e+05 2.874895e+04        0
2.874895e+04 -1.746908e+05        0
       0        0        0

2.833032e+05 2.828934e+04        0
2.828934e+04 -1.800448e+05        0
       0        0        0

1.840648e+05 7.572581e+04        0
7.572581e+04 -1.790344e+05        0
       0        0        0

8.296440e+04 1.112758e+05        0
1.112758e+05 -1.777544e+05        0
       0        0        0

-1.952850e+04 1.349923e+05        0
1.349923e+05 -1.764618e+05        0
       0        0        0

-1.229848e+05 1.468596e+05        0
1.468596e+05 -1.753732e+05        0
       0        0        0

-2.270351e+05 1.468498e+05        0
1.468498e+05 -1.746517e+05        0
       0        0        0

-3.313358e+05 1.349652e+05        0
1.349652e+05 -1.744356e+05        0
       0        0        0

-4.355148e+05 1.112386e+05        0
1.112386e+05 -1.748848e+05        0
       0        0        0

-5.391390e+05 7.569059e+04        0
7.569059e+04 -1.762111e+05        0
       0        0        0

-6.417359e+05 2.827266e+04        0
2.827266e+04 -1.786673e+05        0
       0        0        0

2.264333e+05 2.775695e+04        0
2.775695e+04 -1.836182e+05        0
       0        0        0

1.390879e+05 7.432717e+04        0
7.432717e+04 -1.825765e+05        0
       0        0        0

4.977342e+04 1.093141e+05        0
1.093141e+05 -1.812348e+05        0
       0        0        0

-4.091545e+04 1.327337e+05        0
1.327337e+05 -1.799291e+05        0
       0        0        0

-1.325032e+05 1.444850e+05        0
1.444850e+05 -1.788974e+05        0
       0        0        0

-2.246553e+05 1.444765e+05        0
1.444765e+05 -1.782649e+05        0
       0        0        0

-3.170954e+05 1.327101e+05        0
1.327101e+05 -1.781076e+05        0
       0        0        0

-4.094841e+05 1.092818e+05        0
1.092818e+05 -1.785455e+05        0
       0        0        0

-5.013389e+05 7.429657e+04        0
7.429657e+04 -1.798088e+05        0
       0        0        0

-5.920615e+05 2.774247e+04        0
2.774247e+04 -1.822288e+05        0
       0        0        0

1.710682e+05 2.713024e+04        0
2.713024e+04 -1.867360e+05        0
       0        0        0

9.526067e+04 7.274219e+04        0
7.274219e+04 -1.855952e+05        0
       0        0        0

1.738198e+04 1.072104e+05        0
1.072104e+05 -1.841352e+05        0
       0        0        0

-6.173881e+04 1.304440e+05        0
1.304440e+05 -1.828328e+05        0
       0        0        0

-1.415730e+05 1.421644e+05        0
1.421644e+05 -1.819469e+05        0
       0        0        0

-2.218929e+05 1.421570e+05        0
1.421570e+05 -1.815219e+05        0
       0        0        0

-3.025872e+05 1.304238e+05        0
1.304238e+05 -1.815130e+05        0
       0        0        0

-3.834177e+05 1.071827e+05        0
1.071827e+05 -1.819535e+05        0
       0        0        0

-4.638410e+05 7.271605e+04        0
7.271605e+04 -1.830875e+05        0
       0        0        0

-5.430206e+05 2.711789e+04        0
2.711789e+04 -1.853829e+05        0
       0        0        0

1.174159e+05 2.633024e+04        0
2.633024e+04 -1.893786e+05        0
       0        0        0

5.258646e+04 7.085797e+04        0
7.085797e+04 -1.880166e+05        0
       0        0        0

-1.434830e+04 1.049341e+05        0
1.049341e+05 -1.863527e+05        0
       0        0        0

-8.214734e+04 1.282007e+05        0
1.282007e+05 -1.850885e+05        0
       0        0        0

-1.502512e+05 1.400418e+05        0
1.400418e+05 -1.844862e+05        0
       0        0        0

-2.186783e+05 1.400356e+05        0
1.400356e+05 -1.844454e+05        0
       0        0        0

-2.876553e+05 1.281837e+05        0
1.281837e+05 -1.847285e+05        0
       0        0        0

-3.571784e+05 1.049109e+05        0
1.049109e+05 -1.852129e+05        0
       0        0        0

-4.266554e+05 7.083614e+04        0
7.083614e+04 -1.861276e+05        0
       0        0        0

-4.948241e+05 2.631997e+04        0
2.631997e+04 -1.881519e+05        0
       0        0        0

6.581895e+04 2.521815e+04        0
2.521815e+04 -1.915289e+05        0
       0        0        0

1.100068e+04 6.851380e+04        0
6.851380e+04 -1.897686e+05        0
       0        0        0

-4.569327e+04 1.024722e+05        0
1.024722e+05 -1.878172e+05        0
       0        0        0

-1.023915e+05 1.261281e+05        0
1.261281e+05 -1.866675e+05        0
       0        0        0

-1.586265e+05 1.383054e+05        0
1.383054e+05 -1.865047e+05        0
       0        0        0

-2.149051e+05 1.383003e+05        0
1.383003e+05 -1.870284e+05        0
       0        0        0

-2.720430e+05 1.261142e+05        0
1.261142e+05 -1.877768e+05        0
       0        0        0

-3.305030e+05 1.024533e+05        0
1.024533e+05 -1.884058e+05        0
       0        0        0

-3.897465e+05 6.849612e+04        0
6.849612e+04 -1.890299e+05        0
       0        0        0

-4.478428e+05 2.520989e+04        0
2.520989e+04 -1.905811e+05        0
       0        0        0

1.679792e+04 2.358570e+04        0
2.358570e+04 -1.932063e+05        0
       0        0        0

-2.971780e+04 6.557284e+04        0
6.557284e+04 -1.908835e+05        0
       0        0        0

-7.710099e+04 9.990927e+04        0
9.990927e+04 -1.887131e+05        0
       0        0        0

-1.227799e+05 1.243749e+05        0
1.243749e+05 -1.878149e+05        0
       0        0        0

-1.667864e+05 1.370671e+05        0
1.370671e+05 -1.881068e+05        0
       0        0        0

-2.104514e+05 1.370632e+05        0
1.370632e+05 -1.891319e+05        0
       0        0        0

-2.554283e+05 1.243641e+05        0
1.243641e+05 -1.903993e+05        0
       0        0        0

-3.029683e+05 9.989451e+04        0
9.989451e+04 -1.913730e+05        0
       0        0        0

-3.529606e+05 6.555914e+04        0
6.555914e+04 -1.918292e+05        0
       0        0        0

-4.026816e+05 2.357940e+04        0
2.357940e+04 -1.927348e+05        0
       0        0        0

-2.901804e+04 2.122947e+04        0
2.122947e+04 -1.945371e+05        0
       0        0        0

-7.012665e+04 6.223098e+04        0
6.223098e+04 -1.919188e+05        0
       0        0        0

-1.090684e+05 9.760550e+04        0
9.760550e+04 -1.900990e+05        0
       0        0        0

-1.434248e+05 1.229588e+05        0
1.229588e+05 -1.896100e+05        0
       0        0        0

-1.746822e+05 1.359569e+05        0
1.359569e+05 -1.897118e+05        0
       0        0        0

-2.052940e+05 1.359542e+05        0
1.359542e+05 -1.902648e+05        0
       0        0        0

-2.376600e+05 1.229511e+05        0
1.229511e+05 -1.914779e+05        0
       0        0        0

-2.741086e+05 9.759490e+04        0
9.759490e+04 -1.930871e+05        0
       0        0        0

-3.158704e+05 6.222105e+04        0
6.222105e+04 -1.940981e+05        0
       0        0        0

-3.601762e+05 2.122500e+04        0
2.122500e+04 -1.946931e+05        0
       0        0        0

-7.149083e+04 1.843439e+04        0
1.843439e+04 -1.964138e+05        0
       0        0        0

-1.112259e+05 5.991011e+04        0
5.991011e+04 -1.951251e+05        0
       0        0        0

-1.415079e+05 9.640507e+04        0
9.640507e+04 -1.956366e+05        0
       0        0        0

-1.634910e+05 1.211002e+05        0
1.211002e+05 -1.949259e+05        0
       0        0        0

-1.818577e+05 1.332036e+05        0
1.332036e+05 -1.922893e+05        0
       0        0        0

-1.997480e+05 1.332023e+05        0
1.332023e+05 -1.893165e+05        0
       0        0        0

-2.194732e+05 1.210964e+05        0
1.210964e+05 -1.880393e+05        0
       0        0        0

-2.440165e+05 9.639902e+04        0
9.639902e+04 -1.898913e+05        0
       0        0        0

-2.776809e+05 5.990375e+04        0
5.990375e+04 -1.937908e+05        0
       0        0        0

-3.209289e+05 1.843151e+04        0
1.843151e+04 -1.960264e+05        0
       0        0        0

-1.130264e+05 1.827358e+04        0
1.827358e+04 -2.009662e+05        0
       0        0        0

-1.538928e+05 6.344679e+04        0
6.344679e+04 -2.101235e+05        0
       0        0        0

-1.712703e+05 9.630464e+04        0
9.630464e+04 -2.144484e+05        0
       0        0        0

-1.801781e+05 1.154221e+05        0
1.154221e+05 -2.089082e+05        0
       0        0        0

-1.872882e+05 1.242781e+05        0
1.242781e+05 -1.974040e+05        0
       0        0        0

-1.945901e+05 1.242785e+05        0
1.242785e+05 -1.844743e+05        0
       0        0        0

-2.034478e+05 1.154229e+05        0
1.154229e+05 -1.747174e+05        0
       0        0        0

-2.157261e+05 9.630446e+04        0
9.630446e+04 -1.725480e+05        0
       0        0        0

-2.377110e+05 6.344450e+04        0
6.344450e+04 -1.814823e+05        0
       0        0        0

-2.834086e+05 1.827172e+04        0
1.827172e+04 -1.954786e+05        0
       0        0        0

-1.665563e+05 4.041534e+04        0
4.041534e+04 -2.340021e+05        0
       0        0        0

-1.889714e+05 7.647341e+04        0
7.647341e+04 -2.643986e+05        0
       0        0        0

-1.894374e+05 9.055406e+04        0
9.055406e+04 -2.598914e+05        0
       0        0        0

-1.893342e+05 9.768789e+04        0
9.768789e+04 -2.376242e+05        0
       0        0        0

-1.895759e+05 1.008654e+05        0
1.008654e+05 -2.066608e+05        0
       0        0        0

-1.908378e+05 1.008675e+05        0
1.008675e+05 -1.737526e+05        0
       0        0        0

-1.933244e+05 9.769346e+04        0
9.769346e+04 -1.450314e+05        0
       0        0        0

-1.977336e+05 9.056131e+04        0
9.056131e+04 -1.272735e+05        0
       0        0        0

-2.049397e+05 7.647932e+04        0
7.647932e+04 -1.295060e+05        0
       0        0        0

-2.355357e+05 4.041516e+04        0
4.041516e+04 -1.680899e+05        0
       0        0        0

POINT_DATA     451
VECTORS DISPLACEMENT_2.400000e-01 double
0.000000e+00    0.000000e+00    0.000000e+00
0.000000e+00    0.000000e+00    0.000000e+00
0.000000e+00    0.000000e+00    0.000000e+00
0.000000e+00    0.000000e+00    0.000000e+00
0.000000e+00    0.000000e+00    0.000000e+00
0.000000e+00    0.000000e+00    0.000000e+00
0.000000e+00    0.000000e+00    0.000000e+00
0.000000e+00    0.000000e+00    0.000000e+00
0.000000e+00    0.000000e+00    0.000000e+00
0.000000e+00    0.000000e+00    0.000000e+00
0.000000e+00    0.000000e+00    0.000000e+00
-1.251550e-06    -9.125301e-07    0.000000e+00
-7.914936e-07    -4.596714e-07    0.000000e+00
-5.642595e-07    -2.406774e-07    0.000000e+00
-3.641141e-07    -1.220217e-07    0.000000e+00
-1.794668e-07    -6.068611e-08    0.000000e+00
-4.613059e-20    -4.162720e-08    0.000000e+00
1.794668e-07    -6.068611e-08    0.000000e+00
3.641141e-07    -1.220217e-07    0.000000e+00
5.642595e-07    -2.406774e-07    0.000000e+00
7.914936e-07    -4.596714e-07    0.000000e+00
1.251550e-06    -9.125301e-07    0.000000e+00
-2.359650e-06    -1.519292e-06    0.000000e+00
-1.722445e-06    -1.102109e-06    0.000000e+00
-1.207891e-06    -7.773927e-07    0.000000e+00
-7.787292e-07    -5.768176e-07    0.000000e+00
-3.823574e-07    -4.676330e-07    0.000000e+00
-9.746173e-20    -4.329694e-07    0.000000e+00
3.823574e-07    -4.676330e-07    0.000000e+00
7.787292e-07    -5.768176e-07    0.000000e+00
1.207891e-06    -7.773927e-07    0.000000e+00
1.722445e-06    -1.102109e-06    0.000000e+00
2.359650e-06    -1.519292e-06    0.000000e+00
-3.429213e-06    -2.272639e-06    0.000000e+00
-2.618330e-06    -1.854944e-06    0.000000e+00
-1.882571e-06    -1.525725e-06    0.000000e+00
-1.218121e-06    -1.293647e-06    0.000000e+00
-5.992023e-07    -1.159968e-06    0.000000e+00
-1.534519e-19    -1.116438e-06    0.000000e+00
5.992023e-07    -1.159968e-06    0.000000e+00
1.218121e-06    -1.293647e-06    0.000000e+00
1.882571e-06    -1.525725e-06    0.000000e+00
2.618330e-06    -1.854944e-06    0.000000e+00
3.429213e-06    -2.272639e-06    0.000000e+00
-4.485735e-06    -3.200873e-06    0.000000e+00
-3.483841e-06    -2.793126e-06    0.000000e+00
-2.542205e-06    -2.469634e-06    0.000000e+00
-1.659227e-06    -2.236248e-06    0.000000e+00
-8.188653e-07    -2.096199e-06    0.000000e+00
-2.116457e-19    -2.049770e-06    0.000000e+00
8.188653e-07    -2.096199e-06    0.000000e+00
1.659227e-06    -2.236248e-06    0.000000e+00
2.542205e-06    -2.469634e-06    0.000000e+00
3.483841e-06    -2.793126e-06    0.000000e+00
4.485735e-06    -3.200873e-06    0.000000e+00
-5.523264e-06    -4.328654e-06    0.000000e+00
-4.323270e-06    -3.930832e-06    0.000000e+00
-3.180290e-06    -3.617394e-06    0.000000e+00
-2.088328e-06    -3.390310e-06    0.000000e+00
-1.034233e-06    -3.252853e-06    0.000000e+00
-2.719240e-19    -3.206844e-06    0.000000e+00
1.034233e-06    -3.252853e-06    0.000000e+00
2.088328e-06    -3.390310e-06    0.000000e+00
3.180290e-06    -3.617394e-06    0.000000e+00
4.323270e-06    -3.930832e-06    0.000000e+00
5.523264e-06    -4.328654e-06    0.000000e+00
-6.537099e-06    -5.658694e-06    0.000000e+00
-5.138316e-06    -5.271812e-06    0.000000e+00
-3.796737e-06    -4.968595e-06    0.000000e+00
-2.502435e-06    -4.749748e-06    0.000000e+00
-1.242270e-06    -4.617288e-06    0.000000e+00
-3.332545e-19    -4.572932e-06    0.000000e+00
1.242270e-06    -4.617288e-06    0.000000e+00
2.502435e-06    -4.749748e-06    0.000000e+00
3.796737e-06    -4.968595e-06    0.000000e+00
5.138316e-06    -5.271812e-06    0.000000e+00
6.537099e-06    -5.658694e-06    0.000000e+00
-7.523857e-06    -7.188542e-06    0.000000e+00
-5.929284e-06    -6.813030e-06    0.000000e+00
-4.392711e-06    -6.519785e-06    0.000000e+00
-2.901733e-06    -6.308988e-06    0.000000e+00
-1.442633e-06    -6.181757e-06    0.000000e+00
-3.911704e-19    -6.139198e-06    0.000000e+00
1.442633e-06    -6.181757e-06    0.000000e+00
2.901733e-06    -6.308988e-06    0.000000e+00
4.392711e-06    -6.519785e-06    0.000000e+00
5.929284e-06    -6.813030e-06    0.000000e+00
7.523857e-06    -7.188542e-06    0.000000e+00
-8.481672e-06    -8.913165e-06    0.000000e+00
-6.696088e-06    -8.549277e-06    0.000000e+00
-4.969149e-06    -8.265686e-06    0.000000e+00
-3.287108e-06    -8.062420e-06    0.000000e+00
-1.635741e-06    -7.940036e-06    0.000000e+00
-4.484245e-19    -7.899156e-06    0.000000e+00
1.635741e-06    -7.940036e-06    0.000000e+00
3.287108e-06    -8.062420e-06    0.000000e+00
4.969149e-06    -8.265686e-06    0.000000e+00
6.696088e-06    -8.549277e-06    0.000000e+00
8.481672e-06    -8.913165e-06    0.000000e+00
-9.409585e-06    -1.082668e-05    0.000000e+00
-7.438595e-06    -1.047453e-05    0.000000e+00
-5.526635e-06    -1.020037e-05    0.000000e+00
-3.659303e-06    -1.000420e-05    0.000000e+00
-1.822059e-06    -9.886287e-06    0.000000e+00
-5.073198e-19    -9.846936e-06    0.000000e+00
1.822059e-06    -9.886287e-06    0.000000e+00
3.659303e-06    -1.000420e-05    0.000000e+00
5.526635e-06    -1.020037e-05    0.000000e+00
7.438595e-06    -1.047453e-05    0.000000e+00
9.409585e-06    -1.082668e-05    0.000000e+00
-1.030716e-05    -1.292293e-05    0.000000e+00
-8.156714e-06    -1.258256e-05    0.000000e+00
-6.065489e-06    -1.231770e-05    0.000000e+00
-4.018789e-06    -1.212836e-05    0.000000e+00
-2.001909e-06    -1.201465e-05    0.000000e+00
-5.672474e-19    -1.197672e-05    0.000000e+00
2.001909e-06    -1.201465e-05    0.000000e+00
4.018789e-06    -1.212836e-05    0.000000e+00
6.065489e-06    -1.231770e-05    0.000000e+00
8.156714e-06    -1.258256e-05    0.000000e+00
1.030716e-05    -1.292293e-05    0.000000e+00
-1.117420e-05    -1.519569e-05    0.000000e+00
-8.850402e-06    -1.486712e-05    0.000000e+00
-6.585877e-06    -1.461148e-05    0.000000e+00
-4.365829e-06    -1.442881e-05    0.000000e+00
-2.175478e-06    -1.431916e-05    0.000000e+00
-6.183870e-19    -1.428259e-05    0.000000e+00
2.175478e-06    -1.431916e-05    0.000000e+00
4.365829e-06    -1.442881e-05    0.000000e+00
6.585877e-06    -1.461148e-05    0.000000e+00
8.850402e-06    -1.486712e-05    0.000000e+00
1.117420e-05    -1.519569e-05    0.000000e+00
-1.201068e-05    -1.763876e-05    0.000000e+00
-9.519647e-06    -1.732198e-05    0.000000e+00
-7.087882e-06    -1.707554e-05    0.000000e+00
-4.700557e-06    -1.689946e-05    0.000000e+00
-2.342866e-06    -1.679378e-05    0.000000e+00
-6.715383e-19    -1.675855e-05    0.000000e+00
2.342866e-06    -1.679378e-05    0.000000e+00
4.700557e-06    -1.689946e-05    0.000000e+00
7.087882e-06    -1.707554e-05    0.000000e+00
9.519647e-06    -1.732198e-05    0.000000e+00
1.201068e-05    -1.763876e-05    0.000000e+00
-1.281658e-05    -2.024598e-05    0.000000e+00
-1.016446e-05    -1.994098e-05    0.000000e+00
-7.571551e-06    -1.970370e-05    0.000000e+00
-5.023040e-06    -1.953417e-05    0.000000e+00
-2.504122e-06    -1.943243e-05    0.000000e+00
-7.316247e-19    -1.939852e-05    0.000000e+00
2.504122e-06    -1.943243e-05    0.000000e+00
5.023040e-06    -1.953417e-05    0.000000e+00
7.571551e-06    -1.970370e-05    0.000000e+00
1.016446e-05    -1.994098e-05    0.000000e+00
1.281658e-05    -2.024598e-05    0.000000e+00
-1.359194e-05    -2.301118e-05    0.000000e+00
-1.078485e-05    -2.271795e-05    0.000000e+00
-8.036913e-06    -2.248981e-05    0.000000e+00
-5.333315e-06    -2.232681e-05    0.000000e+00
-2.659270e-06    -2.222900e-05    0.000000e+00
-7.725999e-19    -2.219639e-05    0.000000e+00
2.659270e-06    -2.222900e-05    0.000000e+00
5.333315e-06    -2.232681e-05    0.000000e+00
8.036913e-06    -2.248981e-05    0.000000e+00
1.078485e-05    -2.271795e-05    0.000000e+00
1.359194e-05    -2.301118e-05    0.000000e+00
-1.433679e-05    -2.592823e-05    0.000000e+00
-1.138086e-05    -2.564675e-05    0.000000e+00
-8.483994e-06    -2.542774e-05    0.000000e+00
-5.631405e-06    -2.527127e-05    0.000000e+00
-2.808326e-06    -2.517736e-05    0.000000e+00
-8.117752e-19    -2.514606e-05    0.000000e+00
2.808326e-06    -2.517736e-05    0.000000e+00
5.631405e-06    -2.527127e-05    0.000000e+00
8.483994e-06    -2.542774e-05    0.000000e+00
1.138086e-05    -2.564675e-05    0.000000e+00
1.433679e-05    -2.592823e-05    0.000000e+00
-1.505118e-05    -2.899101e-05    0.000000e+00
-1.195252e-05    -2.872127e-05    0.000000e+00
-8.912822e-06    -2.851137e-05    0.000000e+00
-5.917331e-06    -2.836140e-05    0.000000e+00
-2.951301e-06    -2.827140e-05    0.000000e+00
-8.432213e-19    -2.824139e-05    0.000000e+00
2.951301e-06    -2.827140e-05    0.000000e+00
5.917331e-06    -2.836140e-05    0.000000e+00
8.912822e-06    -2.851137e-05    0.000000e+00
1.195252e-05    -2.872127e-05    0.000000e+00
1.505118e-05    -2.899101e-05    0.000000e+00
-1.573515e-05    -3.219340e-05    0.000000e+00
-1.249986e-05    -3.193538e-05    0.000000e+00
-9.323426e-06    -3.173459e-05    0.000000e+00
-6.191112e-06    -3.159111e-05    0.000000e+00
-3.088205e-06    -3.150500e-05    0.000000e+00
-8.624913e-19    -3.147629e-05    0.000000e+00
3.088205e-06    -3.150500e-05    0.000000e+00
6.191112e-06    -3.159111e-05    0.000000e+00
9.323426e-06    -3.173459e-05    0.000000e+00
1.249986e-05    -3.193538e-05    0.000000e+00
1.573515e-05    -3.219340e-05    0.000000e+00
-1.638877e-05    -3.552932e-05    0.000000e+00
-1.302294e-05    -3.528298e-05    0.000000e+00
-9.715838e-06    -3.509127e-05    0.000000e+00
-6.452771e-06    -3.495428e-05    0.000000e+00
-3.219050e-06    -3.487205e-05    0.000000e+00
-8.904434e-19    -3.484464e-05    0.000000e+00
3.219050e-06    -3.487205e-05    0.000000e+00
6.452771e-06    -3.495428e-05    0.000000e+00
9.715838e-06    -3.509127e-05    0.000000e+00
1.302294e-05    -3.528298e-05    0.000000e+00
1.638877e-05    -3.552932e-05    0.000000e+00
-1.701208e-05    -3.899265e-05    0.000000e+00
-1.352179e-05    -3.875798e-05    0.000000e+00
-1.009010e-05    -3.857534e-05    0.000000e+00
-6.702332e-06    -3.844481e-05    0.000000e+00
-3.343847e-06    -3.836647e-05    0.000000e+00
-9.306775e-19    -3.834035e-05    0.000000e+00
3.343847e-06    -3.836647e-05    0.000000e+00
6.702332e-06    -3.844481e-05    0.000000e+00
1.009010e-05    -3.857534e-05    0.000000e+00
1.352179e-05    -3.875798e-05    0.000000e+00
1.701208e-05    -3.899265e-05    0.000000e+00
-1.760517e-05    -4.257734e-05    0.000000e+00
-1.399648e-05    -4.235431e-05    0.000000e+00
-1.044624e-05    -4.218071e-05    0.000000e+00
-6.939822e-06    -4.205663e-05    0.000000e+00
-3.462610e-06    -4.198216e-05    0.000000e+00
-9.927226e-19    -4.195733e-05    0.000000e+00
3.462610e-06    -4.198216e-05    0.000000e+00
6.939822e-06    -4.205663e-05    0.000000e+00
1.044624e-05    -4.218071e-05    0.000000e+00
1.399648e-05    -4.235431e-05    0.000000e+00
1.760517e-05    -4.257734e-05    0.000000e+00
-1.816810e-05    -4.627731e-05    0.000000e+00
-1.444706e-05    -4.606589e-05    0.000000e+00
-1.078431e-05    -4.590130e-05    0.000000e+00
-7.165270e-06    -4.578367e-05    0.000000e+00
-3.575355e-06    -4.571305e-05    0.000000e+00
-1.076579e-18    -4.568951e-05    0.000000e+00
3.575355e-06    -4.571305e-05    0.000000e+00
7.165270e-06    -4.578367e-05    0.000000e+00
1.078431e-05    -4.590130e-05    0.000000e+00
1.444706e-05    -4.606589e-05    0.000000e+00
1.816810e-05    -4.627731e-05    0.000000e+00
-1.870095e-05    -5.008651e-05    0.000000e+00
-1.487360e-05    -4.988667e-05    0.000000e+00
-1.110437e-05    -4.973108e-05    0.000000e+00
-7.378710e-06    -4.961986e-05    0.000000e+00
-3.682096e-06    -4.955309e-05    0.000000e+00
-1.142012e-18    -4.953083e-05    0.000000e+00
3.682096e-06    -4.955309e-05    0.000000e+00
7.378710e-06    -4.961986e-05    0.000000e+00
1.110437e-05    -4.973108e-05    0.000000e+00
1.487360e-05    -4.988667e-05    0.000000e+00
1.870095e-05    -5.008651e-05    0.000000e+00
-1.920381e-05    -5.399891e-05    0.000000e+00
-1.527616e-05    -5.381062e-05    0.000000e+00
-1.140645e-05    -5.366399e-05    0.000000e+00
-7.580175e-06    -5.355917e-05    0.000000e+00
-3.782851e-06    -5.349624e-05    0.000000e+00
-1.181187e-18    -5.347526e-05    0.000000e+00
3.782851e-06    -5.349624e-05    0.000000e+00
7.580175e-06    -5.355917e-05    0.000000e+00
1.140645e-05    -5.366399e-05    0.000000e+00
1.527616e-05    -5.381062e-05    0.000000e+00
1.920381e-05    -5.399891e-05    0.000000e+00
-1.967677e-05    -5.800850e-05    0.000000e+00
-1.565482e-05    -5.783171e-05    0.000000e+00
-1.169062e-05    -5.769402e-05    0.000000e+00
-7.769703e-06    -5.759558e-05    0.000000e+00
-3.877640e-06    -5.753647e-05    0.000000e+00
-1.227562e-18    -5.751676e-05    0.000000e+00
3.877640e-06    -5.753647e-05    0.000000e+00
7.769703e-06    -5.759558e-05    0.000000e+00
1.169062e-05    -5.769402e-05    0.000000e+00
1.565482e-05    -5.783171e-05    0.000000e+00
1.967677e-05    -5.800850e-05    0.000000e+00
-2.011993e-05    -6.210927e-05    0.000000e+00
-1.600966e-05    -6.194395e-05    0.000000e+00
-1.195693e-05    -6.181517e-05    0.000000e+00
-7.947335e-06    -6.172308e-05    0.000000e+00
-3.966482e-06    -6.166778e-05    0.000000e+00
-1.249162e-18    -6.164934e-05    0.000000e+00
3.966482e-06    -6.166778e-05    0.000000e+00
7.947335e-06    -6.172308e-05    0.000000e+00
1.195693e-05    -6.181517e-05    0.000000e+00
1.600966e-05    -6.194395e-05    0.000000e+00
2.011993e-05    -6.210927e-05    0.000000e+00
-2.053339e-05    -6.629525e-05    0.000000e+00
-1.634077e-05    -6.614135e-05    0.000000e+00
-1.220546e-05    -6.602144e-05    0.000000e+00
-8.113113e-06    -6.593568e-05    0.000000e+00
-4.049400e-06    -6.588419e-05    0.000000e+00
-1.275843e-18    -6.586701e-05    0.000000e+00
4.049400e-06    -6.588419e-05    0.000000e+00
8.113113e-06    -6.593568e-05    0.000000e+00
1.220546e-05    -6.602144e-05    0.000000e+00
1.634077e-05    -6.614135e-05    0.000000e+00
2.053339e-05    -6.629525e-05    0.000000e+00
-2.091728e-05    -7.056048e-05    0.000000e+00
-1.664823e-05    -7.041796e-05    0.000000e+00
-1.243627e-05    -7.030689e-05    0.000000e+00
-8.267084e-06    -7.022744e-05    0.000000e+00
-4.126415e-06    -7.017972e-05    0.000000e+00
-1.308666e-18    -7.016381e-05    0.000000e+00
4.126415e-06    -7.017972e-05    0.000000e+00
8.267084e-06    -7.022744e-05    0.000000e+00
1.243627e-05    -7.030689e-05    0.000000e+00
1.664823e-05    -7.041796e-05    0.000000e+00
2.091728e-05    -7.056048e-05    0.000000e+00
-2.127170e-05    -7.489903e-05    0.000000e+00
-1.693215e-05    -7.476784e-05    0.000000e+00
-1.264943e-05    -7.466557e-05    0.000000e+00
-8.409296e-06    -7.459240e-05    0.000000e+00
-4.197552e-06    -7.454845e-05    0.000000e+00
-1.307395e-18    -7.453379e-05    0.000000e+00
4.197552e-06    -7.454845e-05    0.000000e+00
8.409296e-06    -7.459240e-05    0.000000e+00
1.264943e-05    -7.466557e-05    0.000000e+00
1.693215e-05    -7.476784e-05    0.000000e+00
2.127170e-05    -7.489903e-05    0.000000e+00
-2.159678e-05    -7.930498e-05    0.000000e+00
-1.719262e-05    -7.918507e-05    0.000000e+00
-1.284501e-05    -7.909156e-05    0.000000e+00
-8.539796e-06    -7.902465e-05    0.000000e+00
-4.262833e-06    -7.898446e-05    0.000000e+00
-1.314595e-18    -7.897106e-05    0.000000e+00
4.262833e-06    -7.898446e-05    0.000000e+00
8.539796e-06    -7.902465e-05    0.000000e+00
1.284501e-05    -7.909156e-05    0.000000e+00
1.719262e-05    -7.918507e-05    0.000000e+00
2.159678e-05    -7.930498e-05    0.000000e+00
-2.189267e-05    -8.377243e-05    0.000000e+00
-1.742977e-05    -8.366375e-05    0.000000e+00
-1.302311e-05    -8.357898e-05    0.000000e+00
-8.658626e-06    -8.351832e-05    0.000000e+00
-4.322275e-06    -8.348188e-05    0.000000e+00
-1.369652e-18    -8.346973e-05    0.000000e+00
4.322275e-06    -8.348188e-05    0.000000e+00
8.658626e-06    -8.351832e-05    0.000000e+00
1.302311e-05    -8.357898e-05    0.000000e+00
1.742977e-05    -8.366375e-05    0.000000e+00
2.189267e-05    -8.377243e-05    0.000000e+00
-2.215951e-05    -8.829552e-05    0.000000e+00
-1.764370e-05    -8.819801e-05    0.000000e+00
-1.318378e-05    -8.812194e-05    0.000000e+00
-8.765815e-06    -8.806753e-05    0.000000e+00
-4.375884e-06    -8.803488e-05    0.000000e+00
-1.434450e-18    -8.802400e-05    0.000000e+00
4.375884e-06    -8.803488e-05    0.000000e+00
8.765815e-06    -8.806753e-05    0.000000e+00
1.318378e-05    -8.812194e-05    0.000000e+00
1.764370e-05    -8.819801e-05    0.000000e+00
2.215951e-05    -8.829552e-05    0.000000e+00
-2.239749e-05    -9.286837e-05    0.000000e+00
-1.783456e-05    -9.278196e-05    0.000000e+00
-1.332708e-05    -9.271458e-05    0.000000e+00
-8.861354e-06    -9.266648e-05    0.000000e+00
-4.423637e-06    -9.263768e-05    0.000000e+00
-1.523389e-18    -9.262809e-05    0.000000e+00
4.423637e-06    -9.263768e-05    0.000000e+00
8.861354e-06    -9.266648e-05    0.000000e+00
1.332708e-05    -9.271458e-05    0.000000e+00
1.783456e-05    -9.278196e-05    0.000000e+00
2.239749e-05    -9.286837e-05    0.000000e+00
-2.260688e-05    -9.748515e-05    0.000000e+00
-1.800251e-05    -9.740974e-05    0.000000e+00
-1.345302e-05    -9.735109e-05    0.000000e+00
-8.945162e-06    -9.730942e-05    0.000000e+00
-4.465461e-06    -9.728459e-05    0.000000e+00
-1.605127e-18    -9.727636e-05    0.000000e+00
4.465461e-06    -9.728459e-05    0.000000e+00
8.945162e-06    -9.730942e-05    0.000000e+00
1.345302e-05    -9.735109e-05    0.000000e+00
1.800251e-05    -9.740974e-05    0.000000e+00
2.260688e-05    -9.748515e-05    0.000000e+00
-2.278809e-05    -1.021400e-04    0.000000e+00
-1.814774e-05    -1.020755e-04    0.000000e+00
-1.356152e-05    -1.020257e-04    0.000000e+00
-9.017027e-06    -1.019907e-04    0.000000e+00
-4.501194e-06    -1.019700e-04    0.000000e+00
-1.639856e-18    -1.019632e-04    0.000000e+00
4.501194e-06    -1.019700e-04    0.000000e+00
9.017027e-06    -1.019907e-04    0.000000e+00
1.356152e-05    -1.020257e-04    0.000000e+00
1.814774e-05    -1.020755e-04    0.000000e+00
2.278809e-05    -1.021400e-04    0.000000e+00
-2.294182e-05    -1.068274e-04    0.000000e+00
-1.827048e-05    -1.067735e-04    0.000000e+00
-1.365234e-05    -1.067326e-04    0.000000e+00
-9.076555e-06    -1.067047e-04    0.000000e+00
-4.530567e-06    -1.066885e-04    0.000000e+00
-1.701689e-18    -1.066833e-04    0.000000e+00
4.530567e-06    -1.066885e-04    0.000000e+00
9.076555e-06    -1.067047e-04    0.000000e+00
1.365234e-05    -1.067326e-04    0.000000e+00
1.827048e-05    -1.067735e-04    0.000000e+00
2.294182e-05    -1.068274e-04    0.000000e+00
-2.306937e-05    -1.115421e-04    0.000000e+00
-1.837098e-05    -1.114985e-04    0.000000e+00
-1.372501e-05    -1.114668e-04    0.000000e+00
-9.123178e-06    -1.114460e-04    0.000000e+00
-4.553258e-06    -1.114345e-04    0.000000e+00
-1.755899e-18    -1.114307e-04    0.000000e+00
4.553258e-06    -1.114345e-04    0.000000e+00
9.123178e-06    -1.114460e-04    0.000000e+00
1.372501e-05    -1.114668e-04    0.000000e+00
1.837098e-05    -1.114985e-04    0.000000e+00
2.306937e-05    -1.115421e-04    0.000000e+00
-2.317294e-05    -1.162802e-04    0.000000e+00
-1.844930e-05    -1.162464e-04    0.000000e+00
-1.377887e-05    -1.162236e-04    0.000000e+00
-9.156492e-06    -1.162095e-04    0.000000e+00
-4.569185e-06    -1.162016e-04    0.000000e+00
-1.700419e-18    -1.161990e-04    0.000000e+00
4.569185e-06    -1.162016e-04    0.000000e+00
9.156492e-06    -1.162095e-04    0.000000e+00
1.377887e-05    -1.162236e-04    0.000000e+00
1.844930e-05    -1.162464e-04    0.000000e+00
2.317294e-05    -1.162802e-04    0.000000e+00
-2.325586e-05    -1.210415e-04    0.000000e+00
-1.850504e-05    -1.210162e-04    0.000000e+00
-1.381378e-05    -1.210006e-04    0.000000e+00
-9.177459e-06    -1.209892e-04    0.000000e+00
-4.579206e-06    -1.209814e-04    0.000000e+00
-1.611480e-18    -1.209786e-04    0.000000e+00
4.579206e-06    -1.209814e-04    0.000000e+00
9.177459e-06    -1.209892e-04    0.000000e+00
1.381378e-05    -1.210006e-04    0.000000e+00
1.850504e-05    -1.210162e-04    0.000000e+00
2.325586e-05    -1.210415e-04    0.000000e+00
-2.332041e-05    -1.258341e-04    0.000000e+00
-1.853731e-05    -1.258159e-04    0.000000e+00
-1.383378e-05    -1.257970e-04    0.000000e+00
-9.190749e-06    -1.257760e-04    0.000000e+00
-4.585982e-06    -1.257603e-04    0.000000e+00
-1.602586e-18    -1.257546e-04    0.000000e+00
4.585982e-06    -1.257603e-04    0.000000e+00
9.190749e-06    -1.257760e-04    0.000000e+00
1.383378e-05    -1.257970e-04    0.000000e+00
1.853731e-05    -1.258159e-04    0.000000e+00
2.332041e-05    -1.258341e-04    0.000000e+00
-2.335457e-05    -1.306983e-04    0.000000e+00
-1.855772e-05    -1.306633e-04    0.000000e+00
-1.385390e-05    -1.306042e-04    0.000000e+00
-9.206126e-06    -1.305507e-04    0.000000e+00
-4.594306e-06    -1.305150e-04    0.000000e+00
-1.604704e-18    -1.305025e-04    0.000000e+00
4.594306e-06    -1.305150e-04    0.000000e+00
9.206126e-06    -1.305507e-04    0.000000e+00
1.385390e-05    -1.306042e-04    0.000000e+00
1.855772e-05    -1.306633e-04    0.000000e+00
2.335457e-05    -1.306983e-04    0.000000e+00

CELL_DATA      400
TENSORS Element_Stress2.400000e-01 double
1.994922e+06 2.811501e+05        0
2.811501e+05 4.565337e+05        0
       0        0        0

1.360753e+06 1.457497e+05        0
1.457497e+05 3.905737e+05        0
       0        0        0

9.458631e+05 5.006195e+04        0
5.006195e+04 3.010098e+05        0
       0        0        0

5.573672e+05 -5.947370e+02        0
-5.947370e+02 1.849250e+05        0
       0        0        0

1.844938e+05 -2.374265e+04        0
-2.374265e+04 6.229795e+04        0
       0        0        0

-1.844573e+05 -2.373643e+04        0
-2.373643e+04 -6.231376e+04        0
       0        0        0

-5.568054e+05 -5.988077e+02        0
-5.988077e+02 -1.847348e+05        0
       0        0        0

-9.441840e+05 4.997121e+04        0
4.997121e+04 -3.003848e+05        0
       0        0        0

-1.357187e+06 1.453983e+05        0
1.453983e+05 -3.892130e+05        0
       0        0        0

-1.987470e+06 2.801720e+05        0
2.801720e+05 -4.539691e+05        0
       0        0        0

1.797079e+06 4.680397e+04        0
4.680397e+04 4.764910e+03        0
       0        0        0

1.446256e+06 1.347190e+05        0
1.347190e+05 1.413303e+05        0
       0        0        0

9.926263e+05 1.115335e+05        0
1.115335e+05 1.443115e+05        0
       0        0        0

5.859743e+05 8.641721e+04        0
8.641721e+04 1.008100e+05        0
       0        0        0

1.930729e+05 7.276987e+04        0
7.276987e+04 3.512522e+04        0
       0        0        0

-1.943319e+05 7.274687e+04        0
7.274687e+04 -3.644816e+04        0
       0        0        0

-5.866339e+05 8.633584e+04        0
8.633584e+04 -1.019205e+05        0
       0        0        0

-9.920003e+05 1.113610e+05        0
1.113610e+05 -1.449572e+05        0
       0        0        0

-1.443272e+06 1.344291e+05        0
1.344291e+05 -1.410629e+05        0
       0        0        0

-1.791619e+06 4.669726e+04        0
4.669726e+04 -3.503561e+03        0
       0        0        0

1.732445e+06 1.789548e+04        0
1.789548e+04 7.212263e+03        0
       0        0        0

1.389542e+06 7.725677e+04        0
7.725677e+04 1.935433e+04        0
       0        0        0

9.990598e+05 1.144023e+05        0
1.144023e+05 4.657013e+04        0
       0        0        0

5.929324e+05 1.212429e+05        0
1.212429e+05 3.940152e+04        0
       0        0        0

1.954281e+05 1.213229e+05        0
1.213229e+05 1.383134e+04        0
       0        0        0

-1.994425e+05 1.212884e+05        0
1.212884e+05 -1.791542e+04        0
       0        0        0

-5.963169e+05 1.211405e+05        0
1.211405e+05 -4.326347e+04        0
       0        0        0

-1.001104e+06 1.142435e+05        0
1.142435e+05 -4.993373e+04        0
       0        0        0

-1.389575e+06 7.711486e+04        0
7.711486e+04 -2.191644e+04        0
       0        0        0

-1.730171e+06 1.785502e+04        0
1.785502e+04 -8.846903e+03        0
       0        0        0

1.688006e+06 1.652207e+04        0
1.652207e+04 -4.609409e+03        0
       0        0        0

1.339069e+06 6.303787e+04        0
6.303787e+04 -2.327496e+03        0
       0        0        0

9.675089e+05 1.043990e+05        0
1.043990e+05 3.070982e+03        0
       0        0        0

5.815625e+05 1.291426e+05        0
1.291426e+05 6.257086e+03        0
       0        0        0

1.910337e+05 1.389395e+05        0
1.389395e+05 4.625935e+02        0
       0        0        0

-1.990451e+05 1.389032e+05        0
1.389032e+05 -8.543186e+03        0
       0        0        0

-5.889538e+05 1.290421e+05        0
1.290421e+05 -1.411367e+04        0
       0        0        0

-9.736472e+05 1.042663e+05        0
1.042663e+05 -1.045347e+04        0
       0        0        0

-1.343349e+06 6.292846e+04        0
6.292846e+04 -4.308557e+03        0
       0        0        0

-1.689804e+06 1.648665e+04        0
1.648665e+04 -9.121577e+02        0
       0        0        0

1.645962e+06 1.958966e+04        0
1.958966e+04 -6.597581e+03        0
       0        0        0

1.292414e+06 6.185126e+04        0
6.185126e+04 -9.879386e+03        0
       0        0        0

9.310913e+05 1.006398e+05        0
1.006398e+05 -9.580672e+03        0
       0        0        0

5.597244e+05 1.281263e+05        0
1.281263e+05 -7.860342e+03        0
       0        0        0

1.827440e+05 1.417489e+05        0
1.417489e+05 -6.706905e+03        0
       0        0        0

-1.957953e+05 1.417140e+05        0
1.417140e+05 -6.410058e+03        0
       0        0        0

-5.721953e+05 1.280325e+05        0
1.280325e+05 -5.045672e+03        0
       0        0        0

-9.423987e+05 1.005183e+05        0
1.005183e+05 -2.885424e+03        0
       0        0        0

-1.301968e+06 6.174820e+04        0
6.174820e+04 -1.878593e+03        0
       0        0        0

-1.653095e+06 1.954854e+04        0
1.954854e+04 -4.089317e+03        0
       0        0        0

1.600598e+06 2.225079e+04        0
2.225079e+04 -9.442369e+03        0
       0        0        0

1.249090e+06 6.393460e+04        0
6.393460e+04 -1.233760e+04        0
       0        0        0

8.953025e+05 9.986535e+04        0
9.986535e+04 -1.383790e+04        0
       0        0        0

5.361844e+05 1.260783e+05        0
1.260783e+05 -1.297542e+04        0
       0        0        0

1.728332e+05 1.397138e+05        0
1.397138e+05 -1.082749e+04        0
       0        0        0

-1.918276e+05 1.396811e+05        0
1.396811e+05 -8.227825e+03        0
       0        0        0

-5.546490e+05 1.259899e+05        0
1.259899e+05 -5.893338e+03        0
       0        0        0

-9.127044e+05 9.974934e+04        0
9.974934e+04 -4.643151e+03        0
       0        0        0

-1.264878e+06 6.383132e+04        0
6.383132e+04 -5.520694e+03        0
       0        0        0

-1.614155e+06 2.220527e+04        0
2.220527e+04 -7.489650e+03        0
       0        0        0

1.552121e+06 2.393438e+04        0
2.393438e+04 -1.261433e+04        0
       0        0        0

1.206879e+06 6.597638e+04        0
6.597638e+04 -1.464163e+04        0
       0        0        0

8.613577e+05 1.001019e+05        0
1.001019e+05 -1.601054e+04        0
       0        0        0

5.132868e+05 1.244849e+05        0
1.244849e+05 -1.572874e+04        0
       0        0        0

1.627873e+05 1.371937e+05        0
1.371937e+05 -1.402578e+04        0
       0        0        0

-1.885286e+05 1.371627e+05        0
1.371627e+05 -1.177208e+04        0
       0        0        0

-5.385574e+05 1.244007e+05        0
1.244007e+05 -9.917642e+03        0
       0        0        0

-8.856825e+05 9.998932e+04        0
9.998932e+04 -9.322029e+03        0
       0        0        0

-1.229765e+06 6.587296e+04        0
6.587296e+04 -1.019042e+04        0
       0        0        0

-1.573036e+06 2.388674e+04        0
2.388674e+04 -1.149002e+04        0
       0        0        0

1.501461e+06 2.485885e+04        0
2.485885e+04 -1.634503e+04        0
       0        0        0

1.164939e+06 6.732322e+04        0
6.732322e+04 -1.754807e+04        0
       0        0        0

8.286806e+05 1.004578e+05        0
1.004578e+05 -1.847574e+04        0
       0        0        0

4.913624e+05 1.234989e+05        0
1.234989e+05 -1.840576e+04        0
       0        0        0

1.528437e+05 1.353559e+05        0
1.353559e+05 -1.736371e+04        0
       0        0        0

-1.860543e+05 1.353263e+05        0
1.353263e+05 -1.589949e+04        0
       0        0        0

-5.241667e+05 1.234180e+05        0
1.234180e+05 -1.474882e+04        0
       0        0        0

-8.606678e+05 1.003484e+05        0
1.003484e+05 -1.445391e+04        0
       0        0        0

-1.195686e+06 6.722086e+04        0
6.722086e+04 -1.502447e+04        0
       0        0        0

-1.530518e+06 2.481083e+04        0
2.481083e+04 -1.571502e+04        0
       0        0        0

1.449465e+06 2.531434e+04        0
2.531434e+04 -2.051503e+04        0
       0        0        0

1.122907e+06 6.806228e+04        0
6.806228e+04 -2.115929e+04        0
       0        0        0

7.966667e+05 1.006972e+05        0
1.006972e+05 -2.168164e+04        0
       0        0        0

4.700622e+05 1.229370e+05        0
1.229370e+05 -2.167208e+04        0
       0        0        0

1.429540e+05 1.342369e+05        0
1.342369e+05 -2.109862e+04        0
       0        0        0

-1.842779e+05 1.342086e+05        0
1.342086e+05 -2.027432e+04        0
       0        0        0

-5.110466e+05 1.228591e+05        0
1.228591e+05 -1.963930e+04        0
       0        0        0

-8.369681e+05 1.005910e+05        0
1.005910e+05 -1.950127e+04        0
       0        0        0

-1.162173e+06 6.796203e+04        0
6.796203e+04 -1.981784e+04        0
       0        0        0

-1.487328e+06 2.526696e+04        0
2.526696e+04 -2.016498e+04        0
       0        0        0

1.396692e+06 2.551313e+04        0
2.551313e+04 -2.503907e+04        0
       0        0        0

1.080677e+06 6.840890e+04        0
6.840890e+04 -2.532982e+04        0
       0        0        0

7.648972e+05 1.008037e+05        0
1.008037e+05 -2.556751e+04        0
       0        0        0

4.490383e+05 1.226165e+05        0
1.226165e+05 -2.554643e+04        0
       0        0        0

1.330122e+05 1.336038e+05        0
1.336038e+05 -2.523978e+04        0
       0        0        0

-1.830145e+05 1.335765e+05        0
1.335765e+05 -2.480828e+04        0
       0        0        0

-4.987682e+05 1.225414e+05        0
1.225414e+05 -2.448862e+04        0
       0        0        0

-8.140788e+05 1.007008e+05        0
1.007008e+05 -2.443762e+04        0
       0        0        0

-1.129028e+06 6.831143e+04        0
6.831143e+04 -2.462105e+04        0
       0        0        0

-1.443919e+06 2.546693e+04        0
2.546693e+04 -2.482336e+04        0
       0        0        0

1.343473e+06 2.558302e+04        0
2.558302e+04 -2.983936e+04        0
       0        0        0

1.038243e+06 6.853471e+04        0
6.853471e+04 -2.990834e+04        0
       0        0        0

7.331499e+05 1.008134e+05        0
1.008134e+05 -2.995717e+04        0
       0        0        0

4.280668e+05 1.224134e+05        0
1.224134e+05 -2.989725e+04        0
       0        0        0

1.229528e+05 1.332405e+05        0
1.332405e+05 -2.971605e+04        0
       0        0        0

-1.821196e+05 1.332142e+05        0
1.332142e+05 -2.949336e+04        0
       0        0        0

-4.870270e+05 1.223410e+05        0
1.223410e+05 -2.934746e+04        0
       0        0        0

-7.916940e+05 1.007140e+05        0
1.007140e+05 -2.935500e+04        0
       0        0        0

-1.096156e+06 6.844037e+04        0
6.844037e+04 -2.949745e+04        0
       0        0        0

-1.400531e+06 2.553827e+04        0
2.553827e+04 -2.967801e+04        0
       0        0        0

1.289995e+06 2.559243e+04        0
2.559243e+04 -3.485510e+04        0
       0        0        0

9.956369e+05 6.854561e+04        0
6.854561e+04 -3.477590e+04        0
       0        0        0

7.013302e+05 1.007610e+05        0
1.007610e+05 -3.469665e+04        0
       0        0        0

4.070387e+05 1.222564e+05        0
1.222564e+05 -3.458861e+04        0
       0        0        0

1.127525e+05 1.330052e+05        0
1.330052e+05 -3.445179e+04        0
       0        0        0

-1.814917e+05 1.329799e+05        0
1.329799e+05 -3.432701e+04        0
       0        0        0

-4.756352e+05 1.221866e+05        0
1.221866e+05 -3.427260e+04        0
       0        0        0

-7.696388e+05 1.006652e+05        0
1.006652e+05 -3.432662e+04        0
       0        0        0

-1.063507e+06 6.845456e+04        0
6.845456e+04 -3.448365e+04        0
       0        0        0

-1.357269e+06 2.554924e+04        0
2.554924e+04 -3.470725e+04        0
       0        0        0

1.236370e+06 2.557462e+04        0
2.557462e+04 -4.003656e+04        0
       0        0        0

9.529009e+05 6.849852e+04        0
6.849852e+04 -3.984769e+04        0
       0        0        0

6.694157e+05 1.006690e+05        0
1.006690e+05 -3.967445e+04        0
       0        0        0

3.859182e+05 1.221085e+05        0
1.221085e+05 -3.951665e+04        0
       0        0        0

1.024174e+05 1.328180e+05        0
1.328180e+05 -3.938276e+04        0
       0        0        0

-1.810606e+05 1.327937e+05        0
1.327937e+05 -3.929722e+04        0
       0        0        0

-4.644803e+05 1.220413e+05        0
1.220413e+05 -3.929122e+04        0
       0        0        0

-7.478132e+05 1.005767e+05        0
1.005767e+05 -3.938654e+04        0
       0        0        0

-1.031045e+06 6.841086e+04        0
6.841086e+04 -3.958650e+04        0
       0        0        0

-1.314165e+06 2.553304e+04        0
2.553304e+04 -3.988327e+04        0
       0        0        0

1.182669e+06 2.554431e+04        0
2.554431e+04 -4.534129e+04        0
       0        0        0

9.100799e+05 6.842097e+04        0
6.842097e+04 -4.506239e+04        0
       0        0        0

6.374198e+05 1.005496e+05        0
1.005496e+05 -4.481331e+04        0
       0        0        0

3.647096e+05 1.219518e+05        0
1.219518e+05 -4.460682e+04        0
       0        0        0

9.196946e+04 1.326385e+05        0
1.326385e+05 -4.445686e+04        0
       0        0        0

-1.807746e+05 1.326151e+05        0
1.326151e+05 -4.438231e+04        0
       0        0        0

-4.534928e+05 1.218873e+05        0
1.218873e+05 -4.440386e+04        0
       0        0        0

-7.261568e+05 1.004610e+05        0
1.004610e+05 -4.453783e+04        0
       0        0        0

-9.987412e+05 6.833672e+04        0
6.833672e+04 -4.479302e+04        0
       0        0        0

-1.271218e+06 2.550435e+04        0
2.550435e+04 -4.517456e+04        0
       0        0        0

1.128945e+06 2.550730e+04        0
2.550730e+04 -5.073138e+04        0
       0        0        0

8.672178e+05 6.832492e+04        0
6.832492e+04 -5.037291e+04        0
       0        0        0

6.053720e+05 1.004086e+05        0
1.004086e+05 -5.005767e+04        0
       0        0        0

3.434364e+05 1.217783e+05        0
1.217783e+05 -4.980442e+04        0
       0        0        0

8.143845e+04 1.324475e+05        0
1.324475e+05 -4.963071e+04        0
       0        0        0

-1.805924e+05 1.324250e+05        0
1.324250e+05 -4.955467e+04        0
       0        0        0

-4.426251e+05 1.217163e+05        0
1.217163e+05 -4.959421e+04        0
       0        0        0

-7.046277e+05 1.003236e+05        0
1.003236e+05 -4.976491e+04        0
       0        0        0

-9.665679e+05 6.824409e+04        0
6.824409e+04 -5.007923e+04        0
       0        0        0

-1.228410e+06 2.546897e+04        0
2.546897e+04 -5.054824e+04        0
       0        0        0

1.075244e+06 2.546551e+04        0
2.546551e+04 -5.617179e+04        0
       0        0        0

8.243567e+05 6.821488e+04        0
6.821488e+04 -5.574013e+04        0
       0        0        0

5.733076e+05 1.002483e+05        0
1.002483e+05 -5.536439e+04        0
       0        0        0

3.221299e+05 1.215842e+05        0
1.215842e+05 -5.506645e+04        0
       0        0        0

7.085674e+04 1.322367e+05        0
1.322367e+05 -5.486654e+04        0
       0        0        0

-1.804784e+05 1.322151e+05        0
1.322151e+05 -5.478400e+04        0
       0        0        0

-4.318404e+05 1.215249e+05        0
1.215249e+05 -5.483716e+04        0
       0        0        0

-6.831933e+05 1.001668e+05        0
1.001668e+05 -5.504283e+04        0
       0        0        0

-9.344992e+05 6.813748e+04        0
6.813748e+04 -5.541618e+04        0
       0        0        0

-1.185718e+06 2.542880e+04        0
2.542880e+04 -5.597142e+04        0
       0        0        0

1.021608e+06 2.541930e+04        0
2.541930e+04 -6.162959e+04        0
       0        0        0

7.815366e+05 6.809211e+04        0
6.809211e+04 -6.112951e+04        0
       0        0        0

5.412632e+05 1.000690e+05        0
1.000690e+05 -6.069716e+04        0
       0        0        0

3.008242e+05 1.213678e+05        0
1.213678e+05 -6.035654e+04        0
       0        0        0

6.025702e+04 1.320022e+05        0
1.320022e+05 -6.013019e+04        0
       0        0        0

-1.804000e+05 1.319817e+05        0
1.319817e+05 -6.003933e+04        0
       0        0        0

-4.211076e+05 1.213111e+05        0
1.213111e+05 -6.010397e+04        0
       0        0        0

-6.618250e+05 9.999120e+04        0
9.999120e+04 -6.034281e+04        0
       0        0        0

-9.025101e+05 6.801814e+04        0
6.801814e+04 -6.077335e+04        0
       0        0        0

-1.143119e+06 2.538422e+04        0
2.538422e+04 -6.141199e+04        0
       0        0        0

9.680755e+05 2.536855e+04        0
2.536855e+04 -6.707360e+04        0
       0        0        0

7.387962e+05 6.795662e+04        0
6.795662e+04 -6.650930e+04        0
       0        0        0

5.092752e+05 9.987072e+04        0
9.987072e+04 -6.602352e+04        0
       0        0        0

2.795529e+05 1.211282e+05        0
1.211282e+05 -6.564220e+04        0
       0        0        0

4.967121e+04 1.317426e+05        0
1.317426e+05 -6.538998e+04        0
       0        0        0

-1.803272e+05 1.317230e+05        0
1.317230e+05 -6.529021e+04        0
       0        0        0

-4.103984e+05 1.210742e+05        0
1.210742e+05 -6.536499e+04        0
       0        0        0

-6.404972e+05 9.979648e+04        0
9.979648e+04 -6.563517e+04        0
       0        0        0

-8.705771e+05 6.788607e+04        0
6.788607e+04 -6.612039e+04        0
       0        0        0

-1.100590e+06 2.533509e+04        0
2.533509e+04 -6.683906e+04        0
       0        0        0

9.146867e+05 2.531301e+04        0
2.531301e+04 -7.247418e+04        0
       0        0        0

6.961727e+05 6.780801e+04        0
6.780801e+04 -7.184971e+04        0
       0        0        0

4.773785e+05 9.965281e+04        0
9.965281e+04 -7.131348e+04        0
       0        0        0

2.583489e+05 1.208647e+05        0
1.208647e+05 -7.089336e+04        0
       0        0        0

3.912993e+04 1.314568e+05        0
1.314568e+05 -7.061612e+04        0
       0        0        0

-1.802313e+05 1.314382e+05        0
1.314382e+05 -7.050728e+04        0
       0        0        0

-3.996863e+05 1.208132e+05        0
1.208132e+05 -7.059114e+04        0
       0        0        0

-6.191856e+05 9.958215e+04        0
9.958215e+04 -7.089076e+04        0
       0        0        0

-8.386783e+05 6.774087e+04        0
6.774087e+04 -7.142793e+04        0
       0        0        0

-1.058113e+06 2.528117e+04        0
2.528117e+04 -7.222308e+04        0
       0        0        0

8.614788e+05 2.525244e+04        0
2.525244e+04 -7.780321e+04        0
       0        0        0

6.537016e+05 6.764582e+04        0
6.764582e+04 -7.712262e+04        0
       0        0        0

4.456070e+05 9.941475e+04        0
9.941475e+04 -7.653886e+04        0
       0        0        0

2.372438e+05 1.205765e+05        0
1.205765e+05 -7.608186e+04        0
       0        0        0

2.866241e+04 1.311442e+05        0
1.311442e+05 -7.578049e+04        0
       0        0        0

-1.800854e+05 1.311265e+05        0
1.311265e+05 -7.566249e+04        0
       0        0        0

-3.889468e+05 1.205277e+05        0
1.205277e+05 -7.575442e+04        0
       0        0        0

-5.978678e+05 9.934768e+04        0
9.934768e+04 -7.608156e+04        0
       0        0        0

-8.067931e+05 6.758208e+04        0
6.758208e+04 -7.666790e+04        0
       0        0        0

-1.015667e+06 2.522221e+04        0
2.522221e+04 -7.753598e+04        0
       0        0        0

8.084883e+05 2.518665e+04        0
2.518665e+04 -8.303409e+04        0
       0        0        0

6.114176e+05 6.746961e+04        0
6.746961e+04 -8.230145e+04        0
       0        0        0

4.139928e+05 9.915600e+04        0
9.915600e+04 -8.167310e+04        0
       0        0        0

2.162675e+05 1.202632e+05        0
1.202632e+05 -8.118109e+04        0
       0        0        0

1.829640e+04 1.308041e+05        0
1.308041e+05 -8.085648e+04        0
       0        0        0

-1.798642e+05 1.307873e+05        0
1.307873e+05 -8.072926e+04        0
       0        0        0

-3.781568e+05 1.202169e+05        0
1.202169e+05 -8.082825e+04        0
       0        0        0

-5.765228e+05 9.909250e+04        0
9.909250e+04 -8.118099e+04        0
       0        0        0

-7.749029e+05 6.740927e+04        0
6.740927e+04 -8.181372e+04        0
       0        0        0

-9.732366e+05 2.515804e+04        0
2.515804e+04 -8.275117e+04        0
       0        0        0

7.557507e+05 2.511550e+04        0
2.511550e+04 -8.814170e+04        0
       0        0        0

5.693535e+05 6.727903e+04        0
6.727903e+04 -8.736110e+04        0
       0        0        0

3.825668e+05 9.887608e+04        0
9.887608e+04 -8.669111e+04        0
       0        0        0

1.954486e+05 1.199241e+05        0
1.199241e+05 -8.616599e+04        0
       0        0        0

8.058151e+03 1.304359e+05        0
1.304359e+05 -8.581902e+04        0
       0        0        0

-1.795435e+05 1.304201e+05        0
1.304201e+05 -8.568248e+04        0
       0        0        0

-3.672944e+05 1.198804e+05        0
1.198804e+05 -8.578749e+04        0
       0        0        0

-5.551314e+05 9.881614e+04        0
9.881614e+04 -8.616392e+04        0
       0        0        0

-7.429904e+05 6.722207e+04        0
6.722207e+04 -8.684026e+04        0
       0        0        0

-9.308068e+05 2.508849e+04        0
2.508849e+04 -8.784355e+04        0
       0        0        0

7.032997e+05 2.503889e+04        0
2.503889e+04 -9.310245e+04        0
       0        0        0

5.275412e+05 6.707378e+04        0
6.707378e+04 -9.227797e+04        0
       0        0        0

3.513585e+05 9.857454e+04        0
9.857454e+04 -9.156933e+04        0
       0        0        0

1.748142e+05 1.195587e+05        0
1.195587e+05 -9.101299e+04        0
       0        0        0

-2.027531e+03 1.300391e+05        0
1.300391e+05 -9.064452e+04        0
       0        0        0

-1.791012e+05 1.300242e+05        0
1.300242e+05 -9.049852e+04        0
       0        0        0

-3.563398e+05 1.195176e+05        0
1.195176e+05 -9.060850e+04        0
       0        0        0

-5.336758e+05 9.851814e+04        0
9.851814e+04 -9.100669e+04        0
       0        0        0

-7.110403e+05 6.702019e+04        0
6.702019e+04 -9.172392e+04        0
       0        0        0

-8.883642e+05 2.501347e+04        0
2.501347e+04 -9.278951e+04        0
       0        0        0

6.511683e+05 2.495673e+04        0
2.495673e+04 -9.789421e+04        0
       0        0        0

4.860110e+05 6.685364e+04        0
6.685364e+04 -9.702997e+04        0
       0        0        0

3.203959e+05 9.825100e+04        0
9.825100e+04 -9.628566e+04        0
       0        0        0

1.543901e+05 1.191665e+05        0
1.191665e+05 -9.569999e+04        0
       0        0        0

-1.193732e+04 1.296131e+05        0
1.296131e+05 -9.531085e+04        0
       0        0        0

-1.785161e+05 1.295991e+05        0
1.295991e+05 -9.515527e+04        0
       0        0        0

-3.452745e+05 1.191279e+05        0
1.191279e+05 -9.526915e+04        0
       0        0        0

-5.121398e+05 9.819813e+04        0
9.819813e+04 -9.568718e+04        0
       0        0        0

-6.790387e+05 6.680340e+04        0
6.680340e+04 -9.644257e+04        0
       0        0        0

-8.458974e+05 2.493291e+04        0
2.493291e+04 -9.756696e+04        0
       0        0        0

5.993876e+05 2.486901e+04        0
2.486901e+04 -1.024964e+05        0
       0        0        0

4.447919e+05 6.661842e+04        0
6.661842e+04 -1.015965e+05        0
       0        0        0

2.897057e+05 9.790511e+04        0
9.790511e+04 -1.008195e+05        0
       0        0        0

1.342007e+05 1.187470e+05        0
1.187470e+05 -1.002063e+05        0
       0        0        0

-2.164936e+04 1.291573e+05        0
1.291573e+05 -9.979739e+04        0
       0        0        0

-1.777690e+05 1.291443e+05        0
1.291443e+05 -9.963210e+04        0
       0        0        0

-3.340814e+05 1.187110e+05        0
1.187110e+05 -9.974884e+04        0
       0        0        0

-4.905089e+05 9.785574e+04        0
9.785574e+04 -1.001848e+05        0
       0        0        0

-6.469733e+05 6.657150e+04        0
6.657150e+04 -1.009756e+05        0
       0        0        0

-8.033964e+05 2.484676e+04        0
2.484676e+04 -1.021553e+05        0
       0        0        0

5.479875e+05 2.477570e+04        0
2.477570e+04 -1.068898e+05        0
       0        0        0

4.039118e+05 6.636793e+04        0
6.636793e+04 -1.059583e+05        0
       0        0        0

2.593134e+05 9.753651e+04        0
9.753651e+04 -1.051514e+05        0
       0        0        0

1.142687e+05 1.182999e+05        0
1.182999e+05 -1.045127e+05        0
       0        0        0

-3.114325e+04 1.286714e+05        0
1.286714e+05 -1.040849e+05        0
       0        0        0

-1.768419e+05 1.286593e+05        0
1.286593e+05 -1.039100e+05        0
       0        0        0

-3.227451e+05 1.182664e+05        0
1.182664e+05 -1.040286e+05        0
       0        0        0

-4.687702e+05 9.749061e+04        0
9.749061e+04 -1.044805e+05        0
       0        0        0

-6.148338e+05 6.632432e+04        0
6.632432e+04 -1.053039e+05        0
       0        0        0

-7.608530e+05 2.475502e+04        0
2.475502e+04 -1.065353e+05        0
       0        0        0

4.969966e+05 2.467678e+04        0
2.467678e+04 -1.110568e+05        0
       0        0        0

3.633971e+05 6.610182e+04        0
6.610182e+04 -1.100973e+05        0
       0        0        0

2.292429e+05 9.714470e+04        0
9.714470e+04 -1.092632e+05        0
       0        0        0

9.461561e+04 1.178248e+05        0
1.178248e+05 -1.086006e+05        0
       0        0        0

-4.040017e+04 1.281554e+05        0
1.281554e+05 -1.081554e+05        0
       0        0        0

-1.757183e+05 1.281442e+05        0
1.281442e+05 -1.079715e+05        0
       0        0        0

-3.112518e+05 1.177938e+05        0
1.177938e+05 -1.080915e+05        0
       0        0        0

-4.469124e+05 9.710225e+04        0
9.710225e+04 -1.085573e+05        0
       0        0        0

-5.826112e+05 6.606149e+04        0
6.606149e+04 -1.094101e+05        0
       0        0        0

-7.182604e+05 2.465765e+04        0
2.465765e+04 -1.106894e+05        0
       0        0        0

4.464423e+05 2.457197e+04        0
2.457197e+04 -1.149809e+05        0
       0        0        0

3.232731e+05 6.581913e+04        0
6.581913e+04 -1.139965e+05        0
       0        0        0

1.995164e+05 9.672884e+04        0
9.672884e+04 -1.131367e+05        0
       0        0        0

7.526049e+04 1.173218e+05        0
1.173218e+05 -1.124521e+05        0
       0        0        0

-4.940306e+04 1.276101e+05        0
1.276101e+05 -1.119919e+05        0
       0        0        0

-1.743830e+05 1.275998e+05        0
1.275998e+05 -1.118014e+05        0
       0        0        0

-2.995882e+05 1.172934e+05        0
1.172934e+05 -1.119234e+05        0
       0        0        0

-4.249253e+05 9.668981e+04        0
9.668981e+04 -1.124010e+05        0
       0        0        0

-5.502986e+05 6.578205e+04        0
6.578205e+04 -1.132790e+05        0
       0        0        0

-6.756136e+05 2.455439e+04        0
2.455439e+04 -1.146015e+05        0
       0        0        0

3.963520e+05 2.446026e+04        0
2.446026e+04 -1.186469e+05        0
       0        0        0

2.835643e+05 6.551718e+04        0
6.551718e+04 -1.176384e+05        0
       0        0        0

1.701533e+05 9.628712e+04        0
9.628712e+04 -1.167524e+05        0
       0        0        0

5.621919e+04 1.167920e+05        0
1.167920e+05 -1.160475e+05        0
       0        0        0

-5.813725e+04 1.270392e+05        0
1.270392e+05 -1.155776e+05        0
       0        0        0

-1.728212e+05 1.270298e+05        0
1.270298e+05 -1.153869e+05        0
       0        0        0

-2.877407e+05 1.167660e+05        0
1.167660e+05 -1.155142e+05        0
       0        0        0

-4.027988e+05 9.625147e+04        0
9.625147e+04 -1.160016e+05        0
       0        0        0

-5.178907e+05 6.548332e+04        0
6.548332e+04 -1.168985e+05        0
       0        0        0

-6.329102e+05 2.444420e+04        0
2.444420e+04 -1.182574e+05        0
       0        0        0

3.467552e+05 2.433855e+04        0
2.433855e+04 -1.220398e+05        0
       0        0        0

2.442939e+05 6.518924e+04        0
6.518924e+04 -1.210034e+05        0
       0        0        0

1.411679e+05 9.581574e+04        0
9.581574e+04 -1.200860e+05        0
       0        0        0

3.750109e+04 1.162390e+05        0
1.162390e+05 -1.193630e+05        0
       0        0        0

-6.659176e+04 1.264521e+05        0
1.264521e+05 -1.188950e+05        0
       0        0        0

-1.710175e+05 1.264436e+05        0
1.264436e+05 -1.187192e+05        0
       0        0        0

-2.756924e+05 1.162154e+05        0
1.162154e+05 -1.188616e+05        0
       0        0        0

-3.805210e+05 9.578345e+04        0
9.578345e+04 -1.193570e+05        0
       0        0        0

-4.853844e+05 6.515857e+04        0
6.515857e+04 -1.202615e+05        0
       0        0        0

-5.901531e+05 2.432401e+04        0
2.432401e+04 -1.216448e+05        0
       0        0        0

2.976890e+05 2.419891e+04        0
2.419891e+04 -1.251447e+05        0
       0        0        0

2.054841e+05 6.481979e+04        0
6.481979e+04 -1.240663e+05        0
       0        0        0

1.125634e+05 9.530707e+04        0
9.530707e+04 -1.231030e+05        0
       0        0        0

1.910276e+04 1.156715e+05        0
1.156715e+05 -1.223652e+05        0
       0        0        0

-7.476196e+04 1.258704e+05        0
1.258704e+05 -1.219233e+05        0
       0        0        0

-1.689527e+05 1.258627e+05        0
1.258627e+05 -1.217954e+05        0
       0        0        0

-2.634164e+05 1.156504e+05        0
1.156504e+05 -1.219756e+05        0
       0        0        0

-3.580720e+05 9.527809e+04        0
9.527809e+04 -1.224787e+05        0
       0        0        0

-4.527785e+05 6.479228e+04        0
6.479228e+04 -1.233701e+05        0
       0        0        0

-5.473550e+05 2.418587e+04        0
2.418587e+04 -1.247546e+05        0
       0        0        0

2.492099e+05 2.402289e+04        0
2.402289e+04 -1.279446e+05        0
       0        0        0

1.671534e+05 6.437603e+04        0
6.437603e+04 -1.267905e+05        0
       0        0        0

8.432075e+04 9.474696e+04        0
9.474696e+04 -1.257502e+05        0
       0        0        0

9.956360e+02 1.151097e+05        0
1.151097e+05 -1.250041e+05        0
       0        0        0

-8.265452e+04 1.253391e+05        0
1.253391e+05 -1.246361e+05        0
       0        0        0

-1.665992e+05 1.253322e+05        0
1.253322e+05 -1.246208e+05        0
       0        0        0

-2.508640e+05 1.150910e+05        0
1.150910e+05 -1.248858e+05        0
       0        0        0

-3.354132e+05 9.472125e+04        0
9.472125e+04 -1.254005e+05        0
       0        0        0

-4.200721e+05 6.435165e+04        0
6.435165e+04 -1.262413e+05        0
       0        0        0

-5.045514e+05 2.401134e+04        0
2.401134e+04 -1.275824e+05        0
       0        0        0

2.014153e+05 2.377134e+04        0
2.377134e+04 -1.304195e+05        0
       0        0        0

1.293115e+05 6.379479e+04        0
6.379479e+04 -1.291210e+05        0
       0        0        0

5.637588e+04 9.411249e+04        0
9.411249e+04 -1.279476e+05        0
       0        0        0

-1.689471e+04 1.145942e+05        0
1.145942e+05 -1.272081e+05        0
       0        0        0

-9.029522e+04 1.249424e+05        0
1.249424e+05 -1.269991e+05        0
       0        0        0

-1.639117e+05 1.249364e+05        0
1.249364e+05 -1.272103e+05        0
       0        0        0

-2.379432e+05 1.145777e+05        0
1.145777e+05 -1.276464e+05        0
       0        0        0

-3.124660e+05 9.409002e+04        0
9.409002e+04 -1.281874e+05        0
       0        0        0

-3.872612e+05 6.377352e+04        0
6.377352e+04 -1.289162e+05        0
       0        0        0

-4.618232e+05 2.376129e+04        0
2.376129e+04 -1.301320e+05        0
       0        0        0

1.544812e+05 2.336820e+04        0
2.336820e+04 -1.325456e+05        0
       0        0        0

9.194293e+04 6.296797e+04        0
6.296797e+04 -1.309823e+05        0
       0        0        0

2.858339e+04 9.337519e+04        0
9.337519e+04 -1.295932e+05        0
       0        0        0

-3.471703e+04 1.141994e+05        0
1.141994e+05 -1.288942e+05        0
       0        0        0

-9.773806e+04 1.248184e+05        0
1.248184e+05 -1.289754e+05        0
       0        0        0

-1.608164e+05 1.248133e+05        0
1.248133e+05 -1.295809e+05        0
       0        0        0

-2.244899e+05 1.141852e+05        0
1.141852e+05 -1.303250e+05        0
       0        0        0

-2.890761e+05 9.335593e+04        0
9.335593e+04 -1.309328e+05        0
       0        0        0

-3.543258e+05 6.294982e+04        0
6.294982e+04 -1.314659e+05        0
       0        0        0

-4.193386e+05 2.335964e+04        0
2.335964e+04 -1.324194e+05        0
       0        0        0

1.087145e+05 2.268033e+04        0
2.268033e+04 -1.342991e+05        0
       0        0        0

5.496812e+04 6.174336e+04        0
6.174336e+04 -1.323002e+05        0
       0        0        0

6.678996e+02 9.252452e+04        0
9.252452e+04 -1.306188e+05        0
       0        0        0

-5.271543e+04 1.140440e+05        0
1.140440e+05 -1.300355e+05        0
       0        0        0

-1.050666e+05 1.251442e+05        0
1.251442e+05 -1.305533e+05        0
       0        0        0

-1.572048e+05 1.251399e+05        0
1.251399e+05 -1.317193e+05        0
       0        0        0

-2.102445e+05 1.140321e+05        0
1.140321e+05 -1.329329e+05        0
       0        0        0

-2.649676e+05 9.250845e+04        0
9.250845e+04 -1.337042e+05        0
       0        0        0

-3.211991e+05 6.172831e+04        0
6.172831e+04 -1.339772e+05        0
       0        0        0

-3.774167e+05 2.267329e+04        0
2.267329e+04 -1.344802e+05        0
       0        0        0

6.459480e+04 2.150973e+04        0
2.150973e+04 -1.356884e+05        0
       0        0        0

1.815867e+04 5.999687e+04        0
5.999687e+04 -1.331023e+05        0
       0        0        0

-2.780648e+04 9.164723e+04        0
9.164723e+04 -1.312088e+05        0
       0        0        0

-7.118365e+04 1.142673e+05        0
1.142673e+05 -1.308778e+05        0
       0        0        0

-1.123614e+05 1.260157e+05        0
1.260157e+05 -1.318364e+05        0
       0        0        0

-1.529570e+05 1.260123e+05        0
1.260123e+05 -1.334828e+05        0
       0        0        0

-1.948905e+05 1.142578e+05        0
1.142578e+05 -1.352015e+05        0
       0        0        0

-2.397133e+05 9.163438e+04        0
9.163438e+04 -1.363258e+05        0
       0        0        0

-2.876960e+05 5.998491e+04        0
5.998491e+04 -1.364657e+05        0
       0        0        0

-3.365940e+05 2.150423e+04        0
2.150423e+04 -1.363633e+05        0
       0        0        0

2.270558e+04 1.966862e+04        0
1.966862e+04 -1.368167e+05        0
       0        0        0

-1.903524e+04 5.793780e+04        0
5.793780e+04 -1.339298e+05        0
       0        0        0

-5.730975e+04 9.110111e+04        0
9.110111e+04 -1.324066e+05        0
       0        0        0

-9.021309e+04 1.148749e+05        0
1.148749e+05 -1.324876e+05        0
       0        0        0

-1.195672e+05 1.270482e+05        0
1.270482e+05 -1.332397e+05        0
       0        0        0

-1.480579e+05 1.270458e+05        0
1.270458e+05 -1.343858e+05        0
       0        0        0

-1.782925e+05 1.148680e+05        0
1.148680e+05 -1.360206e+05        0
       0        0        0

-2.128555e+05 9.109164e+04        0
9.109164e+04 -1.377667e+05        0
       0        0        0

-2.533597e+05 5.792889e+04        0
5.792889e+04 -1.384833e+05        0
       0        0        0

-2.976104e+05 1.966461e+04        0
1.966461e+04 -1.381217e+05        0
       0        0        0

-1.685234e+04 1.745716e+04        0
1.745716e+04 -1.385235e+05        0
       0        0        0

-5.758032e+04 5.698399e+04        0
5.698399e+04 -1.369768e+05        0
       0        0        0

-8.772050e+04 9.171443e+04        0
9.171443e+04 -1.378057e+05        0
       0        0        0

-1.089559e+05 1.150825e+05        0
1.150825e+05 -1.376814e+05        0
       0        0        0

-1.262312e+05 1.264793e+05        0
1.264793e+05 -1.357161e+05        0
       0        0        0

-1.428338e+05 1.264782e+05        0
1.264782e+05 -1.333490e+05        0
       0        0        0

-1.612037e+05 1.150790e+05        0
1.150790e+05 -1.324791e+05        0
       0        0        0

-1.845045e+05 9.170888e+04        0
9.170888e+04 -1.344225e+05        0
       0        0        0

-2.173757e+05 5.697810e+04        0
5.697810e+04 -1.379877e+05        0
       0        0        0

-2.609327e+05 1.745448e+04        0
1.745448e+04 -1.392813e+05        0
       0        0        0

-5.646766e+04 1.792672e+04        0
1.792672e+04 -1.428131e+05        0
       0        0        0

-9.829877e+04 6.189685e+04        0
6.189685e+04 -1.516844e+05        0
       0        0        0

-1.158943e+05 9.344990e+04        0
9.344990e+04 -1.563113e+05        0
       0        0        0

-1.246500e+05 1.115547e+05        0
1.115547e+05 -1.514462e+05        0
       0        0        0

-1.313584e+05 1.198686e+05        0
1.198686e+05 -1.407842e+05        0
       0        0        0

-1.380685e+05 1.198690e+05        0
1.198690e+05 -1.286427e+05        0
       0        0        0

-1.461939e+05 1.115554e+05        0
1.115554e+05 -1.193975e+05        0
       0        0        0

-1.576930e+05 9.344971e+04        0
9.344971e+04 -1.172760e+05        0
       0        0        0

-1.790603e+05 6.189463e+04        0
6.189463e+04 -1.256766e+05        0
       0        0        0

-2.248720e+05 1.792490e+04        0
1.792490e+04 -1.385361e+05        0
       0        0        0

-1.088973e+05 4.051150e+04        0
4.051150e+04 -1.751876e+05        0
       0        0        0

-1.320603e+05 7.607828e+04        0
7.607828e+04 -2.049813e+05        0
       0        0        0

-1.330915e+05 8.956296e+04        0
8.956296e+04 -2.007628e+05        0
       0        0        0

-1.332998e+05 9.623840e+04        0
9.623840e+04 -1.795074e+05        0
       0        0        0

-1.336317e+05 9.917546e+04        0
9.917546e+04 -1.499518e+05        0
       0        0        0

-1.347658e+05 9.917740e+04        0
9.917740e+04 -1.184454e+05        0
       0        0        0

-1.369143e+05 9.624368e+04        0
9.624368e+04 -9.070397e+04        0
       0        0        0

-1.407952e+05 8.956988e+04        0
8.956988e+04 -7.311809e+04        0
       0        0        0

-1.473652e+05 7.608398e+04        0
7.608398e+04 -7.443811e+04        0
       0        0        0

-1.773342e+05 4.051129e+04        0
4.051129e+04 -1.110440e+05        0
       0        0        0

POINT_DATA     451
VECTORS DISPLACEMENT_2.600000e-01 double
0.000000e+00    0.000000e+00    0.000000e+00
0.000000e+00    0.000000e+00    0.000000e+00
0.000000e+00    0.000000e+00    0.000000e+00
0.000000e+00    0.000000e+00    0.000000e+00
0.000000e+00    0.000000e+00    0.000000e+00
0.000000e+00    0.000000e+00    0.000000e+00
0.000000e+00    0.000000e+00    0.000000e+00
0.000000e+00    0.000000e+00    0.000000e+00
0.000000e+00    0.000000e+00    0.000000e+00
0.000000e+00    0.000000e+00    0.000000e+00
0.000000e+00    0.000000e+00    0.000000e+00
-1.162432e-06    -8.456079e-07    0.000000e+00
-7.362593e-07    -4.245268e-07    0.000000e+00
-5.252382e-07    -2.204545e-07    0.000000e+00
-3.390773e-07    -1.097104e-07    0.000000e+00
-1.671631e-07    -5.240946e-08    0.000000e+00
-3.332908e-20    -3.459555e-08    0.000000e+00
1.671631e-07    -5.240946e-08    0.000000e+00
3.390773e-07    -1.097104e-07    0.000000e+00
5.252382e-07    -2.204545e-07    0.000000e+00
7.362593e-07    -4.245268e-07    0.000000e+00
1.162432e-06    -8.456079e-07    0.000000e+00
-2.192924e-06    -1.406647e-06    0.000000e+00
-1.602484e-06    -1.018351e-06    0.000000e+00
-1.124574e-06    -7.159252e-07    0.000000e+00
-7.253176e-07    -5.289079e-07    0.000000e+00
-3.562148e-07    -4.270246e-07    0.000000e+00
-7.045594e-20    -3.946661e-07    0.000000e+00
3.562148e-07    -4.270246e-07    0.000000e+00
7.253176e-07    -5.289079e-07    0.000000e+00
1.124574e-06    -7.159252e-07    0.000000e+00
1.602484e-06    -1.018351e-06    0.000000e+00
2.192924e-06    -1.406647e-06    0.000000e+00
-3.188670e-06    -2.104053e-06    0.000000e+00
-2.436648e-06    -1.714982e-06    0.000000e+00
-1.752998e-06    -1.408232e-06    0.000000e+00
-1.134737e-06    -1.191889e-06    0.000000e+00
-5.583101e-07    -1.067209e-06    0.000000e+00
-1.111466e-19    -1.026599e-06    0.000000e+00
5.583101e-07    -1.067209e-06    0.000000e+00
1.134737e-06    -1.191889e-06    0.000000e+00
1.752998e-06    -1.408232e-06    0.000000e+00
2.436648e-06    -1.714982e-06    0.000000e+00
3.188670e-06    -2.104053e-06    0.000000e+00
-4.173161e-06    -2.964451e-06    0.000000e+00
-3.243153e-06    -2.584340e-06    0.000000e+00
-2.367749e-06    -2.282750e-06    0.000000e+00
-1.545905e-06    -2.065118e-06    0.000000e+00
-7.630955e-07    -1.934493e-06    0.000000e+00
-1.531674e-19    -1.891181e-06    0.000000e+00
7.630955e-07    -1.934493e-06    0.000000e+00
1.545905e-06    -2.065118e-06    0.000000e+00
2.367749e-06    -2.282750e-06    0.000000e+00
3.243153e-06    -2.584340e-06    0.000000e+00
4.173161e-06    -2.964451e-06    0.000000e+00
-5.140773e-06    -4.010940e-06    0.000000e+00
-4.025986e-06    -3.639778e-06    0.000000e+00
-2.962831e-06    -3.347349e-06    0.000000e+00
-1.946117e-06    -3.135474e-06    0.000000e+00
-9.639769e-07    -3.007212e-06    0.000000e+00
-1.965513e-19    -2.964279e-06    0.000000e+00
9.639769e-07    -3.007212e-06    0.000000e+00
1.946117e-06    -3.135474e-06    0.000000e+00
2.962831e-06    -3.347349e-06    0.000000e+00
4.025986e-06    -3.639778e-06    0.000000e+00
5.140773e-06    -4.010940e-06    0.000000e+00
-6.087091e-06    -5.246191e-06    0.000000e+00
-4.786721e-06    -4.884927e-06    0.000000e+00
-3.538191e-06    -4.601804e-06    0.000000e+00
-2.332626e-06    -4.397465e-06    0.000000e+00
-1.158152e-06    -4.273785e-06    0.000000e+00
-2.409676e-19    -4.232369e-06    0.000000e+00
1.158152e-06    -4.273785e-06    0.000000e+00
2.332626e-06    -4.397465e-06    0.000000e+00
3.538191e-06    -4.601804e-06    0.000000e+00
4.786721e-06    -4.884927e-06    0.000000e+00
6.087091e-06    -5.246191e-06    0.000000e+00
-7.008951e-06    -6.668070e-06    0.000000e+00
-5.525633e-06    -6.317108e-06    0.000000e+00
-4.094922e-06    -6.043056e-06    0.000000e+00
-2.705623e-06    -5.846067e-06    0.000000e+00
-1.345316e-06    -5.727174e-06    0.000000e+00
-2.832002e-19    -5.687405e-06    0.000000e+00
1.345316e-06    -5.727174e-06    0.000000e+00
2.705623e-06    -5.846067e-06    0.000000e+00
4.094922e-06    -6.043056e-06    0.000000e+00
5.525633e-06    -6.317108e-06    0.000000e+00
7.008951e-06    -6.668070e-06    0.000000e+00
-7.904603e-06    -8.272043e-06    0.000000e+00
-6.242634e-06    -7.931622e-06    0.000000e+00
-4.633896e-06    -7.666345e-06    0.000000e+00
-3.065939e-06    -7.476219e-06    0.000000e+00
-1.525864e-06    -7.361754e-06    0.000000e+00
-3.238048e-19    -7.323520e-06    0.000000e+00
1.525864e-06    -7.361754e-06    0.000000e+00
3.065939e-06    -7.476219e-06    0.000000e+00
4.633896e-06    -7.666345e-06    0.000000e+00
6.242634e-06    -7.931622e-06    0.000000e+00
7.904603e-06    -8.272043e-06    0.000000e+00
-8.773147e-06    -1.005279e-05    0.000000e+00
-6.937591e-06    -9.723016e-06    0.000000e+00
-5.155654e-06    -9.466311e-06    0.000000e+00
-3.414266e-06    -9.282646e-06    0.000000e+00
-1.700230e-06    -9.172252e-06    0.000000e+00
-3.662094e-19    -9.135413e-06    0.000000e+00
1.700230e-06    -9.172252e-06    0.000000e+00
3.414266e-06    -9.282646e-06    0.000000e+00
5.155654e-06    -9.466311e-06    0.000000e+00
6.937591e-06    -9.723016e-06    0.000000e+00
8.773147e-06    -1.005279e-05    0.000000e+00
-9.614161e-06    -1.200472e-05    0.000000e+00
-7.610412e-06    -1.168564e-05    0.000000e+00
-5.660486e-06    -1.143739e-05    0.000000e+00
-3.751041e-06    -1.125993e-05    0.000000e+00
-1.868712e-06    -1.115337e-05    0.000000e+00
-4.095404e-19    -1.111783e-05    0.000000e+00
1.868712e-06    -1.115337e-05    0.000000e+00
3.751041e-06    -1.125993e-05    0.000000e+00
5.660486e-06    -1.143739e-05    0.000000e+00
7.610412e-06    -1.168564e-05    0.000000e+00
9.614161e-06    -1.200472e-05    0.000000e+00
-1.042747e-05    -1.412220e-05    0.000000e+00
-8.261043e-06    -1.381385e-05    0.000000e+00
-6.148539e-06    -1.357398e-05    0.000000e+00
-4.076499e-06    -1.340259e-05    0.000000e+00
-2.031482e-06    -1.329972e-05    0.000000e+00
-4.474452e-19    -1.326543e-05    0.000000e+00
2.031482e-06    -1.329972e-05    0.000000e+00
4.076499e-06    -1.340259e-05    0.000000e+00
6.148539e-06    -1.357398e-05    0.000000e+00
8.261043e-06    -1.381385e-05    0.000000e+00
1.042747e-05    -1.412220e-05    0.000000e+00
-1.121299e-05    -1.639962e-05    0.000000e+00
-8.889460e-06    -1.610198e-05    0.000000e+00
-6.619878e-06    -1.587048e-05    0.000000e+00
-4.390760e-06    -1.570509e-05    0.000000e+00
-2.188629e-06    -1.560584e-05    0.000000e+00
-4.854558e-19    -1.557276e-05    0.000000e+00
2.188629e-06    -1.560584e-05    0.000000e+00
4.390760e-06    -1.570509e-05    0.000000e+00
6.619878e-06    -1.587048e-05    0.000000e+00
8.889460e-06    -1.610198e-05    0.000000e+00
1.121299e-05    -1.639962e-05    0.000000e+00
-1.197073e-05    -1.883137e-05    0.000000e+00
-9.495652e-06    -1.854446e-05    0.000000e+00
-7.074534e-06    -1.832129e-05    0.000000e+00
-4.693877e-06    -1.816188e-05    0.000000e+00
-2.340194e-06    -1.806622e-05    0.000000e+00
-5.271721e-19    -1.803433e-05    0.000000e+00
2.340194e-06    -1.806622e-05    0.000000e+00
4.693877e-06    -1.816188e-05    0.000000e+00
7.074534e-06    -1.832129e-05    0.000000e+00
9.495652e-06    -1.854446e-05    0.000000e+00
1.197073e-05    -1.883137e-05    0.000000e+00
-1.270067e-05    -2.141188e-05    0.000000e+00
-1.007962e-05    -2.113568e-05    0.000000e+00
-7.512520e-06    -2.092085e-05    0.000000e+00
-4.985874e-06    -2.076739e-05    0.000000e+00
-2.486195e-06    -2.067531e-05    0.000000e+00
-5.520537e-19    -2.064462e-05    0.000000e+00
2.486195e-06    -2.067531e-05    0.000000e+00
4.985874e-06    -2.076739e-05    0.000000e+00
7.512520e-06    -2.092085e-05    0.000000e+00
1.007962e-05    -2.113568e-05    0.000000e+00
1.270067e-05    -2.141188e-05    0.000000e+00
-1.340283e-05    -2.413557e-05    0.000000e+00
-1.064137e-05    -2.387008e-05    0.000000e+00
-7.933841e-06    -2.366358e-05    0.000000e+00
-5.266761e-06    -2.351607e-05    0.000000e+00
-2.626640e-06    -2.342756e-05    0.000000e+00
-5.750295e-19    -2.339806e-05    0.000000e+00
2.626640e-06    -2.342756e-05    0.000000e+00
5.266761e-06    -2.351607e-05    0.000000e+00
7.933841e-06    -2.366358e-05    0.000000e+00
1.064137e-05    -2.387008e-05    0.000000e+00
1.340283e-05    -2.413557e-05    0.000000e+00
-1.407721e-05    -2.699688e-05    0.000000e+00
-1.118090e-05    -2.674210e-05    0.000000e+00
-8.338505e-06    -2.654393e-05    0.000000e+00
-5.536543e-06    -2.640236e-05    0.000000e+00
-2.761534e-06    -2.631742e-05    0.000000e+00
-5.913349e-19    -2.628911e-05    0.000000e+00
2.761534e-06    -2.631742e-05    0.000000e+00
5.536543e-06    -2.640236e-05    0.000000e+00
8.338505e-06    -2.654393e-05    0.000000e+00
1.118090e-05    -2.674210e-05    0.000000e+00
1.407721e-05    -2.699688e-05    0.000000e+00
-1.472383e-05    -2.999024e-05    0.000000e+00
-1.169823e-05    -2.974617e-05    0.000000e+00
-8.726516e-06    -2.955632e-05    0.000000e+00
-5.795225e-06    -2.942070e-05    0.000000e+00
-2.890877e-06    -2.933933e-05    0.000000e+00
-5.913349e-19    -2.931220e-05    0.000000e+00
2.890877e-06    -2.933933e-05    0.000000e+00
5.795225e-06    -2.942070e-05    0.000000e+00
8.726516e-06    -2.955632e-05    0.000000e+00
1.169823e-05    -2.974617e-05    0.000000e+00
1.472383e-05    -2.999024e-05    0.000000e+00
-1.534270e-05    -3.311011e-05    0.000000e+00
-1.219335e-05    -3.287674e-05    0.000000e+00
-9.097880e-06    -3.269521e-05    0.000000e+00
-6.042810e-06    -3.256554e-05    0.000000e+00
-3.014672e-06    -3.248773e-05    0.000000e+00
-6.063697e-19    -3.246179e-05    0.000000e+00
3.014672e-06    -3.248773e-05    0.000000e+00
6.042810e-06    -3.256554e-05    0.000000e+00
9.097880e-06    -3.269521e-05    0.000000e+00
1.219335e-05    -3.287674e-05    0.000000e+00
1.534270e-05    -3.311011e-05    0.000000e+00
-1.593382e-05    -3.635093e-05    0.000000e+00
-1.266629e-05    -3.612825e-05    0.000000e+00
-9.452604e-06    -3.595504e-05    0.000000e+00
-6.279303e-06    -3.583131e-05    0.000000e+00
-3.132922e-06    -3.575706e-05    0.000000e+00
-6.405687e-19    -3.573231e-05    0.000000e+00
3.132922e-06    -3.575706e-05    0.000000e+00
6.279303e-06    -3.583131e-05    0.000000e+00
9.452604e-06    -3.595504e-05    0.000000e+00
1.266629e-05    -3.612825e-05    0.000000e+00
1.593382e-05    -3.635093e-05    0.000000e+00
-1.649721e-05    -3.970714e-05    0.000000e+00
-1.311704e-05    -3.949516e-05    0.000000e+00
-9.790695e-06    -3.933026e-05    0.000000e+00
-6.504708e-06    -3.921246e-05    0.000000e+00
-3.245628e-06    -3.914178e-05    0.000000e+00
-6.892731e-19    -3.911821e-05    0.000000e+00
3.245628e-06    -3.914178e-05    0.000000e+00
6.504708e-06    -3.921246e-05    0.000000e+00
9.790695e-06    -3.933026e-05    0.000000e+00
1.311704e-05    -3.949516e-05    0.000000e+00
1.649721e-05    -3.970714e-05    0.000000e+00
-1.703289e-05    -4.317320e-05    0.000000e+00
-1.354563e-05    -4.297190e-05    0.000000e+00
-1.011216e-05    -4.281531e-05    0.000000e+00
-6.719032e-06    -4.270345e-05    0.000000e+00
-3.352793e-06    -4.263632e-05    0.000000e+00
-7.602121e-19    -4.261395e-05    0.000000e+00
3.352793e-06    -4.263632e-05    0.000000e+00
6.719032e-06    -4.270345e-05    0.000000e+00
1.011216e-05    -4.281531e-05    0.000000e+00
1.354563e-05    -4.297190e-05    0.000000e+00
1.703289e-05    -4.317320e-05    0.000000e+00
-1.754087e-05    -4.674355e-05    0.000000e+00
-1.395206e-05    -4.655294e-05    0.000000e+00
-1.041701e-05    -4.640466e-05    0.000000e+00
-6.922280e-06    -4.629872e-05    0.000000e+00
-3.454422e-06    -4.623515e-05    0.000000e+00
-8.114576e-19    -4.621396e-05    0.000000e+00
3.454422e-06    -4.623515e-05    0.000000e+00
6.922280e-06    -4.629872e-05    0.000000e+00
1.041701e-05    -4.640466e-05    0.000000e+00
1.395206e-05    -4.655294e-05    0.000000e+00
1.754087e-05    -4.674355e-05    0.000000e+00
-1.802116e-05    -5.041267e-05    0.000000e+00
-1.433635e-05    -5.023273e-05    0.000000e+00
-1.070526e-05    -5.009274e-05    0.000000e+00
-7.114459e-06    -4.999274e-05    0.000000e+00
-3.550515e-06    -4.993272e-05    0.000000e+00
-8.514799e-19    -4.991272e-05    0.000000e+00
3.550515e-06    -4.993272e-05    0.000000e+00
7.114459e-06    -4.999274e-05    0.000000e+00
1.070526e-05    -5.009274e-05    0.000000e+00
1.433635e-05    -5.023273e-05    0.000000e+00
1.802116e-05    -5.041267e-05    0.000000e+00
-1.847379e-05    -5.417500e-05    0.000000e+00
-1.469851e-05    -5.400573e-05    0.000000e+00
-1.097691e-05    -5.387404e-05    0.000000e+00
-7.295576e-06    -5.377995e-05    0.000000e+00
-3.641079e-06    -5.372349e-05    0.000000e+00
-8.980667e-19    -5.370467e-05    0.000000e+00
3.641079e-06    -5.372349e-05    0.000000e+00
7.295576e-06    -5.377995e-05    0.000000e+00
1.097691e-05    -5.387404e-05    0.000000e+00
1.469851e-05    -5.400573e-05    0.000000e+00
1.847379e-05    -5.417500e-05    0.000000e+00
-1.889877e-05    -5.802502e-05    0.000000e+00
-1.503855e-05    -5.786640e-05    0.000000e+00
-1.123198e-05    -5.774300e-05    0.000000e+00
-7.465639e-06    -5.765483e-05    0.000000e+00
-3.726115e-06    -5.760192e-05    0.000000e+00
-9.131015e-19    -5.758428e-05    0.000000e+00
3.726115e-06    -5.760192e-05    0.000000e+00
7.465639e-06    -5.765483e-05    0.000000e+00
1.123198e-05    -5.774300e-05    0.000000e+00
1.503855e-05    -5.786640e-05    0.000000e+00
1.889877e-05    -5.802502e-05    0.000000e+00
-1.929612e-05    -6.195718e-05    0.000000e+00
-1.535650e-05    -6.180921e-05    0.000000e+00
-1.147048e-05    -6.169409e-05    0.000000e+00
-7.624656e-06    -6.161184e-05    0.000000e+00
-3.805630e-06    -6.156247e-05    0.000000e+00
-9.306775e-19    -6.154602e-05    0.000000e+00
3.805630e-06    -6.156247e-05    0.000000e+00
7.624656e-06    -6.161184e-05    0.000000e+00
1.147048e-05    -6.169409e-05    0.000000e+00
1.535650e-05    -6.180921e-05    0.000000e+00
1.929612e-05    -6.195718e-05    0.000000e+00
-1.966587e-05    -6.596595e-05    0.000000e+00
-1.565236e-05    -6.582863e-05    0.000000e+00
-1.169242e-05    -6.572178e-05    0.000000e+00
-7.772637e-06    -6.564544e-05    0.000000e+00
-3.879626e-06    -6.559962e-05    0.000000e+00
-9.431712e-19    -6.558435e-05    0.000000e+00
3.879626e-06    -6.559962e-05    0.000000e+00
7.772637e-06    -6.564544e-05    0.000000e+00
1.169242e-05    -6.572178e-05    0.000000e+00
1.565236e-05    -6.582863e-05    0.000000e+00
1.966587e-05    -6.596595e-05    0.000000e+00
-2.000803e-05    -7.004582e-05    0.000000e+00
-1.592617e-05    -6.991913e-05    0.000000e+00
-1.189782e-05    -6.982055e-05    0.000000e+00
-7.909589e-06    -6.975012e-05    0.000000e+00
-3.948107e-06    -6.970785e-05    0.000000e+00
-9.298304e-19    -6.969376e-05    0.000000e+00
3.948107e-06    -6.970785e-05    0.000000e+00
7.909589e-06    -6.975012e-05    0.000000e+00
1.189782e-05    -6.982055e-05    0.000000e+00
1.592617e-05    -6.991913e-05    0.000000e+00
2.000803e-05    -7.004582e-05    0.000000e+00
-2.032262e-05    -7.419125e-05    0.000000e+00
-1.617793e-05    -7.407519e-05    0.000000e+00
-1.208668e-05    -7.398487e-05    0.000000e+00
-8.035518e-06    -7.392035e-05    0.000000e+00
-4.011076e-06    -7.388162e-05    0.000000e+00
-9.262305e-19    -7.386872e-05    0.000000e+00
4.011076e-06    -7.388162e-05    0.000000e+00
8.035518e-06    -7.392035e-05    0.000000e+00
1.208668e-05    -7.398487e-05    0.000000e+00
1.617793e-05    -7.407519e-05    0.000000e+00
2.032262e-05    -7.419125e-05    0.000000e+00
-2.060968e-05    -7.839673e-05    0.000000e+00
-1.640767e-05    -7.829128e-05    0.000000e+00
-1.225903e-05    -7.820922e-05    0.000000e+00
-8.150424e-06    -7.815061e-05    0.000000e+00
-4.068528e-06    -7.811546e-05    0.000000e+00
-9.579943e-19    -7.810374e-05    0.000000e+00
4.068528e-06    -7.811546e-05    0.000000e+00
8.150424e-06    -7.815061e-05    0.000000e+00
1.225903e-05    -7.820922e-05    0.000000e+00
1.640767e-05    -7.829128e-05    0.000000e+00
2.060968e-05    -7.839673e-05    0.000000e+00
-2.086925e-05    -8.265670e-05    0.000000e+00
-1.661543e-05    -8.256185e-05    0.000000e+00
-1.241486e-05    -8.248807e-05    0.000000e+00
-8.254288e-06    -8.243542e-05    0.000000e+00
-4.120445e-06    -8.240386e-05    0.000000e+00
-9.986518e-19    -8.239335e-05    0.000000e+00
4.120445e-06    -8.240386e-05    0.000000e+00
8.254288e-06    -8.243542e-05    0.000000e+00
1.241486e-05    -8.248807e-05    0.000000e+00
1.661543e-05    -8.256185e-05    0.000000e+00
2.086925e-05    -8.265670e-05    0.000000e+00
-2.110138e-05    -8.696565e-05    0.000000e+00
-1.680124e-05    -8.688137e-05    0.000000e+00
-1.255416e-05    -8.681589e-05    0.000000e+00
-8.347053e-06    -8.676927e-05    0.000000e+00
-4.166781e-06    -8.674139e-05    0.000000e+00
-1.071920e-18    -8.673212e-05    0.000000e+00
4.166781e-06    -8.674139e-05    0.000000e+00
8.347053e-06    -8.676927e-05    0.000000e+00
1.255416e-05    -8.681589e-05    0.000000e+00
1.680124e-05    -8.688137e-05    0.000000e+00
2.110138e-05    -8.696565e-05    0.000000e+00
-2.130622e-05    -9.131800e-05    0.000000e+00
-1.696515e-05    -9.124427e-05    0.000000e+00
-1.267685e-05    -9.118715e-05    0.000000e+00
-8.428589e-06    -9.114671e-05    0.000000e+00
-4.207437e-06    -9.112266e-05    0.000000e+00
-1.138836e-18    -9.111470e-05    0.000000e+00
4.207437e-06    -9.112266e-05    0.000000e+00
8.428589e-06    -9.114671e-05    0.000000e+00
1.267685e-05    -9.118715e-05    0.000000e+00
1.696515e-05    -9.124427e-05    0.000000e+00
2.130622e-05    -9.131800e-05    0.000000e+00
-2.148403e-05    -9.570824e-05    0.000000e+00
-1.710727e-05    -9.564497e-05    0.000000e+00
-1.278278e-05    -9.559634e-05    0.000000e+00
-8.498635e-06    -9.556234e-05    0.000000e+00
-4.242229e-06    -9.554237e-05    0.000000e+00
-1.177799e-18    -9.553580e-05    0.000000e+00
4.242229e-06    -9.554237e-05    0.000000e+00
8.498635e-06    -9.556234e-05    0.000000e+00
1.278278e-05    -9.559634e-05    0.000000e+00
1.710727e-05    -9.564497e-05    0.000000e+00
2.148403e-05    -9.570824e-05    0.000000e+00
-2.163540e-05    -1.001310e-04    0.000000e+00
-1.722769e-05    -1.000780e-04    0.000000e+00
-1.287163e-05    -1.000381e-04    0.000000e+00
-8.556745e-06    -1.000109e-04    0.000000e+00
-4.270863e-06    -9.999525e-05    0.000000e+00
-1.233703e-18    -9.999018e-05    0.000000e+00
4.270863e-06    -9.999525e-05    0.000000e+00
8.556745e-06    -1.000109e-04    0.000000e+00
1.287163e-05    -1.000381e-04    0.000000e+00
1.722769e-05    -1.000780e-04    0.000000e+00
2.163540e-05    -1.001310e-04    0.000000e+00
-2.176144e-05    -1.045812e-04    0.000000e+00
-1.732655e-05    -1.045383e-04    0.000000e+00
-1.294285e-05    -1.045072e-04    0.000000e+00
-8.602305e-06    -1.044871e-04    0.000000e+00
-4.292996e-06    -1.044759e-04    0.000000e+00
-1.287067e-18    -1.044724e-04    0.000000e+00
4.292996e-06    -1.044759e-04    0.000000e+00
8.602305e-06    -1.044871e-04    0.000000e+00
1.294285e-05    -1.045072e-04    0.000000e+00
1.732655e-05    -1.045383e-04    0.000000e+00
2.176144e-05    -1.045812e-04    0.000000e+00
-2.186418e-05    -1.090553e-04    0.000000e+00
-1.740380e-05    -1.090219e-04    0.000000e+00
-1.299570e-05    -1.089996e-04    0.000000e+00
-8.634867e-06    -1.089859e-04    0.000000e+00
-4.308525e-06    -1.089784e-04    0.000000e+00
-1.233703e-18    -1.089759e-04    0.000000e+00
4.308525e-06    -1.089784e-04    0.000000e+00
8.634867e-06    -1.089859e-04    0.000000e+00
1.299570e-05    -1.089996e-04    0.000000e+00
1.740380e-05    -1.090219e-04    0.000000e+00
2.186418e-05    -1.090553e-04    0.000000e+00
-2.194676e-05    -1.135531e-04    0.000000e+00
-1.745889e-05    -1.135281e-04    0.000000e+00
-1.302997e-05    -1.135128e-04    0.000000e+00
-8.655347e-06    -1.135018e-04    0.000000e+00
-4.318287e-06    -1.134942e-04    0.000000e+00
-1.160012e-18    -1.134915e-04    0.000000e+00
4.318287e-06    -1.134942e-04    0.000000e+00
8.655347e-06    -1.135018e-04    0.000000e+00
1.302997e-05    -1.135128e-04    0.000000e+00
1.745889e-05    -1.135281e-04    0.000000e+00
2.194676e-05    -1.135531e-04    0.000000e+00
-2.201124e-05    -1.180827e-04    0.000000e+00
-1.749084e-05    -1.180647e-04    0.000000e+00
-1.304961e-05    -1.180461e-04    0.000000e+00
-8.668351e-06    -1.180254e-04    0.000000e+00
-4.324908e-06    -1.180100e-04    0.000000e+00
-1.156200e-18    -1.180043e-04    0.000000e+00
4.324908e-06    -1.180100e-04    0.000000e+00
8.668351e-06    -1.180254e-04    0.000000e+00
1.304961e-05    -1.180461e-04    0.000000e+00
1.749084e-05    -1.180647e-04    0.000000e+00
2.201124e-05    -1.180827e-04    0.000000e+00
-2.204535e-05    -1.226843e-04    0.000000e+00
-1.751106e-05    -1.226495e-04    0.000000e+00
-1.306948e-05    -1.225909e-04    0.000000e+00
-8.683515e-06    -1.225380e-04    0.000000e+00
-4.333111e-06    -1.225027e-04    0.000000e+00
-1.154294e-18    -1.224904e-04    0.000000e+00
4.333111e-06    -1.225027e-04    0.000000e+00
8.683515e-06    -1.225380e-04    0.000000e+00
1.306948e-05    -1.225909e-04    0.000000e+00
1.751106e-05    -1.226495e-04    0.000000e+00
2.204535e-05    -1.226843e-04    0.000000e+00

CELL_DATA      400
TENSORS Element_Stress2.600000e-01 double
1.853629e+06 2.601018e+05        0
2.601018e+05 4.239627e+05        0
       0        0        0

1.265896e+06 1.336764e+05        0
1.336764e+05 3.630519e+05        0
       0        0        0

8.804191e+05 4.434656e+04        0
4.434656e+04 2.799253e+05        0
       0        0        0

5.189812e+05 -3.012971e+03        0
-3.012971e+03 1.720254e+05        0
       0        0        0

1.718179e+05 -2.466709e+04        0
-2.466709e+04 5.796325e+04        0
       0        0        0

-1.717820e+05 -2.466094e+04        0
-2.466094e+04 -5.797270e+04        0
       0        0        0

-5.184897e+05 -3.014307e+03        0
-3.014307e+03 -1.718561e+05        0
       0        0        0

-8.789593e+05 4.427133e+04        0
4.427133e+04 -2.793790e+05        0
       0        0        0

-1.262804e+06 1.333764e+05        0
1.333764e+05 -3.618684e+05        0
       0        0        0

-1.847181e+06 2.592608e+05        0
2.592608e+05 -4.217354e+05        0
       0        0        0

1.671442e+06 4.258406e+04        0
4.258406e+04 4.334873e+03        0
       0        0        0

1.345833e+06 1.233122e+05        0
1.233122e+05 1.310808e+05        0
       0        0        0

9.242413e+05 1.013811e+05        0
1.013811e+05 1.339439e+05        0
       0        0        0

5.457971e+05 7.781745e+04        0
7.781745e+04 9.361607e+04        0
       0        0        0

1.798985e+05 6.502736e+04        0
6.502736e+04 3.265597e+04        0
       0        0        0

-1.809766e+05 6.500817e+04        0
6.500817e+04 -3.378954e+04        0
       0        0        0

-5.463538e+05 7.774911e+04        0
7.774911e+04 -9.456403e+04        0
       0        0        0

-9.236805e+05 1.012351e+05        0
1.012351e+05 -1.344857e+05        0
       0        0        0

-1.343225e+06 1.230652e+05        0
1.230652e+05 -1.308259e+05        0
       0        0        0

-1.666682e+06 4.249376e+04        0
4.249376e+04 -3.206486e+03        0
       0        0        0

1.612903e+06 1.588615e+04        0
1.588615e+04 6.729885e+03        0
       0        0        0

1.293944e+06 7.002245e+04        0
7.002245e+04 1.791586e+04        0
       0        0        0

9.306405e+05 1.039967e+05        0
1.039967e+05 4.317367e+04        0
       0        0        0

5.525315e+05 1.100852e+05        0
1.100852e+05 3.658494e+04        0
       0        0        0

1.822339e+05 1.100428e+05        0
1.100428e+05 1.293337e+04        0
       0        0        0

-1.856913e+05 1.100137e+05        0
1.100137e+05 -1.645122e+04        0
       0        0        0

-5.554390e+05 1.099986e+05        0
1.099986e+05 -3.990692e+04        0
       0        0        0

-9.323789e+05 1.038622e+05        0
1.038622e+05 -4.605676e+04        0
       0        0        0

-1.293928e+06 6.990267e+04        0
6.990267e+04 -2.009304e+04        0
       0        0        0

-1.610872e+06 1.585270e+04        0
1.585270e+04 -8.087576e+03        0
       0        0        0

1.573017e+06 1.469975e+04        0
1.469975e+04 -4.092052e+03        0
       0        0        0

1.247983e+06 5.691386e+04        0
5.691386e+04 -2.020036e+03        0
       0        0        0

9.018991e+05 9.471451e+04        0
9.471451e+04 2.963788e+03        0
       0        0        0

5.423138e+05 1.173582e+05        0
1.173582e+05 5.954325e+03        0
       0        0        0

1.783463e+05 1.263106e+05        0
1.263106e+05 6.500833e+02        0
       0        0        0

-1.852609e+05 1.262799e+05        0
1.262799e+05 -7.624809e+03        0
       0        0        0

-5.486852e+05 1.172731e+05        0
1.172731e+05 -1.272986e+04        0
       0        0        0

-9.071729e+05 9.460233e+04        0
9.460233e+04 -9.318258e+03        0
       0        0        0

-1.251630e+06 5.682181e+04        0
5.682181e+04 -3.672468e+03        0
       0        0        0

-1.574492e+06 1.467039e+04        0
1.467039e+04 -6.152259e+02        0
       0        0        0

1.535306e+06 1.759660e+04        0
1.759660e+04 -5.755717e+03        0
       0        0        0

1.205637e+06 5.588275e+04        0
5.588275e+04 -8.817170e+03        0
       0        0        0

8.687425e+05 9.125004e+04        0
9.125004e+04 -8.559054e+03        0
       0        0        0

5.224567e+05 1.163858e+05        0
1.163858e+05 -6.949071e+03        0
       0        0        0

1.708872e+05 1.288588e+05        0
1.288588e+05 -5.833835e+03        0
       0        0        0

-1.821674e+05 1.288293e+05        0
1.288293e+05 -5.503457e+03        0
       0        0        0

-5.332263e+05 1.163064e+05        0
1.163064e+05 -4.198994e+03        0
       0        0        0

-8.784890e+05 9.114730e+04        0
9.114730e+04 -2.195124e+03        0
       0        0        0

-1.213842e+06 5.579592e+04        0
5.579592e+04 -1.304881e+03        0
       0        0        0

-1.541386e+06 1.756215e+04        0
1.756215e+04 -3.414323e+03        0
       0        0        0

1.494491e+06 2.009390e+04        0
2.009390e+04 -8.191310e+03        0
       0        0        0

1.166418e+06 5.786472e+04        0
5.786472e+04 -1.087655e+04        0
       0        0        0

8.362378e+05 9.056127e+04        0
9.056127e+04 -1.227899e+04        0
       0        0        0

5.010824e+05 1.144832e+05        0
1.144832e+05 -1.147619e+04        0
       0        0        0

1.619618e+05 1.269465e+05        0
1.269465e+05 -9.463412e+03        0
       0        0        0

-1.783972e+05 1.269188e+05        0
1.269188e+05 -7.025171e+03        0
       0        0        0

-5.170498e+05 1.144083e+05        0
1.144083e+05 -4.843237e+03        0
       0        0        0

-8.512664e+05 9.046308e+04        0
9.046308e+04 -3.689688e+03        0
       0        0        0

-1.180022e+06 5.777748e+04        0
5.777748e+04 -4.530811e+03        0
       0        0        0

-1.506127e+06 2.005553e+04        0
2.005553e+04 -6.385139e+03        0
       0        0        0

1.450780e+06 2.167299e+04        0
2.167299e+04 -1.091041e+04        0
       0        0        0

1.128254e+06 5.979483e+04        0
5.979483e+04 -1.278333e+04        0
       0        0        0

8.054860e+05 9.081304e+04        0
9.081304e+04 -1.405943e+04        0
       0        0        0

4.803471e+05 1.130227e+05        0
1.130227e+05 -1.380292e+04        0
       0        0        0

1.529402e+05 1.246147e+05        0
1.246147e+05 -1.222107e+04        0
       0        0        0

-1.752369e+05 1.245884e+05        0
1.245884e+05 -1.012500e+04        0
       0        0        0

-5.022256e+05 1.129513e+05        0
1.129513e+05 -8.403464e+03        0
       0        0        0

-8.265243e+05 9.071767e+04        0
9.071767e+04 -7.858353e+03        0
       0        0        0

-1.148016e+06 5.970726e+04        0
5.970726e+04 -8.676108e+03        0
       0        0        0

-1.468792e+06 2.163269e+04        0
2.163269e+04 -9.886096e+03        0
       0        0        0

1.405038e+06 2.254320e+04        0
2.254320e+04 -1.413178e+04        0
       0        0        0

1.090352e+06 6.107485e+04        0
6.107485e+04 -1.523887e+04        0
       0        0        0

7.759338e+05 9.117940e+04        0
9.117940e+04 -1.610551e+04        0
       0        0        0

4.605415e+05 1.121413e+05        0
1.121413e+05 -1.605175e+04        0
       0        0        0

1.440346e+05 1.229390e+05        0
1.229390e+05 -1.509546e+04        0
       0        0        0

-1.728297e+05 1.229139e+05        0
1.229139e+05 -1.374567e+04        0
       0        0        0

-4.889730e+05 1.120726e+05        0
1.120726e+05 -1.268600e+04        0
       0        0        0

-8.036343e+05 9.108655e+04        0
9.108655e+04 -1.241897e+04        0
       0        0        0

-1.116943e+06 6.098802e+04        0
6.098802e+04 -1.294887e+04        0
       0        0        0

-1.430120e+06 2.250248e+04        0
2.250248e+04 -1.357583e+04        0
       0        0        0

1.358051e+06 2.297740e+04        0
2.297740e+04 -1.774815e+04        0
       0        0        0

1.052366e+06 6.179126e+04        0
6.179126e+04 -1.833855e+04        0
       0        0        0

7.470076e+05 9.144355e+04        0
9.144355e+04 -1.883178e+04        0
       0        0        0

4.413300e+05 1.116666e+05        0
1.116666e+05 -1.883994e+04        0
       0        0        0

1.351934e+05 1.219483e+05        0
1.219483e+05 -1.832727e+04        0
       0        0        0

-1.710580e+05 1.219242e+05        0
1.219242e+05 -1.758021e+04        0
       0        0        0

-4.768877e+05 1.116004e+05        0
1.116004e+05 -1.700423e+04        0
       0        0        0

-7.819485e+05 9.135329e+04        0
9.135329e+04 -1.688123e+04        0
       0        0        0

-1.086372e+06 6.170607e+04        0
6.170607e+04 -1.716651e+04        0
       0        0        0

-1.390791e+06 2.293714e+04        0
2.293714e+04 -1.746019e+04        0
       0        0        0

1.310333e+06 2.317447e+04        0
2.317447e+04 -2.168382e+04        0
       0        0        0

1.014193e+06 6.214720e+04        0
6.214720e+04 -2.194893e+04        0
       0        0        0

7.183100e+05 9.159218e+04        0
9.159218e+04 -2.218199e+04        0
       0        0        0

4.223814e+05 1.114281e+05        0
1.114281e+05 -2.218524e+04        0
       0        0        0

1.263133e+05 1.214238e+05        0
1.214238e+05 -2.192716e+04        0
       0        0        0

-1.697513e+05 1.214005e+05        0
1.214005e+05 -2.155103e+04        0
       0        0        0

-4.655699e+05 1.113641e+05        0
1.113641e+05 -2.127110e+04        0
       0        0        0

-7.609965e+05 9.150463e+04        0
9.150463e+04 -2.122733e+04        0
       0        0        0

-1.056119e+06 6.206423e+04        0
6.206423e+04 -2.138179e+04        0
       0        0        0

-1.351231e+06 2.313515e+04        0
2.313515e+04 -2.152829e+04        0
       0        0        0

1.262183e+06 2.325396e+04        0
2.325396e+04 -2.586986e+04        0
       0        0        0

9.758179e+05 6.230386e+04        0
6.230386e+04 -2.593183e+04        0
       0        0        0

6.896272e+05 9.166016e+04        0
9.166016e+04 -2.599403e+04        0
       0        0        0

4.034815e+05 1.113110e+05        0
1.113110e+05 -2.596694e+04        0
       0        0        0

1.173289e+05 1.211639e+05        0
1.211639e+05 -2.583149e+04        0
       0        0        0

-1.687774e+05 1.211415e+05        0
1.211415e+05 -2.565447e+04        0
       0        0        0

-4.547368e+05 1.112492e+05        0
1.112492e+05 -2.553856e+04        0
       0        0        0

-7.404935e+05 9.157542e+04        0
9.157542e+04 -2.554784e+04        0
       0        0        0

-1.026094e+06 6.222341e+04        0
6.222341e+04 -2.565805e+04        0
       0        0        0

-1.311662e+06 2.321581e+04        0
2.321581e+04 -2.577259e+04        0
       0        0        0

1.213770e+06 2.327987e+04        0
2.327987e+04 -3.025289e+04        0
       0        0        0

9.372642e+05 6.236065e+04        0
6.236065e+04 -3.017947e+04        0
       0        0        0

6.608652e+05 9.168070e+04        0
9.168070e+04 -3.012712e+04        0
       0        0        0

3.845237e+05 1.112495e+05        0
1.112495e+05 -3.006100e+04        0
       0        0        0

1.082148e+05 1.210372e+05        0
1.210372e+05 -2.997267e+04        0
       0        0        0

-1.680440e+05 1.210155e+05        0
1.210155e+05 -2.989151e+04        0
       0        0        0

-4.442146e+05 1.111898e+05        0
1.111898e+05 -2.986321e+04        0
       0        0        0

-7.202769e+05 9.159883e+04        0
9.159883e+04 -2.991474e+04        0
       0        0        0

-9.962515e+05 6.228286e+04        0
6.228286e+04 -3.003293e+04        0
       0        0        0

-1.272180e+06 2.324297e+04        0
2.324297e+04 -3.017623e+04        0
       0        0        0

1.165187e+06 2.328334e+04        0
2.328334e+04 -3.478959e+04        0
       0        0        0

8.985644e+05 6.237112e+04        0
6.237112e+04 -3.461578e+04        0
       0        0        0

6.319971e+05 9.167557e+04        0
9.167557e+04 -3.448022e+04        0
       0        0        0

3.654700e+05 1.112100e+05        0
1.112100e+05 -3.437343e+04        0
       0        0        0

9.897302e+04 1.209700e+05        0
1.209700e+05 -3.429371e+04        0
       0        0        0

-1.674882e+05 1.209491e+05        0
1.209491e+05 -3.425399e+04        0
       0        0        0

-4.338998e+05 1.111524e+05        0
1.111524e+05 -3.427352e+04        0
       0        0        0

-7.002540e+05 9.159659e+04        0
9.159659e+04 -3.436292e+04        0
       0        0        0

-9.665561e+05 6.229607e+04        0
6.229607e+04 -3.451592e+04        0
       0        0        0

-1.232814e+06 2.324774e+04        0
2.324774e+04 -3.471633e+04        0
       0        0        0

1.116491e+06 2.327823e+04        0
2.327823e+04 -3.944329e+04        0
       0        0        0

8.597531e+05 6.236136e+04        0
6.236136e+04 -3.918649e+04        0
       0        0        0

6.030297e+05 9.165683e+04        0
9.165683e+04 -3.898413e+04        0
       0        0        0

3.463196e+05 1.111766e+05        0
1.111766e+05 -3.883754e+04        0
       0        0        0

8.962081e+04 1.209254e+05        0
1.209254e+05 -3.874881e+04        0
       0        0        0

-1.670640e+05 1.209053e+05        0
1.209053e+05 -3.872450e+04        0
       0        0        0

-4.237285e+05 1.111212e+05        0
1.111212e+05 -3.877282e+04        0
       0        0        0

-6.803678e+05 9.158076e+04        0
9.158076e+04 -3.889804e+04        0
       0        0        0

-9.369793e+05 6.228907e+04        0
6.228907e+04 -3.909770e+04        0
       0        0        0

-1.193558e+06 2.324394e+04        0
2.324394e+04 -3.936634e+04        0
       0        0        0

1.067725e+06 2.327010e+04        0
2.327010e+04 -4.418125e+04        0
       0        0        0

8.208638e+05 6.234292e+04        0
6.234292e+04 -4.385032e+04        0
       0        0        0

5.739844e+05 9.163045e+04        0
9.163045e+04 -4.358971e+04        0
       0        0        0

3.270900e+05 1.111427e+05        0
1.111427e+05 -4.340492e+04        0
       0        0        0

8.018259e+04 1.208866e+05        0
1.208866e+05 -4.330013e+04        0
       0        0        0

-1.667347e+05 1.208673e+05        0
1.208673e+05 -4.327988e+04        0
       0        0        0

-4.136570e+05 1.110894e+05        0
1.110894e+05 -4.334846e+04        0
       0        0        0

-6.605788e+05 9.155729e+04        0
9.155729e+04 -4.350813e+04        0
       0        0        0

-9.074937e+05 6.227340e+04        0
6.227340e+04 -4.375849e+04        0
       0        0        0

-1.154392e+06 2.323713e+04        0
2.323713e+04 -4.409819e+04        0
       0        0        0

1.018922e+06 2.326085e+04        0
2.326085e+04 -4.897324e+04        0
       0        0        0

7.819285e+05 6.232037e+04        0
6.232037e+04 -4.857327e+04        0
       0        0        0

5.448884e+05 9.159907e+04        0
9.159907e+04 -4.825915e+04        0
       0        0        0

3.078061e+05 1.111054e+05        0
1.111054e+05 -4.803792e+04        0
       0        0        0

7.068552e+04 1.208464e+05        0
1.208464e+05 -4.791484e+04        0
       0        0        0

-1.664688e+05 1.208279e+05        0
1.208279e+05 -4.789422e+04        0
       0        0        0

-4.036514e+05 1.110542e+05        0
1.110542e+05 -4.797937e+04        0
       0        0        0

-6.408554e+05 9.152883e+04        0
9.152883e+04 -4.817228e+04        0
       0        0        0

-8.780724e+05 6.225362e+04        0
6.225362e+04 -4.847365e+04        0
       0        0        0

-1.115291e+06 2.322920e+04        0
2.322920e+04 -4.888360e+04        0
       0        0        0

9.701114e+05 2.325097e+04        0
2.325097e+04 -5.379076e+04        0
       0        0        0

7.429773e+05 6.229524e+04        0
6.229524e+04 -5.332533e+04        0
       0        0        0

5.157702e+05 9.156372e+04        0
9.156372e+04 -5.296082e+04        0
       0        0        0

2.884951e+05 1.110638e+05        0
1.110638e+05 -5.270481e+04        0
       0        0        0

6.115722e+04 1.208022e+05        0
1.208022e+05 -5.256327e+04        0
       0        0        0

-1.662376e+05 1.207844e+05        0
1.207844e+05 -5.254080e+04        0
       0        0        0

-3.936827e+05 1.110148e+05        0
1.110148e+05 -5.264086e+04        0
       0        0        0

-6.211698e+05 9.149639e+04        0
9.149639e+04 -5.286576e+04        0
       0        0        0

-8.486893e+05 6.223127e+04        0
6.223127e+04 -5.321686e+04        0
       0        0        0

-1.076229e+06 2.322063e+04        0
2.322063e+04 -5.369482e+04        0
       0        0        0

9.213226e+05 2.324046e+04        0
2.324046e+04 -5.860669e+04        0
       0        0        0

7.040391e+05 6.226788e+04        0
6.226788e+04 -5.807886e+04        0
       0        0        0

4.866579e+05 9.152467e+04        0
9.152467e+04 -5.766643e+04        0
       0        0        0

2.691844e+05 1.110177e+05        0
1.110177e+05 -5.737726e+04        0
       0        0        0

5.162475e+04 1.207530e+05        0
1.207530e+05 -5.721780e+04        0
       0        0        0

-1.660140e+05 1.207360e+05        0
1.207360e+05 -5.719316e+04        0
       0        0        0

-3.837240e+05 1.109707e+05        0
1.109707e+05 -5.730723e+04        0
       0        0        0

-6.014960e+05 9.146026e+04        0
9.146026e+04 -5.756281e+04        0
       0        0        0

-8.193192e+05 6.220668e+04        0
6.220668e+04 -5.796174e+04        0
       0        0        0

-1.037181e+06 2.321143e+04        0
2.321143e+04 -5.850498e+04        0
       0        0        0

8.725826e+05 2.322919e+04        0
2.322919e+04 -6.339517e+04        0
       0        0        0

6.651412e+05 6.223823e+04        0
6.223823e+04 -6.280787e+04        0
       0        0        0

4.575785e+05 9.148194e+04        0
9.148194e+04 -6.234976e+04        0
       0        0        0

2.499005e+05 1.109668e+05        0
1.109668e+05 -6.202899e+04        0
       0        0        0

4.211420e+04 1.206987e+05        0
1.206987e+05 -6.185240e+04        0
       0        0        0

-1.657724e+05 1.206824e+05        0
1.206824e+05 -6.182562e+04        0
       0        0        0

-3.737504e+05 1.109220e+05        0
1.109220e+05 -6.195303e+04        0
       0        0        0

-5.818094e+05 9.142045e+04        0
9.142045e+04 -6.223793e+04        0
       0        0        0

-7.899378e+05 6.217979e+04        0
6.217979e+04 -6.268260e+04        0
       0        0        0

-9.981229e+05 2.320148e+04        0
2.320148e+04 -6.328825e+04        0
       0        0        0

8.239179e+05 2.321707e+04        0
2.321707e+04 -6.813148e+04        0
       0        0        0

6.263100e+05 6.220614e+04        0
6.220614e+04 -6.748765e+04        0
       0        0        0

4.285581e+05 9.143544e+04        0
9.143544e+04 -6.698608e+04        0
       0        0        0

2.306690e+05 1.109112e+05        0
1.109112e+05 -6.663522e+04        0
       0        0        0

3.265054e+04 1.206391e+05        0
1.206391e+05 -6.644233e+04        0
       0        0        0

-1.654884e+05 1.206236e+05        0
1.206236e+05 -6.641350e+04        0
       0        0        0

-3.637378e+05 1.108686e+05        0
1.108686e+05 -6.655362e+04        0
       0        0        0

-5.620865e+05 9.137686e+04        0
9.137686e+04 -6.686647e+04        0
       0        0        0

-7.605220e+05 6.215047e+04        0
6.215047e+04 -6.735473e+04        0
       0        0        0

-9.590309e+05 2.319068e+04        0
2.319068e+04 -6.801995e+04        0
       0        0        0

7.753538e+05 2.320402e+04        0
2.320402e+04 -7.279209e+04        0
       0        0        0

5.875703e+05 6.217149e+04        0
6.217149e+04 -7.209469e+04        0
       0        0        0

3.996213e+05 9.138506e+04        0
9.138506e+04 -7.155187e+04        0
       0        0        0

2.115142e+05 1.108508e+05        0
1.108508e+05 -7.117243e+04        0
       0        0        0

2.325757e+04 1.205741e+05        0
1.205741e+05 -7.096405e+04        0
       0        0        0

-1.651386e+05 1.205594e+05        0
1.205594e+05 -7.093325e+04        0
       0        0        0

-3.536635e+05 1.108103e+05        0
1.108103e+05 -7.108544e+04        0
       0        0        0

-5.423049e+05 9.132939e+04        0
9.132939e+04 -7.142486e+04        0
       0        0        0

-7.310498e+05 6.211859e+04        0
6.211859e+04 -7.195458e+04        0
       0        0        0

-9.198837e+05 2.317893e+04        0
2.317893e+04 -7.267653e+04        0
       0        0        0

7.269145e+05 2.318999e+04        0
2.318999e+04 -7.735463e+04        0
       0        0        0

5.489462e+05 6.213418e+04        0
6.213418e+04 -7.660665e+04        0
       0        0        0

3.707917e+05 9.133069e+04        0
9.133069e+04 -7.602483e+04        0
       0        0        0

1.924591e+05 1.107855e+05        0
1.107855e+05 -7.561831e+04        0
       0        0        0

1.395793e+04 1.205038e+05        0
1.205038e+05 -7.539520e+04        0
       0        0        0

-1.647010e+05 1.204898e+05        0
1.204898e+05 -7.536249e+04        0
       0        0        0

-3.435059e+05 1.107471e+05        0
1.107471e+05 -7.552607e+04        0
       0        0        0

-5.224436e+05 9.127793e+04        0
9.127793e+04 -7.589064e+04        0
       0        0        0

-7.015002e+05 6.208404e+04        0
6.208404e+04 -7.645973e+04        0
       0        0        0

-8.806606e+05 2.316621e+04        0
2.316621e+04 -7.723562e+04        0
       0        0        0

6.786232e+05 2.317496e+04        0
2.317496e+04 -8.179789e+04        0
       0        0        0

5.104605e+05 6.209416e+04        0
6.209416e+04 -8.100236e+04        0
       0        0        0

3.420916e+05 9.127226e+04        0
9.127226e+04 -8.038378e+04        0
       0        0        0

1.735257e+05 1.107151e+05        0
1.107151e+05 -7.995169e+04        0
       0        0        0

4.773078e+03 1.204279e+05        0
1.204279e+05 -7.971459e+04        0
       0        0        0

-1.641546e+05 1.204147e+05        0
1.204147e+05 -7.967998e+04        0
       0        0        0

-3.332444e+05 1.106788e+05        0
1.106788e+05 -7.985423e+04        0
       0        0        0

-5.024824e+05 9.122241e+04        0
9.122241e+04 -8.024257e+04        0
       0        0        0

-6.718536e+05 6.204679e+04        0
6.204679e+04 -8.084894e+04        0
       0        0        0

-8.413424e+05 2.315249e+04        0
2.315249e+04 -8.167599e+04        0
       0        0        0

6.305018e+05 2.315894e+04        0
2.315894e+04 -8.610182e+04        0
       0        0        0

4.721346e+05 6.205142e+04        0
6.205142e+04 -8.526178e+04        0
       0        0        0

3.135424e+05 9.120970e+04        0
9.120970e+04 -8.460873e+04        0
       0        0        0

1.547349e+05 1.106397e+05        0
1.106397e+05 -8.415255e+04        0
       0        0        0

-4.276672e+03 1.203464e+05        0
1.203464e+05 -8.390218e+04        0
       0        0        0

-1.634795e+05 1.203340e+05        0
1.203340e+05 -8.386564e+04        0
       0        0        0

-3.228598e+05 1.106055e+05        0
1.106055e+05 -8.404985e+04        0
       0        0        0

-4.824024e+05 9.116275e+04        0
9.116275e+04 -8.446053e+04        0
       0        0        0

-6.420916e+05 6.200681e+04        0
6.200681e+04 -8.510210e+04        0
       0        0        0

-8.019109e+05 2.313778e+04        0
2.313778e+04 -8.597758e+04        0
       0        0        0

5.825711e+05 2.314197e+04        0
2.314197e+04 -9.024754e+04        0
       0        0        0

4.339892e+05 6.200597e+04        0
6.200597e+04 -8.936605e+04        0
       0        0        0

2.851642e+05 9.114295e+04        0
9.114295e+04 -8.868079e+04        0
       0        0        0

1.361063e+05 1.105589e+05        0
1.105589e+05 -8.820198e+04        0
       0        0        0

-1.317216e+04 1.202591e+05        0
1.202591e+05 -8.793907e+04        0
       0        0        0

-1.626573e+05 1.202474e+05        0
1.202474e+05 -8.790060e+04        0
       0        0        0

-3.123340e+05 1.105268e+05        0
1.105268e+05 -8.809402e+04        0
       0        0        0

-4.621861e+05 9.109889e+04        0
9.109889e+04 -8.852562e+04        0
       0        0        0

-6.121969e+05 6.196411e+04        0
6.196411e+04 -8.920030e+04        0
       0        0        0

-7.623493e+05 2.312212e+04        0
2.312212e+04 -9.012149e+04        0
       0        0        0

5.348507e+05 2.312412e+04        0
2.312412e+04 -9.421730e+04        0
       0        0        0

3.960438e+05 6.195778e+04        0
6.195778e+04 -9.329737e+04        0
       0        0        0

2.569760e+05 9.107188e+04        0
9.107188e+04 -9.258206e+04        0
       0        0        0

1.176584e+05 1.104728e+05        0
1.104728e+05 -9.208207e+04        0
       0        0        0

-2.189538e+04 1.201659e+05        0
1.201659e+05 -9.180744e+04        0
       0        0        0

-1.616703e+05 1.201550e+05        0
1.201550e+05 -9.176721e+04        0
       0        0        0

-3.016500e+05 1.104428e+05        0
1.104428e+05 -9.196922e+04        0
       0        0        0

-4.418170e+05 9.103072e+04        0
9.103072e+04 -9.242024e+04        0
       0        0        0

-5.821534e+05 6.191867e+04        0
6.191867e+04 -9.312585e+04        0
       0        0        0

-7.226415e+05 2.310557e+04        0
2.310557e+04 -9.408995e+04        0
       0        0        0

4.873592e+05 2.310538e+04        0
2.310538e+04 -9.799447e+04        0
       0        0        0

3.583167e+05 6.190666e+04        0
6.190666e+04 -9.703886e+04        0
       0        0        0

2.289957e+05 9.099623e+04        0
9.099623e+04 -9.629535e+04        0
       0        0        0

9.940859e+04 1.103813e+05        0
1.103813e+05 -9.577557e+04        0
       0        0        0

-3.042960e+04 1.200671e+05        0
1.200671e+05 -9.549045e+04        0
       0        0        0

-1.605023e+05 1.200570e+05        0
1.200570e+05 -9.544921e+04        0
       0        0        0

-2.907920e+05 1.103534e+05        0
1.103534e+05 -9.565954e+04        0
       0        0        0

-4.212799e+05 9.095796e+04        0
9.095796e+04 -9.612846e+04        0
       0        0        0

-5.519464e+05 6.187030e+04        0
6.187030e+04 -9.686244e+04        0
       0        0        0

-6.827729e+05 2.308813e+04        0
2.308813e+04 -9.786641e+04        0
       0        0        0

4.401141e+05 2.308553e+04        0
2.308553e+04 -1.015634e+05        0
       0        0        0

3.208255e+05 6.185176e+04        0
6.185176e+04 -1.005741e+05        0
       0        0        0

2.012398e+05 9.091533e+04        0
9.091533e+04 -9.980336e+04        0
       0        0        0

8.137214e+04 1.102847e+05        0
1.102847e+05 -9.926515e+04        0
       0        0        0

-3.875957e+04 1.199639e+05        0
1.199639e+05 -9.897187e+04        0
       0        0        0

-1.591377e+05 1.199545e+05        0
1.199545e+05 -9.893202e+04        0
       0        0        0

-2.797445e+05 1.102589e+05        0
1.102589e+05 -9.915154e+04        0
       0        0        0

-4.005603e+05 9.087995e+04        0
9.087995e+04 -9.963673e+04        0
       0        0        0

-5.215626e+05 6.181814e+04        0
6.181814e+04 -1.003956e+05        0
       0        0        0

-6.427301e+05 2.306959e+04        0
2.306959e+04 -1.014356e+05        0
       0        0        0

3.931331e+05 2.306360e+04        0
2.306360e+04 -1.049092e+05        0
       0        0        0

2.835869e+05 6.179053e+04        0
6.179053e+04 -1.038862e+05        0
       0        0        0

1.737221e+05 9.082756e+04        0
9.082756e+04 -1.030871e+05        0
       0        0        0

6.356139e+04 1.101843e+05        0
1.101843e+05 -1.025318e+05        0
       0        0        0

-4.687210e+04 1.198600e+05        0
1.198600e+05 -1.022355e+05        0
       0        0        0

-1.575612e+05 1.198514e+05        0
1.198514e+05 -1.022034e+05        0
       0        0        0

-2.684915e+05 1.101607e+05        0
1.101607e+05 -1.024357e+05        0
       0        0        0

-3.796436e+05 9.079505e+04        0
9.079505e+04 -1.029356e+05        0
       0        0        0

-4.909901e+05 6.175964e+04        0
6.175964e+04 -1.037136e+05        0
       0        0        0

-6.025020e+05 2.304896e+04        0
2.304896e+04 -1.047835e+05        0
       0        0        0

3.464364e+05 2.303656e+04        0
2.303656e+04 -1.080172e+05        0
       0        0        0

2.466170e+05 6.171636e+04        0
6.171636e+04 -1.069558e+05        0
       0        0        0

1.464516e+05 9.072928e+04        0
9.072928e+04 -1.061225e+05        0
       0        0        0

4.598254e+04 1.100838e+05        0
1.100838e+05 -1.055520e+05        0
       0        0        0

-5.475738e+04 1.197650e+05        0
1.197650e+05 -1.052639e+05        0
       0        0        0

-1.557566e+05 1.197572e+05        0
1.197572e+05 -1.052547e+05        0
       0        0        0

-2.570131e+05 1.100622e+05        0
1.100622e+05 -1.055097e+05        0
       0        0        0

-3.585129e+05 9.069965e+04        0
9.069965e+04 -1.060230e+05        0
       0        0        0

-4.602187e+05 6.168821e+04        0
6.168821e+04 -1.068096e+05        0
       0        0        0

-5.620822e+05 2.302321e+04        0
2.302321e+04 -1.078982e+05        0
       0        0        0

3.000520e+05 2.299653e+04        0
2.299653e+04 -1.108722e+05        0
       0        0        0

2.099307e+05 6.161395e+04        0
6.161395e+04 -1.097577e+05        0
       0        0        0

1.194268e+05 9.061301e+04        0
9.061301e+04 -1.088753e+05        0
       0        0        0

2.862932e+04 1.099921e+05        0
1.099921e+05 -1.082925e+05        0
       0        0        0

-6.241166e+04 1.197004e+05        0
1.197004e+05 -1.080365e+05        0
       0        0        0

-1.537038e+05 1.196934e+05        0
1.196934e+05 -1.080828e+05        0
       0        0        0

-2.452795e+05 1.099726e+05        0
1.099726e+05 -1.083832e+05        0
       0        0        0

-3.371432e+05 9.058625e+04        0
9.058625e+04 -1.089100e+05        0
       0        0        0

-4.292397e+05 6.158853e+04        0
6.158853e+04 -1.096851e+05        0
       0        0        0

-5.214742e+05 2.298448e+04        0
2.298448e+04 -1.107704e+05        0
       0        0        0

2.540269e+05 2.292526e+04        0
2.292526e+04 -1.134572e+05        0
       0        0        0

1.735400e+05 6.145085e+04        0
6.145085e+04 -1.122551e+05        0
       0        0        0

9.262390e+04 9.046486e+04        0
9.046486e+04 -1.112924e+05        0
       0        0        0

1.147088e+04 1.099290e+05        0
1.099290e+05 -1.107033e+05        0
       0        0        0

-6.984212e+04 1.197109e+05        0
1.197109e+05 -1.105265e+05        0
       0        0        0

-1.513739e+05 1.197046e+05        0
1.197046e+05 -1.106925e+05        0
       0        0        0

-2.332388e+05 1.099116e+05        0
1.099116e+05 -1.110850e+05        0
       0        0        0

-3.154906e+05 9.044095e+04        0
9.044095e+04 -1.116293e+05        0
       0        0        0

-3.980448e+05 6.142817e+04        0
6.142817e+04 -1.123567e+05        0
       0        0        0

-4.807030e+05 2.291451e+04        0
2.291451e+04 -1.133952e+05        0
       0        0        0

2.084495e+05 2.278398e+04        0
2.278398e+04 -1.157513e+05        0
       0        0        0

1.374479e+05 6.116464e+04        0
6.116464e+04 -1.143930e+05        0
       0        0        0

6.597538e+04 9.026227e+04        0
9.026227e+04 -1.132939e+05        0
       0        0        0

-5.568765e+03 1.099349e+05        0
1.099349e+05 -1.127131e+05        0
       0        0        0

-7.707456e+04 1.198798e+05        0
1.198798e+05 -1.126996e+05        0
       0        0        0

-1.487203e+05 1.198742e+05        0
1.198742e+05 -1.130977e+05        0
       0        0        0

-2.207962e+05 1.099196e+05        0
1.099196e+05 -1.136676e+05        0
       0        0        0

-2.934711e+05 9.024122e+04        0
9.024122e+04 -1.142445e+05        0
       0        0        0

-3.666215e+05 6.114472e+04        0
6.114472e+04 -1.148639e+05        0
       0        0        0

-4.398390e+05 2.277456e+04        0
2.277456e+04 -1.157754e+05        0
       0        0        0

1.634860e+05 2.249748e+04        0
2.249748e+04 -1.177297e+05        0
       0        0        0

1.016331e+05 6.064864e+04        0
6.064864e+04 -1.160955e+05        0
       0        0        0

3.933336e+04 8.997733e+04        0
8.997733e+04 -1.147784e+05        0
       0        0        0

-2.263871e+04 1.100835e+05        0
1.100835e+05 -1.142395e+05        0
       0        0        0

-8.416253e+04 1.203433e+05        0
1.203433e+05 -1.145186e+05        0
       0        0        0

-1.456684e+05 1.203384e+05        0
1.203384e+05 -1.153140e+05        0
       0        0        0

-2.077856e+05 1.100702e+05        0
1.100702e+05 -1.161964e+05        0
       0        0        0

-2.709260e+05 8.995916e+04        0
8.995916e+04 -1.168461e+05        0
       0        0        0

-3.349416e+05 6.063151e+04        0
6.063151e+04 -1.172755e+05        0
       0        0        0

-3.990381e+05 2.248940e+04        0
2.248940e+04 -1.179258e+05        0
       0        0        0

1.194323e+05 2.193431e+04        0
2.193431e+04 -1.193674e+05        0
       0        0        0

6.601115e+04 5.975311e+04        0
5.975311e+04 -1.172883e+05        0
       0        0        0

1.242220e+04 8.960028e+04        0
8.960028e+04 -1.156788e+05        0
       0        0        0

-3.998153e+04 1.104917e+05        0
1.104917e+05 -1.152568e+05        0
       0        0        0

-9.118844e+04 1.212752e+05        0
1.212752e+05 -1.159721e+05        0
       0        0        0

-1.421093e+05 1.212711e+05        0
1.212711e+05 -1.173268e+05        0
       0        0        0

-1.939466e+05 1.104804e+05        0
1.104804e+05 -1.186794e+05        0
       0        0        0

-2.475761e+05 8.958500e+04        0
8.958500e+04 -1.194975e+05        0
       0        0        0

-3.029295e+05 5.973879e+04        0
5.973879e+04 -1.196747e+05        0
       0        0        0

-3.586046e+05 2.192761e+04        0
2.192761e+04 -1.198795e+05        0
       0        0        0

7.675557e+04 2.089947e+04        0
2.089947e+04 -1.206699e+05        0
       0        0        0

3.035112e+04 5.835773e+04        0
5.835773e+04 -1.179982e+05        0
       0        0        0

-1.519084e+04 8.921848e+04        0
8.921848e+04 -1.161798e+05        0
       0        0        0

-5.788704e+04 1.112960e+05        0
1.112960e+05 -1.160112e+05        0
       0        0        0

-9.823098e+04 1.227670e+05        0
1.227670e+05 -1.171635e+05        0
       0        0        0

-1.379242e+05 1.227637e+05        0
1.227637e+05 -1.189924e+05        0
       0        0        0

-1.789650e+05 1.112869e+05        0
1.112869e+05 -1.208459e+05        0
       0        0        0

-2.229933e+05 8.920616e+04        0
8.920616e+04 -1.220186e+05        0
       0        0        0

-2.703913e+05 5.834627e+04        0
5.834627e+04 -1.220716e+05        0
       0        0        0

-3.190553e+05 2.089419e+04        0
2.089419e+04 -1.216811e+05        0
       0        0        0

3.602520e+04 1.920978e+04        0
1.920978e+04 -1.217341e+05        0
       0        0        0

-5.895098e+03 5.667574e+04        0
5.667574e+04 -1.187619e+05        0
       0        0        0

-4.396832e+04 8.918902e+04        0
8.918902e+04 -1.173209e+05        0
       0        0        0

-7.644084e+04 1.124984e+05        0
1.124984e+05 -1.175658e+05        0
       0        0        0

-1.052335e+05 1.244293e+05        0
1.244293e+05 -1.185070e+05        0
       0        0        0

-1.331006e+05 1.244270e+05        0
1.244270e+05 -1.198274e+05        0
       0        0        0

-1.627104e+05 1.124919e+05        0
1.124919e+05 -1.215880e+05        0
       0        0        0

-1.967227e+05 8.917987e+04        0
8.917987e+04 -1.233778e+05        0
       0        0        0

-2.368622e+05 5.666712e+04        0
5.666712e+04 -1.240129e+05        0
       0        0        0

-2.811027e+05 1.920590e+04        0
1.920590e+04 -1.233763e+05        0
       0        0        0

-2.669816e+03 1.716988e+04        0
1.716988e+04 -1.233849e+05        0
       0        0        0

-4.368512e+04 5.612378e+04        0
5.612378e+04 -1.217579e+05        0
       0        0        0

-7.377937e+04 9.033549e+04        0
9.033549e+04 -1.226759e+05        0
       0        0        0

-9.479175e+04 1.133134e+05        0
1.133134e+05 -1.227208e+05        0
       0        0        0

-1.117444e+05 1.245026e+05        0
1.245026e+05 -1.209510e+05        0
       0        0        0

-1.279685e+05 1.245014e+05        0
1.245014e+05 -1.187619e+05        0
       0        0        0

-1.459416e+05 1.133100e+05        0
1.133100e+05 -1.180134e+05        0
       0        0        0

-1.688804e+05 9.033008e+04        0
9.033008e+04 -1.199869e+05        0
       0        0        0

-2.015224e+05 5.611802e+04        0
5.611802e+04 -1.234579e+05        0
       0        0        0

-2.451746e+05 1.716726e+04        0
1.716726e+04 -1.244790e+05        0
       0        0        0

-4.171442e+04 1.782474e+04        0
1.782474e+04 -1.275911e+05        0
       0        0        0

-8.382584e+04 6.144116e+04        0
6.144116e+04 -1.363750e+05        0
       0        0        0

-1.014815e+05 9.261063e+04        0
9.261063e+04 -1.410868e+05        0
       0        0        0

-1.101891e+05 1.104177e+05        0
1.104177e+05 -1.364168e+05        0
       0        0        0

-1.167776e+05 1.185722e+05        0
1.185722e+05 -1.260005e+05        0
       0        0        0

-1.233137e+05 1.185726e+05        0
1.185726e+05 -1.140908e+05        0
       0        0        0

-1.312258e+05 1.104184e+05        0
1.104184e+05 -1.049979e+05        0
       0        0        0

-1.424991e+05 9.261044e+04        0
9.261044e+04 -1.028939e+05        0
       0        0        0

-1.636887e+05 6.143896e+04        0
6.143896e+04 -1.111414e+05        0
       0        0        0

-2.095369e+05 1.782293e+04        0
1.782293e+04 -1.236698e+05        0
       0        0        0

-9.381610e+04 4.053971e+04        0
4.053971e+04 -1.597666e+05        0
       0        0        0

-1.171955e+05 7.596204e+04        0
7.596204e+04 -1.893797e+05        0
       0        0        0

-1.183879e+05 8.927151e+04        0
8.927151e+04 -1.852412e+05        0
       0        0        0

-1.186834e+05 9.581221e+04        0
9.581221e+04 -1.642788e+05        0
       0        0        0

-1.190395e+05 9.867858e+04        0
9.867858e+04 -1.351346e+05        0
       0        0        0

-1.201359e+05 9.868048e+04        0
9.868048e+04 -1.040405e+05        0
       0        0        0

-1.221876e+05 9.581739e+04        0
9.581739e+04 -7.658960e+04        0
       0        0        0

-1.259176e+05 8.927834e+04        0
8.927834e+04 -5.905873e+04        0
       0        0        0

-1.323055e+05 7.596767e+04        0
7.596767e+04 -6.011535e+04        0
       0        0        0

-1.620934e+05 4.053949e+04        0
4.053949e+04 -9.614307e+04        0
       0        0        0

POINT_DATA     451
VECTORS DISPLACEMENT_2.800000e-01 double
0.000000e+00    0.000000e+00    0.000000e+00
0.000000e+00    0.000000e+00    0.000000e+00
0.000000e+00    0.000000e+00    0.000000e+00
0.000000e+00    0.000000e+00    0.000000e+00
0.000000e+00    0.000000e+00    0.000000e+00
0.000000e+00    0.000000e+00    0.000000e+00
0.000000e+00    0.000000e+00    0.000000e+00
0.000000e+00    0.000000e+00    0.000000e+00
0.000000e+00    0.000000e+00    0.000000e+00
0.000000e+00    0.000000e+00    0.000000e+00
0.000000e+00    0.000000e+00    0.000000e+00
-1.142432e-06    -8.305889e-07    0.000000e+00
-7.238635e-07    -4.166395e-07    0.000000e+00
-5.164809e-07    -2.159160e-07    0.000000e+00
-3.334584e-07    -1.069475e-07    0.000000e+00
-1.644018e-07    -5.055198e-08    0.000000e+00
-3.382041e-20    -3.301748e-08    0.000000e+00
1.644018e-07    -5.055198e-08    0.000000e+00
3.334584e-07    -1.069475e-07    0.000000e+00
5.164809e-07    -2.159160e-07    0.000000e+00
7.238635e-07    -4.166395e-07    0.000000e+00
1.142432e-06    -8.305889e-07    0.000000e+00
-2.155506e-06    -1.381367e-06    0.000000e+00
-1.575562e-06    -9.995534e-07    0.000000e+00
-1.105875e-06    -7.021304e-07    0.000000e+00
-7.133308e-07    -5.181558e-07    0.000000e+00
-3.503478e-07    -4.179111e-07    0.000000e+00
-7.157511e-20    -3.860699e-07    0.000000e+00
3.503478e-07    -4.179111e-07    0.000000e+00
7.133308e-07    -5.181558e-07    0.000000e+00
1.105875e-06    -7.021304e-07    0.000000e+00
1.575562e-06    -9.995534e-07    0.000000e+00
2.155506e-06    -1.381367e-06    0.000000e+00
-3.134686e-06    -2.066218e-06    0.000000e+00
-2.395874e-06    -1.683572e-06    0.000000e+00
-1.723919e-06    -1.381864e-06    0.000000e+00
-1.116023e-06    -1.169052e-06    0.000000e+00
-5.491330e-07    -1.046392e-06    0.000000e+00
-1.126885e-19    -1.006437e-06    0.000000e+00
5.491330e-07    -1.046392e-06    0.000000e+00
1.116023e-06    -1.169052e-06    0.000000e+00
1.723919e-06    -1.381864e-06    0.000000e+00
2.395874e-06    -1.683572e-06    0.000000e+00
3.134686e-06    -2.066218e-06    0.000000e+00
-4.103011e-06    -2.911393e-06    0.000000e+00
-3.189136e-06    -2.537483e-06    0.000000e+00
-2.328597e-06    -2.240808e-06    0.000000e+00
-1.520473e-06    -2.026712e-06    0.000000e+00
-7.505794e-07    -1.898202e-06    0.000000e+00
-1.557217e-19    -1.855590e-06    0.000000e+00
7.505794e-07    -1.898202e-06    0.000000e+00
1.520473e-06    -2.026712e-06    0.000000e+00
2.328597e-06    -2.240808e-06    0.000000e+00
3.189136e-06    -2.537483e-06    0.000000e+00
4.103011e-06    -2.911393e-06    0.000000e+00
-5.054932e-06    -3.939638e-06    0.000000e+00
-3.959269e-06    -3.574459e-06    0.000000e+00
-2.914028e-06    -3.286744e-06    0.000000e+00
-1.914201e-06    -3.078283e-06    0.000000e+00
-9.482097e-07    -2.952084e-06    0.000000e+00
-1.999527e-19    -2.909842e-06    0.000000e+00
9.482097e-07    -2.952084e-06    0.000000e+00
1.914201e-06    -3.078283e-06    0.000000e+00
2.914028e-06    -3.286744e-06    0.000000e+00
3.959269e-06    -3.574459e-06    0.000000e+00
5.054932e-06    -3.939638e-06    0.000000e+00
-5.986099e-06    -5.153615e-06    0.000000e+00
-4.707815e-06    -4.798101e-06    0.000000e+00
-3.480167e-06    -4.519487e-06    0.000000e+00
-2.294516e-06    -4.318404e-06    0.000000e+00
-1.139274e-06    -4.196695e-06    0.000000e+00
-2.447528e-19    -4.155938e-06    0.000000e+00
1.139274e-06    -4.196695e-06    0.000000e+00
2.294516e-06    -4.318404e-06    0.000000e+00
3.480167e-06    -4.519487e-06    0.000000e+00
4.707815e-06    -4.798101e-06    0.000000e+00
5.986099e-06    -5.153615e-06    0.000000e+00
-6.893394e-06    -6.551264e-06    0.000000e+00
-5.435044e-06    -6.205811e-06    0.000000e+00
-4.028091e-06    -5.936067e-06    0.000000e+00
-2.661611e-06    -5.742176e-06    0.000000e+00
-1.323476e-06    -5.625155e-06    0.000000e+00
-2.871706e-19    -5.586012e-06    0.000000e+00
1.323476e-06    -5.625155e-06    0.000000e+00
2.661611e-06    -5.742176e-06    0.000000e+00
4.028091e-06    -5.936067e-06    0.000000e+00
5.435044e-06    -6.205811e-06    0.000000e+00
6.893394e-06    -6.551264e-06    0.000000e+00
-7.775095e-06    -8.128160e-06    0.000000e+00
-6.140868e-06    -7.793005e-06    0.000000e+00
-4.558657e-06    -7.531838e-06    0.000000e+00
-3.016303e-06    -7.344662e-06    0.000000e+00
-1.501205e-06    -7.231974e-06    0.000000e+00
-3.286223e-19    -7.194333e-06    0.000000e+00
1.501205e-06    -7.231974e-06    0.000000e+00
3.016303e-06    -7.344662e-06    0.000000e+00
4.558657e-06    -7.531838e-06    0.000000e+00
6.140868e-06    -7.793005e-06    0.000000e+00
7.775095e-06    -8.128160e-06    0.000000e+00
-8.630315e-06    -9.879105e-06    0.000000e+00
-6.825154e-06    -9.554358e-06    0.000000e+00
-5.072397e-06    -9.301570e-06    0.000000e+00
-3.359275e-06    -9.120711e-06    0.000000e+00
-1.672888e-06    -9.012006e-06    0.000000e+00
-3.728268e-19    -8.975730e-06    0.000000e+00
1.672888e-06    -9.012006e-06    0.000000e+00
3.359275e-06    -9.120711e-06    0.000000e+00
5.072397e-06    -9.301570e-06    0.000000e+00
6.825154e-06    -9.554358e-06    0.000000e+00
8.630315e-06    -9.879105e-06    0.000000e+00
-9.458636e-06    -1.179865e-05    0.000000e+00
-7.487808e-06    -1.148436e-05    0.000000e+00
-5.569594e-06    -1.123983e-05    0.000000e+00
-3.690951e-06    -1.106504e-05    0.000000e+00
-1.838819e-06    -1.096008e-05    0.000000e+00
-4.160520e-19    -1.092508e-05    0.000000e+00
1.838819e-06    -1.096008e-05    0.000000e+00
3.690951e-06    -1.106504e-05    0.000000e+00
5.569594e-06    -1.123983e-05    0.000000e+00
7.487808e-06    -1.148436e-05    0.000000e+00
9.458636e-06    -1.179865e-05    0.000000e+00
-1.025988e-05    -1.388128e-05    0.000000e+00
-8.128777e-06    -1.357747e-05    0.000000e+00
-6.050390e-06    -1.334114e-05    0.000000e+00
-4.011567e-06    -1.317229e-05    0.000000e+00
-1.999166e-06    -1.307094e-05    0.000000e+00
-4.533214e-19    -1.303715e-05    0.000000e+00
1.999166e-06    -1.307094e-05    0.000000e+00
4.011567e-06    -1.317229e-05    0.000000e+00
6.050390e-06    -1.334114e-05    0.000000e+00
8.128777e-06    -1.357747e-05    0.000000e+00
1.025988e-05    -1.388128e-05    0.000000e+00
-1.103397e-05    -1.612153e-05    0.000000e+00
-8.748031e-06    -1.582819e-05    0.000000e+00
-6.514847e-06    -1.560003e-05    0.000000e+00
-4.321234e-06    -1.543705e-05    0.000000e+00
-2.154015e-06    -1.533924e-05    0.000000e+00
-4.927614e-19    -1.530664e-05    0.000000e+00
2.154015e-06    -1.533924e-05    0.000000e+00
4.321234e-06    -1.543705e-05    0.000000e+00
6.514847e-06    -1.560003e-05    0.000000e+00
8.748031e-06    -1.582819e-05    0.000000e+00
1.103397e-05    -1.612153e-05    0.000000e+00
-1.178090e-05    -1.851390e-05    0.000000e+00
-9.345557e-06    -1.823105e-05    0.000000e+00
-6.962992e-06    -1.801105e-05    0.000000e+00
-4.620005e-06    -1.785390e-05    0.000000e+00
-2.303405e-06    -1.775961e-05    0.000000e+00
-5.383424e-19    -1.772818e-05    0.000000e+00
2.303405e-06    -1.775961e-05    0.000000e+00
4.620005e-06    -1.785390e-05    0.000000e+00
6.962992e-06    -1.801105e-05    0.000000e+00
9.345557e-06    -1.823105e-05    0.000000e+00
1.178090e-05    -1.851390e-05    0.000000e+00
-1.250065e-05    -2.105296e-05    0.000000e+00
-9.921350e-06    -2.078058e-05    0.000000e+00
-7.394833e-06    -2.056874e-05    0.000000e+00
-4.907900e-06    -2.041742e-05    0.000000e+00
-2.447353e-06    -2.032663e-05    0.000000e+00
-5.655004e-19    -2.029636e-05    0.000000e+00
2.447353e-06    -2.032663e-05    0.000000e+00
4.907900e-06    -2.041742e-05    0.000000e+00
7.394833e-06    -2.056874e-05    0.000000e+00
9.921350e-06    -2.078058e-05    0.000000e+00
1.250065e-05    -2.105296e-05    0.000000e+00
-1.319323e-05    -2.373325e-05    0.000000e+00
-1.047541e-05    -2.347136e-05    0.000000e+00
-7.810374e-06    -2.326766e-05    0.000000e+00
-5.184926e-06    -2.312217e-05    0.000000e+00
-2.585866e-06    -2.303487e-05    0.000000e+00
-5.926054e-19    -2.300577e-05    0.000000e+00
2.585866e-06    -2.303487e-05    0.000000e+00
5.184926e-06    -2.312217e-05    0.000000e+00
7.810374e-06    -2.326766e-05    0.000000e+00
1.047541e-05    -2.347136e-05    0.000000e+00
1.319323e-05    -2.373325e-05    0.000000e+00
-1.385863e-05    -2.654935e-05    0.000000e+00
-1.100773e-05    -2.629793e-05    0.000000e+00
-8.209615e-06    -2.610238e-05    0.000000e+00
-5.451085e-06    -2.596271e-05    0.000000e+00
-2.718945e-06    -2.587890e-05    0.000000e+00
-6.130401e-19    -2.585097e-05    0.000000e+00
2.718945e-06    -2.587890e-05    0.000000e+00
5.451085e-06    -2.596271e-05    0.000000e+00
8.209615e-06    -2.610238e-05    0.000000e+00
1.100773e-05    -2.629793e-05    0.000000e+00
1.385863e-05    -2.654935e-05    0.000000e+00
-1.449687e-05    -2.949580e-05    0.000000e+00
-1.151832e-05    -2.925486e-05    0.000000e+00
-8.592555e-06    -2.906747e-05    0.000000e+00
-5.706378e-06    -2.893361e-05    0.000000e+00
-2.846592e-06    -2.885330e-05    0.000000e+00
-6.196046e-19    -2.882653e-05    0.000000e+00
2.846592e-06    -2.885330e-05    0.000000e+00
5.706378e-06    -2.893361e-05    0.000000e+00
8.592555e-06    -2.906747e-05    0.000000e+00
1.151832e-05    -2.925486e-05    0.000000e+00
1.449687e-05    -2.949580e-05    0.000000e+00
-1.510793e-05    -3.256718e-05    0.000000e+00
-1.200717e-05    -3.233672e-05    0.000000e+00
-8.959196e-06    -3.215748e-05    0.000000e+00
-5.950805e-06    -3.202945e-05    0.000000e+00
-2.968805e-06    -3.195263e-05    0.000000e+00
-6.335806e-19    -3.192702e-05    0.000000e+00
2.968805e-06    -3.195263e-05    0.000000e+00
5.950805e-06    -3.202945e-05    0.000000e+00
8.959196e-06    -3.215748e-05    0.000000e+00
1.200717e-05    -3.233672e-05    0.000000e+00
1.510793e-05    -3.256718e-05    0.000000e+00
-1.569183e-05    -3.575806e-05    0.000000e+00
-1.247429e-05    -3.553808e-05    0.000000e+00
-9.309535e-06    -3.536698e-05    0.000000e+00
-6.184365e-06    -3.524477e-05    0.000000e+00
-3.085585e-06    -3.517145e-05    0.000000e+00
-6.558153e-19    -3.514700e-05    0.000000e+00
3.085585e-06    -3.517145e-05    0.000000e+00
6.184365e-06    -3.524477e-05    0.000000e+00
9.309535e-06    -3.536698e-05    0.000000e+00
1.247429e-05    -3.553808e-05    0.000000e+00
1.569183e-05    -3.575806e-05    0.000000e+00
-1.624856e-05    -3.906300e-05    0.000000e+00
-1.291968e-05    -3.885350e-05    0.000000e+00
-9.643575e-06    -3.869055e-05    0.000000e+00
-6.407058e-06    -3.857416e-05    0.000000e+00
-3.196932e-06    -3.850433e-05    0.000000e+00
-6.983787e-19    -3.848105e-05    0.000000e+00
3.196932e-06    -3.850433e-05    0.000000e+00
6.407058e-06    -3.857416e-05    0.000000e+00
9.643575e-06    -3.869055e-05    0.000000e+00
1.291968e-05    -3.885350e-05    0.000000e+00
1.624856e-05    -3.906300e-05    0.000000e+00
-1.677812e-05    -4.247656e-05    0.000000e+00
-1.334333e-05    -4.227754e-05    0.000000e+00
-9.961315e-06    -4.212274e-05    0.000000e+00
-6.618886e-06    -4.201217e-05    0.000000e+00
-3.302845e-06    -4.194583e-05    0.000000e+00
-7.638120e-19    -4.192372e-05    0.000000e+00
3.302845e-06    -4.194583e-05    0.000000e+00
6.618886e-06    -4.201217e-05    0.000000e+00
9.961315e-06    -4.212274e-05    0.000000e+00
1.334333e-05    -4.227754e-05    0.000000e+00
1.677812e-05    -4.247656e-05    0.000000e+00
-1.728052e-05    -4.599332e-05    0.000000e+00
-1.374525e-05    -4.580477e-05    0.000000e+00
-1.026276e-05    -4.565813e-05    0.000000e+00
-6.819846e-06    -4.555338e-05    0.000000e+00
-3.403326e-06    -4.549053e-05    0.000000e+00
-8.123046e-19    -4.546958e-05    0.000000e+00
3.403326e-06    -4.549053e-05    0.000000e+00
6.819846e-06    -4.555338e-05    0.000000e+00
1.026276e-05    -4.565813e-05    0.000000e+00
1.374525e-05    -4.580477e-05    0.000000e+00
1.728052e-05    -4.599332e-05    0.000000e+00
-1.775575e-05    -4.960783e-05    0.000000e+00
-1.412543e-05    -4.942977e-05    0.000000e+00
-1.054790e-05    -4.929127e-05    0.000000e+00
-7.009941e-06    -4.919234e-05    0.000000e+00
-3.498374e-06    -4.913299e-05    0.000000e+00
-8.474565e-19    -4.911320e-05    0.000000e+00
3.498374e-06    -4.913299e-05    0.000000e+00
7.009941e-06    -4.919234e-05    0.000000e+00
1.054790e-05    -4.929127e-05    0.000000e+00
1.412543e-05    -4.942977e-05    0.000000e+00
1.775575e-05    -4.960783e-05    0.000000e+00
-1.820381e-05    -5.331468e-05    0.000000e+00
-1.448389e-05    -5.314709e-05    0.000000e+00
-1.081674e-05    -5.301674e-05    0.000000e+00
-7.189171e-06    -5.292363e-05    0.000000e+00
-3.587989e-06    -5.286777e-05    0.000000e+00
-8.895964e-19    -5.284915e-05    0.000000e+00
3.587989e-06    -5.286777e-05    0.000000e+00
7.189171e-06    -5.292363e-05    0.000000e+00
1.081674e-05    -5.301674e-05    0.000000e+00
1.448389e-05    -5.314709e-05    0.000000e+00
1.820381e-05    -5.331468e-05    0.000000e+00
-1.862471e-05    -5.710841e-05    0.000000e+00
-1.482061e-05    -5.695130e-05    0.000000e+00
-1.106928e-05    -5.682910e-05    0.000000e+00
-7.357535e-06    -5.674182e-05    0.000000e+00
-3.672171e-06    -5.668945e-05    0.000000e+00
-9.018783e-19    -5.667199e-05    0.000000e+00
3.672171e-06    -5.668945e-05    0.000000e+00
7.357535e-06    -5.674182e-05    0.000000e+00
1.106928e-05    -5.682910e-05    0.000000e+00
1.482061e-05    -5.695130e-05    0.000000e+00
1.862471e-05    -5.710841e-05    0.000000e+00
-1.901845e-05    -6.098361e-05    0.000000e+00
-1.513560e-05    -6.083698e-05    0.000000e+00
-1.130553e-05    -6.072293e-05    0.000000e+00
-7.515035e-06    -6.064146e-05    0.000000e+00
-3.750922e-06    -6.059258e-05    0.000000e+00
-9.122545e-19    -6.057629e-05    0.000000e+00
3.750922e-06    -6.059258e-05    0.000000e+00
7.515035e-06    -6.064146e-05    0.000000e+00
1.130553e-05    -6.072293e-05    0.000000e+00
1.513560e-05    -6.083698e-05    0.000000e+00
1.901845e-05    -6.098361e-05    0.000000e+00
-1.938502e-05    -6.493483e-05    0.000000e+00
-1.542887e-05    -6.479868e-05    0.000000e+00
-1.152548e-05    -6.469278e-05    0.000000e+00
-7.661671e-06    -6.461713e-05    0.000000e+00
-3.824240e-06    -6.457174e-05    0.000000e+00
-9.203013e-19    -6.455661e-05    0.000000e+00
3.824240e-06    -6.457174e-05    0.000000e+00
7.661671e-06    -6.461713e-05    0.000000e+00
1.152548e-05    -6.469278e-05    0.000000e+00
1.542887e-05    -6.479868e-05    0.000000e+00
1.938502e-05    -6.493483e-05    0.000000e+00
-1.972443e-05    -6.895665e-05    0.000000e+00
-1.570040e-05    -6.883097e-05    0.000000e+00
-1.172914e-05    -6.873322e-05    0.000000e+00
-7.797442e-06    -6.866339e-05    0.000000e+00
-3.892126e-06    -6.862150e-05    0.000000e+00
-8.997607e-19    -6.860754e-05    0.000000e+00
3.892126e-06    -6.862150e-05    0.000000e+00
7.797442e-06    -6.866339e-05    0.000000e+00
1.172914e-05    -6.873322e-05    0.000000e+00
1.570040e-05    -6.883097e-05    0.000000e+00
1.972443e-05    -6.895665e-05    0.000000e+00
-2.003667e-05    -7.304361e-05    0.000000e+00
-1.595021e-05    -7.292841e-05    0.000000e+00
-1.191650e-05    -7.283881e-05    0.000000e+00
-7.922346e-06    -7.277482e-05    0.000000e+00
-3.954576e-06    -7.273643e-05    0.000000e+00
-8.953138e-19    -7.272363e-05    0.000000e+00
3.954576e-06    -7.273643e-05    0.000000e+00
7.922346e-06    -7.277482e-05    0.000000e+00
1.191650e-05    -7.283881e-05    0.000000e+00
1.595021e-05    -7.292841e-05    0.000000e+00
2.003667e-05    -7.304361e-05    0.000000e+00
-2.032175e-05    -7.719029e-05    0.000000e+00
-1.617829e-05    -7.708557e-05    0.000000e+00
-1.208756e-05    -7.700412e-05    0.000000e+00
-8.036371e-06    -7.694597e-05    0.000000e+00
-4.011581e-06    -7.691110e-05    0.000000e+00
-9.359714e-19    -7.689948e-05    0.000000e+00
4.011581e-06    -7.691110e-05    0.000000e+00
8.036371e-06    -7.694597e-05    0.000000e+00
1.208756e-05    -7.700412e-05    0.000000e+00
1.617829e-05    -7.708557e-05    0.000000e+00
2.032175e-05    -7.719029e-05    0.000000e+00
-2.057968e-05    -8.139122e-05    0.000000e+00
-1.638466e-05    -8.129697e-05    0.000000e+00
-1.224230e-05    -8.122370e-05    0.000000e+00
-8.139489e-06    -8.117144e-05    0.000000e+00
-4.063118e-06    -8.114013e-05    0.000000e+00
-9.834053e-19    -8.112970e-05    0.000000e+00
4.063118e-06    -8.114013e-05    0.000000e+00
8.139489e-06    -8.117144e-05    0.000000e+00
1.224230e-05    -8.122370e-05    0.000000e+00
1.638466e-05    -8.129697e-05    0.000000e+00
2.057968e-05    -8.139122e-05    0.000000e+00
-2.081051e-05    -8.564093e-05    0.000000e+00
-1.656934e-05    -8.555714e-05    0.000000e+00
-1.238069e-05    -8.549209e-05    0.000000e+00
-8.231632e-06    -8.544579e-05    0.000000e+00
-4.109136e-06    -8.541813e-05    0.000000e+00
-1.060485e-18    -8.540893e-05    0.000000e+00
4.109136e-06    -8.541813e-05    0.000000e+00
8.231632e-06    -8.544579e-05    0.000000e+00
1.238069e-05    -8.549209e-05    0.000000e+00
1.656934e-05    -8.555714e-05    0.000000e+00
2.081051e-05    -8.564093e-05    0.000000e+00
-2.101432e-05    -8.993395e-05    0.000000e+00
-1.673235e-05    -8.986059e-05    0.000000e+00
-1.250266e-05    -8.980382e-05    0.000000e+00
-8.312658e-06    -8.976365e-05    0.000000e+00
-4.149530e-06    -8.973978e-05    0.000000e+00
-1.133754e-18    -8.973187e-05    0.000000e+00
4.149530e-06    -8.973978e-05    0.000000e+00
8.312658e-06    -8.976365e-05    0.000000e+00
1.250266e-05    -8.980382e-05    0.000000e+00
1.673235e-05    -8.986059e-05    0.000000e+00
2.101432e-05    -8.993395e-05    0.000000e+00
-2.119137e-05    -9.426479e-05    0.000000e+00
-1.687376e-05    -9.420180e-05    0.000000e+00
-1.260801e-05    -9.415345e-05    0.000000e+00
-8.382296e-06    -9.411967e-05    0.000000e+00
-4.184111e-06    -9.409985e-05    0.000000e+00
-1.175258e-18    -9.409332e-05    0.000000e+00
4.184111e-06    -9.409985e-05    0.000000e+00
8.382296e-06    -9.411967e-05    0.000000e+00
1.260801e-05    -9.415345e-05    0.000000e+00
1.687376e-05    -9.420180e-05    0.000000e+00
2.119137e-05    -9.426479e-05    0.000000e+00
-2.134220e-05    -9.862812e-05    0.000000e+00
-1.699367e-05    -9.857536e-05    0.000000e+00
-1.269642e-05    -9.853563e-05    0.000000e+00
-8.440087e-06    -9.850861e-05    0.000000e+00
-4.212580e-06    -9.849312e-05    0.000000e+00
-1.228621e-18    -9.848809e-05    0.000000e+00
4.212580e-06    -9.849312e-05    0.000000e+00
8.440087e-06    -9.850861e-05    0.000000e+00
1.269642e-05    -9.853563e-05    0.000000e+00
1.699367e-05    -9.857536e-05    0.000000e+00
2.134220e-05    -9.862812e-05    0.000000e+00
-2.146791e-05    -1.030190e-04    0.000000e+00
-1.709216e-05    -1.029762e-04    0.000000e+00
-1.276731e-05    -1.029453e-04    0.000000e+00
-8.485409e-06    -1.029253e-04    0.000000e+00
-4.234587e-06    -1.029143e-04    0.000000e+00
-1.275208e-18    -1.029107e-04    0.000000e+00
4.234587e-06    -1.029143e-04    0.000000e+00
8.485409e-06    -1.029253e-04    0.000000e+00
1.276731e-05    -1.029453e-04    0.000000e+00
1.709216e-05    -1.029762e-04    0.000000e+00
2.146791e-05    -1.030190e-04    0.000000e+00
-2.157046e-05    -1.074339e-04    0.000000e+00
-1.716916e-05    -1.074005e-04    0.000000e+00
-1.281994e-05    -1.073784e-04    0.000000e+00
-8.517802e-06    -1.073648e-04    0.000000e+00
-4.250027e-06    -1.073573e-04    0.000000e+00
-1.214222e-18    -1.073548e-04    0.000000e+00
4.250027e-06    -1.073573e-04    0.000000e+00
8.517802e-06    -1.073648e-04    0.000000e+00
1.281994e-05    -1.073784e-04    0.000000e+00
1.716916e-05    -1.074005e-04    0.000000e+00
2.157046e-05    -1.074339e-04    0.000000e+00
-2.165297e-05    -1.118726e-04    0.000000e+00
-1.722412e-05    -1.118476e-04    0.000000e+00
-1.285407e-05    -1.118324e-04    0.000000e+00
-8.538173e-06    -1.118214e-04    0.000000e+00
-4.259731e-06    -1.118139e-04    0.000000e+00
-1.137989e-18    -1.118112e-04    0.000000e+00
4.259731e-06    -1.118139e-04    0.000000e+00
8.538173e-06    -1.118214e-04    0.000000e+00
1.285407e-05    -1.118324e-04    0.000000e+00
1.722412e-05    -1.118476e-04    0.000000e+00
2.165297e-05    -1.118726e-04    0.000000e+00
-2.171742e-05    -1.163432e-04    0.000000e+00
-1.725598e-05    -1.163251e-04    0.000000e+00
-1.287362e-05    -1.163066e-04    0.000000e+00
-8.551112e-06    -1.162860e-04    0.000000e+00
-4.266317e-06    -1.162706e-04    0.000000e+00
-1.145189e-18    -1.162650e-04    0.000000e+00
4.266317e-06    -1.162706e-04    0.000000e+00
8.551112e-06    -1.162860e-04    0.000000e+00
1.287362e-05    -1.163066e-04    0.000000e+00
1.725598e-05    -1.163251e-04    0.000000e+00
2.171742e-05    -1.163432e-04    0.000000e+00
-2.175153e-05    -1.208858e-04    0.000000e+00
-1.727617e-05    -1.208511e-04    0.000000e+00
-1.289344e-05    -1.207926e-04    0.000000e+00
-8.566229e-06    -1.207397e-04    0.000000e+00
-4.274492e-06    -1.207045e-04    0.000000e+00
-1.153871e-18    -1.206923e-04    0.000000e+00
4.274492e-06    -1.207045e-04    0.000000e+00
8.566229e-06    -1.207397e-04    0.000000e+00
1.289344e-05    -1.207926e-04    0.000000e+00
1.727617e-05    -1.208511e-04    0.000000e+00
2.175153e-05    -1.208858e-04    0.000000e+00

CELL_DATA      400
TENSORS Element_Stress2.800000e-01 double
1.821925e+06 2.553788e+05        0
2.553788e+05 4.166546e+05        0
       0        0        0

1.244611e+06 1.309672e+05        0
1.309672e+05 3.568762e+05        0
       0        0        0

8.657330e+05 4.306399e+04        0
4.306399e+04 2.751938e+05        0
       0        0        0

5.103668e+05 -3.555655e+03        0
-3.555655e+03 1.691305e+05        0
       0        0        0

1.689731e+05 -2.487455e+04        0
-2.487455e+04 5.699038e+04        0
       0        0        0

-1.689374e+05 -2.486843e+04        0
-2.486843e+04 -5.699851e+04        0
       0        0        0

-5.098904e+05 -3.556427e+03        0
-3.556427e+03 -1.689657e+05        0
       0        0        0

-8.643202e+05 4.299204e+04        0
4.299204e+04 -2.746644e+05        0
       0        0        0

-1.241620e+06 1.306781e+05        0
1.306781e+05 -3.557308e+05        0
       0        0        0

-1.815692e+06 2.545671e+05        0
2.545671e+05 -4.144998e+05        0
       0        0        0

1.643250e+06 4.163710e+04        0
4.163710e+04 4.238815e+03        0
       0        0        0

1.323297e+06 1.207525e+05        0
1.207525e+05 1.287805e+05        0
       0        0        0

9.088943e+05 9.910288e+04        0
9.910288e+04 1.316165e+05        0
       0        0        0

5.367798e+05 7.588753e+04        0
7.588753e+04 9.200071e+04        0
       0        0        0

1.769409e+05 6.328978e+04        0
6.328978e+04 3.210081e+04        0
       0        0        0

-1.779803e+05 6.327140e+04        0
6.327140e+04 -3.319387e+04        0
       0        0        0

-5.373145e+05 7.582197e+04        0
7.582197e+04 -9.291394e+04        0
       0        0        0

-9.083477e+05 9.896247e+04        0
9.896247e+04 -1.321362e+05        0
       0        0        0

-1.320770e+06 1.205146e+05        0
1.205146e+05 -1.285285e+05        0
       0        0        0

-1.638640e+06 4.155030e+04        0
4.155030e+04 -3.139367e+03        0
       0        0        0

1.586075e+06 1.543526e+04        0
1.543526e+04 6.619930e+03        0
       0        0        0

1.272489e+06 6.839902e+04        0
6.839902e+04 1.759090e+04        0
       0        0        0

9.152839e+05 1.016616e+05        0
1.016616e+05 4.240889e+04        0
       0        0        0

5.434621e+05 1.075813e+05        0
1.075813e+05 3.595005e+04        0
       0        0        0

1.792699e+05 1.075114e+05        0
1.075114e+05 1.272895e+04        0
       0        0        0

-1.826080e+05 1.074834e+05        0
1.074834e+05 -1.612551e+04        0
       0        0        0

-5.462675e+05 1.074980e+05        0
1.074980e+05 -3.915641e+04        0
       0        0        0

-9.169570e+05 1.015323e+05        0
1.015323e+05 -4.518921e+04        0
       0        0        0

-1.272463e+06 6.828396e+04        0
6.828396e+04 -1.968595e+04        0
       0        0        0

-1.584098e+06 1.540328e+04        0
1.540328e+04 -7.918853e+03        0
       0        0        0

1.547209e+06 1.429081e+04        0
1.429081e+04 -3.980389e+03        0
       0        0        0

1.227538e+06 5.553959e+04        0
5.553959e+04 -1.956001e+03        0
       0        0        0

8.871702e+05 9.254118e+04        0
9.254118e+04 2.934439e+03        0
       0        0        0

5.335003e+05 1.147136e+05        0
1.147136e+05 5.880887e+03        0
       0        0        0

1.754934e+05 1.234764e+05        0
1.234764e+05 6.865799e+02        0
       0        0        0

-1.821729e+05 1.234469e+05        0
1.234469e+05 -7.424280e+03        0
       0        0        0

-5.396531e+05 1.146318e+05        0
1.146318e+05 -1.242478e+04        0
       0        0        0

-8.922590e+05 9.243338e+04        0
9.243338e+04 -9.068763e+03        0
       0        0        0

-1.231050e+06 5.545123e+04        0
5.545123e+04 -3.534658e+03        0
       0        0        0

-1.548615e+06 1.426274e+04        0
1.426274e+04 -5.530066e+02        0
       0        0        0

1.510467e+06 1.714935e+04        0
1.714935e+04 -5.574758e+03        0
       0        0        0

1.186155e+06 5.454337e+04        0
5.454337e+04 -8.587207e+03        0
       0        0        0

8.547420e+05 8.914286e+04        0
8.914286e+04 -8.338466e+03        0
       0        0        0

5.140844e+05 1.137511e+05        0
1.137511e+05 -6.753397e+03        0
       0        0        0

1.682174e+05 1.259660e+05        0
1.259660e+05 -5.646799e+03        0
       0        0        0

-1.791178e+05 1.259376e+05        0
1.259376e+05 -5.308890e+03        0
       0        0        0

-5.244892e+05 1.136747e+05        0
1.136747e+05 -4.017799e+03        0
       0        0        0

-8.641540e+05 8.904413e+04        0
8.904413e+04 -2.048863e+03        0
       0        0        0

-1.194071e+06 5.445999e+04        0
5.445999e+04 -1.184511e+03        0
       0        0        0

-1.516321e+06 1.711632e+04        0
1.711632e+04 -3.270768e+03        0
       0        0        0

1.470668e+06 1.960989e+04        0
1.960989e+04 -7.922675e+03        0
       0        0        0

1.147854e+06 5.650259e+04        0
5.650259e+04 -1.056109e+04        0
       0        0        0

8.229703e+05 8.847331e+04        0
8.847331e+04 -1.194175e+04        0
       0        0        0

4.931923e+05 1.118811e+05        0
1.118811e+05 -1.115243e+04        0
       0        0        0

1.595093e+05 1.240813e+05        0
1.240813e+05 -9.170023e+03        0
       0        0        0

-1.753959e+05 1.240546e+05        0
1.240546e+05 -6.768001e+03        0
       0        0        0

-5.086241e+05 1.118090e+05        0
1.118090e+05 -4.620251e+03        0
       0        0        0

-8.374902e+05 8.837892e+04        0
8.837892e+04 -3.488283e+03        0
       0        0        0

-1.160990e+06 5.641876e+04        0
5.641876e+04 -4.321042e+03        0
       0        0        0

-1.481893e+06 1.957303e+04        0
1.957303e+04 -6.149325e+03        0
       0        0        0

1.428021e+06 2.116552e+04        0
2.116552e+04 -1.054481e+04        0
       0        0        0

1.110593e+06 5.840762e+04        0
5.840762e+04 -1.238322e+04        0
       0        0        0

7.929306e+05 8.872850e+04        0
8.872850e+04 -1.363855e+04        0
       0        0        0

4.729379e+05 1.104504e+05        0
1.104504e+05 -1.338774e+04        0
       0        0        0

1.507133e+05 1.217916e+05        0
1.217916e+05 -1.183307e+04        0
       0        0        0

-1.722709e+05 1.217664e+05        0
1.217664e+05 -9.772360e+03        0
       0        0        0

-4.940886e+05 1.103817e+05        0
1.103817e+05 -8.080631e+03        0
       0        0        0

-8.132641e+05 8.863680e+04        0
8.863680e+04 -7.546809e+03        0
       0        0        0

-1.129685e+06 5.832344e+04        0
5.832344e+04 -8.353115e+03        0
       0        0        0

-1.445412e+06 2.112678e+04        0
2.112678e+04 -9.542839e+03        0
       0        0        0

1.383378e+06 2.202355e+04        0
2.202355e+04 -1.365692e+04        0
       0        0        0

1.073592e+06 5.967265e+04        0
5.967265e+04 -1.474243e+04        0
       0        0        0

7.640749e+05 8.909720e+04        0
8.909720e+04 -1.559532e+04        0
       0        0        0

4.536030e+05 1.095924e+05        0
1.095924e+05 -1.554514e+04        0
       0        0        0

1.420360e+05 1.201524e+05        0
1.201524e+05 -1.460806e+04        0
       0        0        0

-1.698834e+05 1.201282e+05        0
1.201282e+05 -1.328394e+04        0
       0        0        0

-4.810961e+05 1.095264e+05        0
1.095264e+05 -1.224471e+04        0
       0        0        0

-7.908557e+05 8.900789e+04        0
8.900789e+04 -1.198396e+04        0
       0        0        0

-1.099292e+06 5.958913e+04        0
5.958913e+04 -1.250476e+04        0
       0        0        0

-1.407608e+06 2.198439e+04        0
2.198439e+04 -1.311747e+04        0
       0        0        0

1.337510e+06 2.245297e+04        0
2.245297e+04 -1.715438e+04        0
       0        0        0

1.036509e+06 6.038397e+04        0
6.038397e+04 -1.773248e+04        0
       0        0        0

7.358366e+05 8.936690e+04        0
8.936690e+04 -1.821900e+04        0
       0        0        0

4.348553e+05 1.091373e+05        0
1.091373e+05 -1.823100e+04        0
       0        0        0

1.334252e+05 1.191905e+05        0
1.191905e+05 -1.773189e+04        0
       0        0        0

-1.681176e+05 1.191673e+05        0
1.191673e+05 -1.700216e+04        0
       0        0        0

-4.692481e+05 1.090735e+05        0
1.090735e+05 -1.643947e+04        0
       0        0        0

-7.696270e+05 8.928005e+04        0
8.928005e+04 -1.631994e+04        0
       0        0        0

-1.069387e+06 6.030200e+04        0
6.030200e+04 -1.659836e+04        0
       0        0        0

-1.369152e+06 2.241424e+04        0
2.241424e+04 -1.688022e+04        0
       0        0        0

1.290920e+06 2.264965e+04        0
2.264965e+04 -2.096357e+04        0
       0        0        0

9.992404e+05 6.074200e+04        0
6.074200e+04 -2.122254e+04        0
       0        0        0

7.078230e+05 8.952497e+04        0
8.952497e+04 -2.145427e+04        0
       0        0        0

4.163673e+05 1.089172e+05        0
1.089172e+05 -2.146277e+04        0
       0        0        0

1.247782e+05 1.186903e+05        0
1.186903e+05 -2.121546e+04        0
       0        0        0

-1.668064e+05 1.186679e+05        0
1.186679e+05 -2.085175e+04        0
       0        0        0

-4.581510e+05 1.088556e+05        0
1.088556e+05 -2.058082e+04        0
       0        0        0

-7.491150e+05 8.944069e+04        0
8.944069e+04 -2.053884e+04        0
       0        0        0

-1.039788e+06 6.066212e+04        0
6.066212e+04 -2.068707e+04        0
       0        0        0

-1.330461e+06 2.261181e+04        0
2.261181e+04 -2.082138e+04        0
       0        0        0

1.243903e+06 2.273130e+04        0
2.273130e+04 -2.501746e+04        0
       0        0        0

9.617710e+05 6.090558e+04        0
6.090558e+04 -2.507732e+04        0
       0        0        0

6.798225e+05 8.960602e+04        0
8.960602e+04 -2.514211e+04        0
       0        0        0

3.979269e+05 1.088194e+05        0
1.088194e+05 -2.512210e+04        0
       0        0        0

1.160297e+05 1.184537e+05        0
1.184537e+05 -2.499676e+04        0
       0        0        0

-1.658201e+05 1.184321e+05        0
1.184321e+05 -2.482997e+04        0
       0        0        0

-4.475271e+05 1.087598e+05        0
1.087598e+05 -2.472091e+04        0
       0        0        0

-7.290398e+05 8.952441e+04        0
8.952441e+04 -2.473083e+04        0
       0        0        0

-1.010408e+06 6.082810e+04        0
6.082810e+04 -2.483417e+04        0
       0        0        0

-1.291755e+06 2.269455e+04        0
2.269455e+04 -2.493438e+04        0
       0        0        0

1.196620e+06 2.276090e+04        0
2.276090e+04 -2.926425e+04        0
       0        0        0

9.241211e+05 6.097266e+04        0
6.097266e+04 -2.919146e+04        0
       0        0        0

6.517411e+05 8.964294e+04        0
8.964294e+04 -2.914463e+04        0
       0        0        0

3.794283e+05 1.087793e+05        0
1.087793e+05 -2.908757e+04        0
       0        0        0

1.071539e+05 1.183513e+05        0
1.183513e+05 -2.900994e+04        0
       0        0        0

-1.650685e+05 1.183304e+05        0
1.183304e+05 -2.893854e+04        0
       0        0        0

-4.372055e+05 1.087218e+05        0
1.087218e+05 -2.891625e+04        0
       0        0        0

-7.092415e+05 8.956405e+04        0
8.956405e+04 -2.896753e+04        0
       0        0        0

-9.812003e+05 6.089771e+04        0
6.089771e+04 -2.907747e+04        0
       0        0        0

-1.253127e+06 2.272535e+04        0
2.272535e+04 -2.920338e+04        0
       0        0        0

1.149162e+06 2.276914e+04        0
2.276914e+04 -3.366205e+04        0
       0        0        0

8.863214e+05 6.099605e+04        0
6.099605e+04 -3.349083e+04        0
       0        0        0

6.235512e+05 8.965730e+04        0
8.965730e+04 -3.336310e+04        0
       0        0        0

3.608328e+05 1.087641e+05        0
1.087641e+05 -3.326735e+04        0
       0        0        0

9.815208e+04 1.183110e+05        0
1.183110e+05 -3.319956e+04        0
       0        0        0

-1.644902e+05 1.182909e+05        0
1.182909e+05 -3.317010e+04        0
       0        0        0

-4.270848e+05 1.087086e+05        0
1.087086e+05 -3.319554e+04        0
       0        0        0

-6.896287e+05 8.958116e+04        0
8.958116e+04 -3.328398e+04        0
       0        0        0

-9.521316e+05 6.092370e+04        0
6.092370e+04 -3.342700e+04        0
       0        0        0

-1.214606e+06 2.273483e+04        0
2.273483e+04 -3.360653e+04        0
       0        0        0

1.101584e+06 2.276969e+04        0
2.276969e+04 -3.817539e+04        0
       0        0        0

8.484042e+05 6.100150e+04        0
6.100150e+04 -3.792264e+04        0
       0        0        0

5.952578e+05 8.966113e+04        0
8.966113e+04 -3.773007e+04        0
       0        0        0

3.421389e+05 1.087585e+05        0
1.087585e+05 -3.759644e+04        0
       0        0        0

8.904030e+04 1.182967e+05        0
1.182967e+05 -3.752121e+04        0
       0        0        0

-1.640403e+05 1.182773e+05        0
1.182773e+05 -3.750815e+04        0
       0        0        0

-4.171021e+05 1.087050e+05        0
1.087050e+05 -3.756268e+04        0
       0        0        0

-6.701453e+05 8.958776e+04        0
8.958776e+04 -3.768635e+04        0
       0        0        0

-9.231725e+05 6.093177e+04        0
6.093177e+04 -3.787419e+04        0
       0        0        0

-1.176183e+06 2.273662e+04        0
2.273662e+04 -3.811835e+04        0
       0        0        0

1.053925e+06 2.276804e+04        0
2.276804e+04 -4.277265e+04        0
       0        0        0

8.104009e+05 6.100046e+04        0
6.100046e+04 -4.244690e+04        0
       0        0        0

5.668809e+05 8.966046e+04        0
8.966046e+04 -4.219777e+04        0
       0        0        0

3.233625e+05 1.087558e+05        0
1.087558e+05 -4.202783e+04        0
       0        0        0

7.984192e+04 1.182921e+05        0
1.182921e+05 -4.193823e+04        0
       0        0        0

-1.636835e+05 1.182734e+05        0
1.182734e+05 -4.193046e+04        0
       0        0        0

-4.072148e+05 1.087044e+05        0
1.087044e+05 -4.200579e+04        0
       0        0        0

-6.507524e+05 8.958986e+04        0
8.958986e+04 -4.216346e+04        0
       0        0        0

-8.942956e+05 6.093337e+04        0
6.093337e+04 -4.240017e+04        0
       0        0        0

-1.137840e+06 2.273622e+04        0
2.273622e+04 -4.271181e+04        0
       0        0        0

1.006215e+06 2.276610e+04        0
2.276610e+04 -4.742465e+04        0
       0        0        0

7.723411e+05 6.099754e+04        0
6.099754e+04 -4.703069e+04        0
       0        0        0

5.384457e+05 8.965803e+04        0
8.965803e+04 -4.672957e+04        0
       0        0        0

3.045271e+05 1.087537e+05        0
1.087537e+05 -4.652498e+04        0
       0        0        0

7.058297e+04 1.182902e+05        0
1.182902e+05 -4.641885e+04        0
       0        0        0

-1.633888e+05 1.182723e+05        0
1.182723e+05 -4.641209e+04        0
       0        0        0

-3.973894e+05 1.087043e+05        0
1.087043e+05 -4.650466e+04        0
       0        0        0

-6.314184e+05 8.959019e+04        0
8.959019e+04 -4.669522e+04        0
       0        0        0

-8.654739e+05 6.093308e+04        0
6.093308e+04 -4.698122e+04        0
       0        0        0

-1.099551e+06 2.273553e+04        0
2.273553e+04 -4.735961e+04        0
       0        0        0

9.584826e+05 2.276437e+04        0
2.276437e+04 -5.210382e+04        0
       0        0        0

7.342529e+05 6.099432e+04        0
6.099432e+04 -5.164499e+04        0
       0        0        0

5.099789e+05 8.965495e+04        0
8.965495e+04 -5.129481e+04        0
       0        0        0

2.856586e+05 1.087514e+05        0
1.087514e+05 -5.105719e+04        0
       0        0        0

6.128995e+04 1.182886e+05        0
1.182886e+05 -5.093436e+04        0
       0        0        0

-1.631285e+05 1.182714e+05        0
1.182714e+05 -5.092722e+04        0
       0        0        0

-3.875973e+05 1.087040e+05        0
1.087040e+05 -5.103549e+04        0
       0        0        0

-6.121156e+05 8.958989e+04        0
8.958989e+04 -5.125781e+04        0
       0        0        0

-8.366810e+05 6.093250e+04        0
6.093250e+04 -5.159191e+04        0
       0        0        0

-1.061289e+06 2.273505e+04        0
2.273505e+04 -5.203493e+04        0
       0        0        0

9.107531e+05 2.276288e+04        0
2.276288e+04 -5.678394e+04        0
       0        0        0

6.961628e+05 6.099122e+04        0
6.099122e+04 -5.626306e+04        0
       0        0        0

4.815069e+05 8.965165e+04        0
8.965165e+04 -5.586614e+04        0
       0        0        0

2.667828e+05 1.087486e+05        0
1.087486e+05 -5.559701e+04        0
       0        0        0

5.198889e+04 1.182867e+05        0
1.182867e+05 -5.545804e+04        0
       0        0        0

-1.628760e+05 1.182702e+05        0
1.182702e+05 -5.545024e+04        0
       0        0        0

-3.778121e+05 1.087032e+05        0
1.087032e+05 -5.557340e+04        0
       0        0        0

-5.928181e+05 8.958936e+04        0
8.958936e+04 -5.582628e+04        0
       0        0        0

-8.078912e+05 6.093203e+04        0
6.093203e+04 -5.620673e+04        0
       0        0        0

-1.023027e+06 2.273481e+04        0
2.273481e+04 -5.671177e+04        0
       0        0        0

8.630515e+05 2.276155e+04        0
2.276155e+04 -6.143994e+04        0
       0        0        0

6.580962e+05 6.098826e+04        0
6.098826e+04 -6.085969e+04        0
       0        0        0

4.530550e+05 8.964823e+04        0
8.964823e+04 -6.041814e+04        0
       0        0        0

2.479251e+05 1.087455e+05        0
1.087455e+05 -6.011899e+04        0
       0        0        0

4.270489e+04 1.182843e+05        0
1.182843e+05 -5.996466e+04        0
       0        0        0

-1.626065e+05 1.182686e+05        0
1.182686e+05 -5.995626e+04        0
       0        0        0

-3.680089e+05 1.087022e+05        0
1.087022e+05 -6.009373e+04        0
       0        0        0

-5.735009e+05 8.958871e+04        0
8.958871e+04 -6.037594e+04        0
       0        0        0

-7.790798e+05 6.093170e+04        0
6.093170e+04 -6.080076e+04        0
       0        0        0

-9.847412e+05 2.273473e+04        0
2.273473e+04 -6.136511e+04        0
       0        0        0

8.154017e+05 2.276030e+04        0
2.276030e+04 -6.604785e+04        0
       0        0        0

6.200771e+05 6.098537e+04        0
6.098537e+04 -6.541094e+04        0
       0        0        0

4.246474e+05 8.964471e+04        0
8.964471e+04 -6.492681e+04        0
       0        0        0

2.291095e+05 1.087421e+05        0
1.087421e+05 -6.459909e+04        0
       0        0        0

3.346200e+04 1.182814e+05        0
1.182814e+05 -6.443019e+04        0
       0        0        0

-1.622960e+05 1.182664e+05        0
1.182664e+05 -6.442134e+04        0
       0        0        0

-3.581640e+05 1.087008e+05        0
1.087008e+05 -6.457258e+04        0
       0        0        0

-5.541406e+05 8.958796e+04        0
8.958796e+04 -6.488285e+04        0
       0        0        0

-7.502228e+05 6.093144e+04        0
6.093144e+04 -6.535005e+04        0
       0        0        0

-9.464066e+05 2.273473e+04        0
2.273473e+04 -6.597100e+04        0
       0        0        0

7.678266e+05 2.275908e+04        0
2.275908e+04 -7.058481e+04        0
       0        0        0

5.821286e+05 6.098248e+04        0
6.098248e+04 -6.989397e+04        0
       0        0        0

3.963071e+05 8.964109e+04        0
8.964109e+04 -6.936932e+04        0
       0        0        0

2.103592e+05 1.087385e+05        0
1.087385e+05 -6.901445e+04        0
       0        0        0

2.428314e+04 1.182782e+05        0
1.182782e+05 -6.883179e+04        0
       0        0        0

-1.619217e+05 1.182640e+05        0
1.182640e+05 -6.882260e+04        0
       0        0        0

-3.482547e+05 1.086991e+05        0
1.086991e+05 -6.898704e+04        0
       0        0        0

-5.347142e+05 8.958711e+04        0
8.958711e+04 -6.932410e+04        0
       0        0        0

-7.212975e+05 6.093119e+04        0
6.093119e+04 -6.983168e+04        0
       0        0        0

-9.080006e+05 2.273476e+04        0
2.273476e+04 -7.050656e+04        0
       0        0        0

7.203478e+05 2.275786e+04        0
2.275786e+04 -7.502905e+04        0
       0        0        0

5.442725e+05 6.097957e+04        0
6.097957e+04 -7.428702e+04        0
       0        0        0

3.680562e+05 8.963734e+04        0
8.963734e+04 -7.372394e+04        0
       0        0        0

1.916960e+05 1.087346e+05        0
1.087346e+05 -7.334335e+04        0
       0        0        0

1.519015e+04 1.182747e+05        0
1.182747e+05 -7.314767e+04        0
       0        0        0

-1.614618e+05 1.182612e+05        0
1.182612e+05 -7.313823e+04        0
       0        0        0

-3.382592e+05 1.086973e+05        0
1.086973e+05 -7.331526e+04        0
       0        0        0

-5.152003e+05 8.958613e+04        0
8.958613e+04 -7.367783e+04        0
       0        0        0

-6.922823e+05 6.093091e+04        0
6.093091e+04 -7.422383e+04        0
       0        0        0

-8.695012e+05 2.273479e+04        0
2.273479e+04 -7.494999e+04        0
       0        0        0

6.729863e+05 2.275665e+04        0
2.275665e+04 -7.935986e+04        0
       0        0        0

5.065296e+05 6.097663e+04        0
6.097663e+04 -7.856945e+04        0
       0        0        0

3.399154e+05 8.963346e+04        0
8.963346e+04 -7.797005e+04        0
       0        0        0

1.731407e+05 1.087304e+05        0
1.087304e+05 -7.756514e+04        0
       0        0        0

6.203776e+03 1.182709e+05        0
1.182709e+05 -7.735717e+04        0
       0        0        0

-1.608957e+05 1.182581e+05        0
1.182581e+05 -7.734752e+04        0
       0        0        0

-3.281569e+05 1.086952e+05        0
1.086952e+05 -7.753652e+04        0
       0        0        0

-4.955781e+05 8.958502e+04        0
8.958502e+04 -7.792329e+04        0
       0        0        0

-6.631564e+05 6.093060e+04        0
6.093060e+04 -7.850576e+04        0
       0        0        0

-8.308880e+05 2.273483e+04        0
2.273483e+04 -7.928060e+04        0
       0        0        0

6.257614e+05 2.275548e+04        0
2.275548e+04 -8.355766e+04        0
       0        0        0

4.689195e+05 6.097370e+04        0
6.097370e+04 -8.272169e+04        0
       0        0        0

3.119044e+05 8.962947e+04        0
8.962947e+04 -8.208810e+04        0
       0        0        0

1.547130e+05 1.087260e+05        0
1.087260e+05 -8.166028e+04        0
       0        0        0

-2.656343e+03 1.182667e+05        0
1.182667e+05 -8.144070e+04        0
       0        0        0

-1.602038e+05 1.182546e+05        0
1.182546e+05 -8.143085e+04        0
       0        0        0

-3.179285e+05 1.086928e+05        0
1.086928e+05 -8.163115e+04        0
       0        0        0

-4.758283e+05 8.958380e+04        0
8.958380e+04 -8.204082e+04        0
       0        0        0

-6.339004e+05 6.093030e+04        0
6.093030e+04 -8.265783e+04        0
       0        0        0

-7.921411e+05 2.273490e+04        0
2.273490e+04 -8.347877e+04        0
       0        0        0

5.786918e+05 2.275439e+04        0
2.275439e+04 -8.760396e+04        0
       0        0        0

4.314609e+05 6.097083e+04        0
6.097083e+04 -8.672526e+04        0
       0        0        0

2.840419e+05 8.962535e+04        0
8.962535e+04 -8.605958e+04        0
       0        0        0

1.364316e+05 1.087213e+05        0
1.087213e+05 -8.561023e+04        0
       0        0        0

-1.137164e+04 1.182621e+05        0
1.182621e+05 -8.537974e+04        0
       0        0        0

-1.593678e+05 1.182507e+05        0
1.182507e+05 -8.536971e+04        0
       0        0        0

-3.075555e+05 1.086901e+05        0
1.086901e+05 -8.558065e+04        0
       0        0        0

-4.559325e+05 8.958245e+04        0
8.958245e+04 -8.601191e+04        0
       0        0        0

-6.044959e+05 6.093007e+04        0
6.093007e+04 -8.666150e+04        0
       0        0        0

-7.532422e+05 2.273506e+04        0
2.273506e+04 -8.752596e+04        0
       0        0        0

5.317945e+05 2.275346e+04        0
2.275346e+04 -9.148131e+04        0
       0        0        0

3.941713e+05 6.096805e+04        0
6.096805e+04 -9.056268e+04        0
       0        0        0

2.563457e+05 8.962105e+04        0
8.962105e+04 -8.986693e+04        0
       0        0        0

1.183141e+05 1.087162e+05        0
1.087162e+05 -8.939741e+04        0
       0        0        0

-1.992466e+04 1.182570e+05        0
1.182570e+05 -8.915681e+04        0
       0        0        0

-1.583702e+05 1.182464e+05        0
1.182464e+05 -8.914678e+04        0
       0        0        0

-2.970207e+05 1.086870e+05        0
1.086870e+05 -8.936780e+04        0
       0        0        0

-4.358736e+05 8.958093e+04        0
8.958093e+04 -8.981925e+04        0
       0        0        0

-5.749256e+05 6.092991e+04        0
6.092991e+04 -9.049937e+04        0
       0        0        0

-7.141735e+05 2.273538e+04        0
2.273538e+04 -9.140475e+04        0
       0        0        0

4.850860e+05 2.275272e+04        0
2.275272e+04 -9.517332e+04        0
       0        0        0

3.570674e+05 6.096517e+04        0
6.096517e+04 -9.421731e+04        0
       0        0        0

2.288321e+05 8.961636e+04        0
8.961636e+04 -9.349319e+04        0
       0        0        0

1.003767e+05 1.087108e+05        0
1.087108e+05 -9.300481e+04        0
       0        0        0

-2.829913e+04 1.182518e+05        0
1.182518e+05 -9.275529e+04        0
       0        0        0

-1.571946e+05 1.182420e+05        0
1.182420e+05 -9.274604e+04        0
       0        0        0

-2.863077e+05 1.086836e+05        0
1.086836e+05 -9.297694e+04        0
       0        0        0

-4.156353e+05 8.957900e+04        0
8.957900e+04 -9.344716e+04        0
       0        0        0

-5.451734e+05 6.092967e+04        0
6.092967e+04 -9.415539e+04        0
       0        0        0

-6.749186e+05 2.273588e+04        0
2.273588e+04 -9.509880e+04        0
       0        0        0

4.385816e+05 2.275194e+04        0
2.275194e+04 -9.866453e+04        0
       0        0        0

3.201650e+05 6.096139e+04        0
6.096139e+04 -9.767292e+04        0
       0        0        0

2.015163e+05 8.961064e+04        0
8.961064e+04 -9.692125e+04        0
       0        0        0

8.263412e+04 1.087054e+05        0
1.087054e+05 -9.641529e+04        0
       0        0        0

-3.648021e+04 1.182479e+05        0
1.182479e+05 -9.615915e+04        0
       0        0        0

-1.558255e+05 1.182387e+05        0
1.182387e+05 -9.615309e+04        0
       0        0        0

-2.754006e+05 1.086802e+05        0
1.086802e+05 -9.639478e+04        0
       0        0        0

-3.952022e+05 8.957605e+04        0
8.957605e+04 -9.688226e+04        0
       0        0        0

-5.152245e+05 6.092852e+04        0
6.092852e+04 -9.761525e+04        0
       0        0        0

-6.354623e+05 2.273635e+04        0
2.273635e+04 -9.859298e+04        0
       0        0        0

3.922967e+05 2.275016e+04        0
2.275016e+04 -1.019401e+05        0
       0        0        0

2.834791e+05 6.095417e+04        0
6.095417e+04 -1.009127e+05        0
       0        0        0

1.744110e+05 8.960230e+04        0
8.960230e+04 -1.001322e+05        0
       0        0        0

6.509773e+04 1.087014e+05        0
1.087014e+05 -9.961001e+04        0
       0        0        0

-4.445504e+04 1.182488e+05        0
1.182488e+05 -9.935231e+04        0
       0        0        0

-1.542476e+05 1.182404e+05        0
1.182404e+05 -9.935583e+04        0
       0        0        0

-2.642829e+05 1.086782e+05        0
1.086782e+05 -9.961198e+04        0
       0        0        0

-3.745589e+05 8.957048e+04        0
8.957048e+04 -1.001152e+05        0
       0        0        0

-4.850656e+05 6.092394e+04        0
6.092394e+04 -1.008673e+05        0
       0        0        0

-5.957914e+05 2.273582e+04        0
2.273582e+04 -1.018735e+05        0
       0        0        0

3.462495e+05 2.274436e+04        0
2.274436e+04 -1.049856e+05        0
       0        0        0

2.470241e+05 6.093696e+04        0
6.093696e+04 -1.039175e+05        0
       0        0        0

1.475239e+05 8.958774e+04        0
8.958774e+04 -1.031023e+05        0
       0        0        0

4.777304e+04 1.087024e+05        0
1.087024e+05 -1.025654e+05        0
       0        0        0

-5.221411e+04 1.182643e+05        0
1.182643e+05 -1.023174e+05        0
       0        0        0

-1.524443e+05 1.182566e+05        0
1.182566e+05 -1.023456e+05        0
       0        0        0

-2.529339e+05 1.086813e+05        0
1.086813e+05 -1.026261e+05        0
       0        0        0

-3.536871e+05 8.955869e+04        0
8.955869e+04 -1.031439e+05        0
       0        0        0

-4.546850e+05 6.090936e+04        0
6.090936e+04 -1.039048e+05        0
       0        0        0

-5.558976e+05 2.273127e+04        0
2.273127e+04 -1.049284e+05        0
       0        0        0

3.004658e+05 2.272668e+04        0
2.272668e+04 -1.077856e+05        0
       0        0        0

2.108132e+05 6.089447e+04        0
6.089447e+04 -1.066619e+05        0
       0        0        0

1.208524e+05 8.955954e+04        0
8.955954e+04 -1.057970e+05        0
       0        0        0

3.065315e+04 1.087174e+05        0
1.087174e+05 -1.052483e+05        0
       0        0        0

-5.975385e+04 1.183157e+05        0
1.183157e+05 -1.050338e+05        0
       0        0        0

-1.503955e+05 1.183088e+05        0
1.183088e+05 -1.051193e+05        0
       0        0        0

-2.413233e+05 1.086983e+05        0
1.086983e+05 -1.054469e+05        0
       0        0        0

-3.325608e+05 8.953326e+04        0
8.953326e+04 -1.059794e+05        0
       0        0        0

-4.240723e+05 6.086951e+04        0
6.086951e+04 -1.067292e+05        0
       0        0        0

-5.157821e+05 2.271485e+04        0
2.271485e+04 -1.077483e+05        0
       0        0        0

2.549908e+05 2.267892e+04        0
2.267892e+04 -1.103230e+05        0
       0        0        0

1.748570e+05 6.079436e+04        0
6.079436e+04 -1.091093e+05        0
       0        0        0

9.437173e+04 8.950384e+04        0
8.950384e+04 -1.081633e+05        0
       0        0        0

1.370666e+04 1.087663e+05        0
1.087663e+05 -1.076090e+05        0
       0        0        0

-6.708158e+04 1.184478e+05        0
1.184478e+05 -1.074749e+05        0
       0        0        0

-1.480718e+05 1.184416e+05        0
1.184416e+05 -1.076815e+05        0
       0        0        0

-2.293983e+05 1.087492e+05        0
1.087492e+05 -1.081028e+05        0
       0        0        0

-3.111349e+05 8.948033e+04        0
8.948033e+04 -1.086543e+05        0
       0        0        0

-3.932174e+05 6.077206e+04        0
6.077206e+04 -1.093569e+05        0
       0        0        0

-4.754679e+05 2.266835e+04        0
2.266835e+04 -1.103284e+05        0
       0        0        0

2.099105e+05 2.256239e+04        0
2.256239e+04 -1.125770e+05        0
       0        0        0

1.391570e+05 6.057436e+04        0
6.057436e+04 -1.112045e+05        0
       0        0        0

6.801347e+04 8.939817e+04        0
8.939817e+04 -1.101214e+05        0
       0        0        0

-3.142788e+03 1.088893e+05        0
1.088893e+05 -1.095759e+05        0
       0        0        0

-7.422315e+04 1.187437e+05        0
1.187437e+05 -1.096061e+05        0
       0        0        0

-1.454266e+05 1.187381e+05        0
1.187381e+05 -1.100460e+05        0
       0        0        0

-2.170638e+05 1.088741e+05        0
1.088741e+05 -1.106462e+05        0
       0        0        0

-2.893244e+05 8.937744e+04        0
8.937744e+04 -1.112316e+05        0
       0        0        0

-3.621062e+05 6.055474e+04        0
6.055474e+04 -1.118270e+05        0
       0        0        0

-4.350228e+05 2.255310e+04        0
2.255310e+04 -1.126711e+05        0
       0        0        0

1.653889e+05 2.230207e+04        0
2.230207e+04 -1.145226e+05        0
       0        0        0

1.036905e+05 6.012812e+04        0
6.012812e+04 -1.128718e+05        0
       0        0        0

4.162921e+04 8.921476e+04        0
8.921476e+04 -1.115702e+05        0
       0        0        0

-2.004437e+04 1.091598e+05        0
1.091598e+05 -1.110670e+05        0
       0        0        0

-8.123198e+04 1.193390e+05        0
1.193390e+05 -1.113903e+05        0
       0        0        0

-1.423849e+05 1.193342e+05        0
1.193342e+05 -1.122283e+05        0
       0        0        0

-2.041530e+05 1.091466e+05        0
1.091466e+05 -1.131419e+05        0
       0        0        0

-2.669693e+05 8.919682e+04        0
8.919682e+04 -1.138014e+05        0
       0        0        0

-3.307085e+05 6.011121e+04        0
6.011121e+04 -1.142081e+05        0
       0        0        0

-3.946001e+05 2.229410e+04        0
2.229410e+04 -1.147910e+05        0
       0        0        0

1.217196e+05 2.176688e+04        0
2.176688e+04 -1.161344e+05        0
       0        0        0

6.837206e+04 5.930644e+04        0
5.930644e+04 -1.140367e+05        0
       0        0        0

1.494321e+04 8.894400e+04        0
8.894400e+04 -1.124428e+05        0
       0        0        0

-3.724035e+04 1.096944e+05        0
1.096944e+05 -1.120567e+05        0
       0        0        0

-8.819028e+04 1.204069e+05        0
1.204069e+05 -1.128162e+05        0
       0        0        0

-1.388379e+05 1.204029e+05        0
1.204029e+05 -1.142132e+05        0
       0        0        0

-1.904056e+05 1.096833e+05        0
1.096833e+05 -1.155972e+05        0
       0        0        0

-2.437899e+05 8.892889e+04        0
8.892889e+04 -1.164260e+05        0
       0        0        0

-2.989467e+05 5.929229e+04        0
5.929229e+04 -1.165822e+05        0
       0        0        0

-3.545006e+05 2.176026e+04        0
2.176026e+04 -1.167207e+05        0
       0        0        0

7.936683e+04 2.076251e+04        0
2.076251e+04 -1.174173e+05        0
       0        0        0

3.297000e+04 5.798986e+04        0
5.798986e+04 -1.147259e+05        0
       0        0        0

-1.247658e+04 8.867340e+04        0
8.867340e+04 -1.129239e+05        0
       0        0        0

-5.501968e+04 1.106292e+05        0
1.106292e+05 -1.127915e+05        0
       0        0        0

-9.517635e+04 1.220379e+05        0
1.220379e+05 -1.139871e+05        0
       0        0        0

-1.346671e+05 1.220346e+05        0
1.220346e+05 -1.158570e+05        0
       0        0        0

-1.755077e+05 1.106202e+05        0
1.106202e+05 -1.177408e+05        0
       0        0        0

-2.193579e+05 8.866120e+04        0
8.866120e+04 -1.189247e+05        0
       0        0        0

-2.666250e+05 5.797851e+04        0
5.797851e+04 -1.189586e+05        0
       0        0        0

-3.152371e+05 2.075729e+04        0
2.075729e+04 -1.185039e+05        0
       0        0        0

3.889682e+04 1.910681e+04        0
1.910681e+04 -1.184668e+05        0
       0        0        0

-3.063356e+03 5.639249e+04        0
5.639249e+04 -1.154751e+05        0
       0        0        0

-4.109108e+04 8.875989e+04        0
8.875989e+04 -1.140522e+05        0
       0        0        0

-7.346668e+04 1.119651e+05        0
1.119651e+05 -1.143337e+05        0
       0        0        0

-1.021332e+05 1.238416e+05        0
1.238416e+05 -1.153172e+05        0
       0        0        0

-1.298603e+05 1.238392e+05        0
1.238392e+05 -1.166767e+05        0
       0        0        0

-1.593301e+05 1.119586e+05        0
1.119586e+05 -1.184656e+05        0
       0        0        0

-1.932190e+05 8.875081e+04        0
8.875081e+04 -1.202655e+05        0
       0        0        0

-2.332769e+05 5.638394e+04        0
5.638394e+04 -1.208826e+05        0
       0        0        0

-2.775156e+05 1.910296e+04        0
1.910296e+04 -1.201847e+05        0
       0        0        0

3.958453e+02 1.710541e+04        0
1.710541e+04 -1.201047e+05        0
       0        0        0

-4.068366e+04 5.593072e+04        0
5.593072e+04 -1.184594e+05        0
       0        0        0

-7.076734e+04 9.002601e+04        0
9.002601e+04 -1.193971e+05        0
       0        0        0

-9.172946e+04 1.129164e+05        0
1.129164e+05 -1.194798e+05        0
       0        0        0

-1.086096e+05 1.240589e+05        0
1.240589e+05 -1.177538e+05        0
       0        0        0

-1.247487e+05 1.240578e+05        0
1.240578e+05 -1.156046e+05        0
       0        0        0

-1.426329e+05 1.129130e+05        0
1.129130e+05 -1.148835e+05        0
       0        0        0

-1.654906e+05 9.002063e+04        0
9.002063e+04 -1.168639e+05        0
       0        0        0

-1.980814e+05 5.592499e+04        0
5.592499e+04 -1.203140e+05        0
       0        0        0

-2.417553e+05 1.710280e+04        0
1.710280e+04 -1.212742e+05        0
       0        0        0

-3.852028e+04 1.780185e+04        0
1.780185e+04 -1.242918e+05        0
       0        0        0

-8.069441e+04 6.133889e+04        0
6.133889e+04 -1.330559e+05        0
       0        0        0

-9.836332e+04 9.242227e+04        0
9.242227e+04 -1.377864e+05        0
       0        0        0

-1.070599e+05 1.101625e+05        0
1.101625e+05 -1.331600e+05        0
       0        0        0

-1.136214e+05 1.182813e+05        0
1.182813e+05 -1.227988e+05        0
       0        0        0

-1.201184e+05 1.182817e+05        0
1.182817e+05 -1.109411e+05        0
       0        0        0

-1.279828e+05 1.101632e+05        0
1.101632e+05 -1.018825e+05        0
       0        0        0

-1.392056e+05 9.242207e+04        0
9.242207e+04 -9.978254e+04        0
       0        0        0

-1.603555e+05 6.133670e+04        0
6.133670e+04 -1.079960e+05        0
       0        0        0

-2.062122e+05 1.780004e+04        0
1.780004e+04 -1.204502e+05        0
       0        0        0

-9.054809e+04 4.054604e+04        0
4.054604e+04 -1.564223e+05        0
       0        0        0

-1.139758e+05 7.593595e+04        0
7.593595e+04 -1.859946e+05        0
       0        0        0

-1.152041e+05 8.920610e+04        0
8.920610e+04 -1.818739e+05        0
       0        0        0

-1.155189e+05 9.571655e+04        0
9.571655e+04 -1.609770e+05        0
       0        0        0

-1.158802e+05 9.856706e+04        0
9.856706e+04 -1.319249e+05        0
       0        0        0

-1.169683e+05 9.856895e+04        0
9.856895e+04 -1.009233e+05        0
       0        0        0

-1.189984e+05 9.572172e+04        0
9.572172e+04 -7.353778e+04        0
       0        0        0

-1.226948e+05 8.921290e+04        0
8.921290e+04 -5.601953e+04        0
       0        0        0

-1.290421e+05 7.594157e+04        0
7.594157e+04 -5.701734e+04        0
       0        0        0

-1.587896e+05 4.054582e+04        0
4.054582e+04 -9.291550e+04        0
       0        0        0

POINT_DATA     451
VECTORS DISPLACEMENT_3.000000e-01 double
0.000000e+00    0.000000e+00    0.000000e+00
0.000000e+00    0.000000e+00    0.000000e+00
0.000000e+00    0.000000e+00    0.000000e+00
0.000000e+00    0.000000e+00    0.000000e+00
0.000000e+00    0.000000e+00    0.000000e+00
0.000000e+00    0.000000e+00    0.000000e+00
0.000000e+00    0.000000e+00    0.000000e+00
0.000000e+00    0.000000e+00    0.000000e+00
0.000000e+00    0.000000e+00    0.000000e+00
0.000000e+00    0.000000e+00    0.000000e+00
0.000000e+00    0.000000e+00    0.000000e+00
-1.140015e-06    -8.287738e-07    0.000000e+00
-7.223654e-07    -4.156863e-07    0.000000e+00
-5.154225e-07    -2.153675e-07    0.000000e+00
-3.327793e-07    -1.066135e-07    0.000000e+00
-1.640681e-07    -5.032750e-08    0.000000e+00
-3.364670e-20    -3.282676e-08    0.000000e+00
1.640681e-07    -5.032750e-08    0.000000e+00
3.327793e-07    -1.066135e-07    0.000000e+00
5.154225e-07    -2.153675e-07    0.000000e+00
7.223654e-07    -4.156863e-07    0.000000e+00
1.140015e-06    -8.287738e-07    0.000000e+00
-2.150984e-06    -1.378312e-06    0.000000e+00
-1.572308e-06    -9.972816e-07    0.000000e+00
-1.103615e-06    -7.004632e-07    0.000000e+00
-7.118821e-07    -5.168564e-07    0.000000e+00
-3.496387e-07    -4.168097e-07    0.000000e+00
-7.108542e-20    -3.850311e-07    0.000000e+00
3.496387e-07    -4.168097e-07    0.000000e+00
7.118821e-07    -5.168564e-07    0.000000e+00
1.103615e-06    -7.004632e-07    0.000000e+00
1.572308e-06    -9.972816e-07    0.000000e+00
2.150984e-06    -1.378312e-06    0.000000e+00
-3.128162e-06    -2.061645e-06    0.000000e+00
-2.390946e-06    -1.679776e-06    0.000000e+00
-1.720404e-06    -1.378678e-06    0.000000e+00
-1.113761e-06    -1.166292e-06    0.000000e+00
-5.480238e-07    -1.043876e-06    0.000000e+00
-1.118844e-19    -1.004000e-06    0.000000e+00
5.480238e-07    -1.043876e-06    0.000000e+00
1.113761e-06    -1.166292e-06    0.000000e+00
1.720404e-06    -1.378678e-06    0.000000e+00
2.390946e-06    -1.679776e-06    0.000000e+00
3.128162e-06    -2.061645e-06    0.000000e+00
-4.094534e-06    -2.904980e-06    0.000000e+00
-3.182608e-06    -2.531820e-06    0.000000e+00
-2.323865e-06    -2.235739e-06    0.000000e+00
-1.517399e-06    -2.022070e-06    0.000000e+00
-7.490667e-07    -1.893816e-06    0.000000e+00
-1.544975e-19    -1.851288e-06    0.000000e+00
7.490667e-07    -1.893816e-06    0.000000e+00
1.517399e-06    -2.022070e-06    0.000000e+00
2.323865e-06    -2.235739e-06    0.000000e+00
3.182608e-06    -2.531820e-06    0.000000e+00
4.094534e-06    -2.904980e-06    0.000000e+00
-5.044558e-06    -3.931020e-06    0.000000e+00
-3.951206e-06    -3.566564e-06    0.000000e+00
-2.908130e-06    -3.279419e-06    0.000000e+00
-1.910344e-06    -3.071371e-06    0.000000e+00
-9.463042e-07    -2.945422e-06    0.000000e+00
-1.981395e-19    -2.903263e-06    0.000000e+00
9.463042e-07    -2.945422e-06    0.000000e+00
1.910344e-06    -3.071371e-06    0.000000e+00
2.908130e-06    -3.279419e-06    0.000000e+00
3.951206e-06    -3.566564e-06    0.000000e+00
5.044558e-06    -3.931020e-06    0.000000e+00
-5.973893e-06    -5.142427e-06    0.000000e+00
-4.698278e-06    -4.787607e-06    0.000000e+00
-3.473155e-06    -4.509539e-06    0.000000e+00
-2.289911e-06    -4.308849e-06    0.000000e+00
-1.136993e-06    -4.187378e-06    0.000000e+00
-2.425426e-19    -4.146701e-06    0.000000e+00
1.136993e-06    -4.187378e-06    0.000000e+00
2.289911e-06    -4.308849e-06    0.000000e+00
3.473155e-06    -4.509539e-06    0.000000e+00
4.698278e-06    -4.787607e-06    0.000000e+00
5.973893e-06    -5.142427e-06    0.000000e+00
-6.879428e-06    -6.537147e-06    0.000000e+00
-5.424096e-06    -6.192360e-06    0.000000e+00
-4.020014e-06    -5.923136e-06    0.000000e+00
-2.656292e-06    -5.729620e-06    0.000000e+00
-1.320836e-06    -5.612825e-06    0.000000e+00
-2.845501e-19    -5.573758e-06    0.000000e+00
1.320836e-06    -5.612825e-06    0.000000e+00
2.656292e-06    -5.729620e-06    0.000000e+00
4.020014e-06    -5.923136e-06    0.000000e+00
5.424096e-06    -6.192360e-06    0.000000e+00
6.879428e-06    -6.537147e-06    0.000000e+00
-7.759443e-06    -8.110771e-06    0.000000e+00
-6.128569e-06    -7.776253e-06    0.000000e+00
-4.549564e-06    -7.515582e-06    0.000000e+00
-3.010305e-06    -7.328762e-06    0.000000e+00
-1.498225e-06    -7.216289e-06    0.000000e+00
-3.250489e-19    -7.178720e-06    0.000000e+00
1.498225e-06    -7.216289e-06    0.000000e+00
3.010305e-06    -7.328762e-06    0.000000e+00
4.549564e-06    -7.515582e-06    0.000000e+00
6.128569e-06    -7.776253e-06    0.000000e+00
7.759443e-06    -8.110771e-06    0.000000e+00
-8.613053e-06    -9.858115e-06    0.000000e+00
-6.811565e-06    -9.533975e-06    0.000000e+00
-5.062334e-06    -9.281660e-06    0.000000e+00
-3.352628e-06    -9.101140e-06    0.000000e+00
-1.669584e-06    -8.992639e-06    0.000000e+00
-3.673741e-19    -8.956432e-06    0.000000e+00
1.669584e-06    -8.992639e-06    0.000000e+00
3.352628e-06    -9.101140e-06    0.000000e+00
5.062334e-06    -9.281660e-06    0.000000e+00
6.811565e-06    -9.533975e-06    0.000000e+00
8.613053e-06    -9.858115e-06    0.000000e+00
-9.439840e-06    -1.177374e-05    0.000000e+00
-7.472991e-06    -1.146003e-05    0.000000e+00
-5.558609e-06    -1.121595e-05    0.000000e+00
-3.683689e-06    -1.104149e-05    0.000000e+00
-1.835207e-06    -1.093672e-05    0.000000e+00
-4.111286e-19    -1.090178e-05    0.000000e+00
1.835207e-06    -1.093672e-05    0.000000e+00
3.683689e-06    -1.104149e-05    0.000000e+00
5.558609e-06    -1.121595e-05    0.000000e+00
7.472991e-06    -1.146003e-05    0.000000e+00
9.439840e-06    -1.177374e-05    0.000000e+00
-1.023963e-05    -1.385217e-05    0.000000e+00
-8.112792e-06    -1.354890e-05    0.000000e+00
-6.038528e-06    -1.331300e-05    0.000000e+00
-4.003719e-06    -1.314445e-05    0.000000e+00
-1.995261e-06    -1.304329e-05    0.000000e+00
-4.485039e-19    -1.300956e-05    0.000000e+00
1.995261e-06    -1.304329e-05    0.000000e+00
4.003719e-06    -1.314445e-05    0.000000e+00
6.038528e-06    -1.331300e-05    0.000000e+00
8.112792e-06    -1.354890e-05    0.000000e+00
1.023963e-05    -1.385217e-05    0.000000e+00
-1.101234e-05    -1.608792e-05    0.000000e+00
-8.730938e-06    -1.579510e-05    0.000000e+00
-6.502153e-06    -1.556735e-05    0.000000e+00
-4.312831e-06    -1.540465e-05    0.000000e+00
-2.149831e-06    -1.530702e-05    0.000000e+00
-4.851911e-19    -1.527448e-05    0.000000e+00
2.149831e-06    -1.530702e-05    0.000000e+00
4.312831e-06    -1.540465e-05    0.000000e+00
6.502153e-06    -1.556735e-05    0.000000e+00
8.730938e-06    -1.579510e-05    0.000000e+00
1.101234e-05    -1.608792e-05    0.000000e+00
-1.175796e-05    -1.847553e-05    0.000000e+00
-9.327417e-06    -1.819317e-05    0.000000e+00
-6.949511e-06    -1.797355e-05    0.000000e+00
-4.611077e-06    -1.781668e-05    0.000000e+00
-2.298958e-06    -1.772255e-05    0.000000e+00
-5.274898e-19    -1.769118e-05    0.000000e+00
2.298958e-06    -1.772255e-05    0.000000e+00
4.611077e-06    -1.781668e-05    0.000000e+00
6.949511e-06    -1.797355e-05    0.000000e+00
9.327417e-06    -1.819317e-05    0.000000e+00
1.175796e-05    -1.847553e-05    0.000000e+00
-1.247648e-05    -2.100958e-05    0.000000e+00
-9.902222e-06    -2.073767e-05    0.000000e+00
-7.380610e-06    -2.052618e-05    0.000000e+00
-4.898476e-06    -2.037512e-05    0.000000e+00
-2.442659e-06    -2.028449e-05    0.000000e+00
-5.555477e-19    -2.025427e-05    0.000000e+00
2.442659e-06    -2.028449e-05    0.000000e+00
4.898476e-06    -2.037512e-05    0.000000e+00
7.380610e-06    -2.052618e-05    0.000000e+00
9.902222e-06    -2.073767e-05    0.000000e+00
1.247648e-05    -2.100958e-05    0.000000e+00
-1.316790e-05    -2.368463e-05    0.000000e+00
-1.045535e-05    -2.342317e-05    0.000000e+00
-7.795452e-06    -2.321981e-05    0.000000e+00
-5.175035e-06    -2.307456e-05    0.000000e+00
-2.580938e-06    -2.298741e-05    0.000000e+00
-5.793705e-19    -2.295836e-05    0.000000e+00
2.580938e-06    -2.298741e-05    0.000000e+00
5.175035e-06    -2.307456e-05    0.000000e+00
7.795452e-06    -2.321981e-05    0.000000e+00
1.045535e-05    -2.342317e-05    0.000000e+00
1.316790e-05    -2.368463e-05    0.000000e+00
-1.383222e-05    -2.649526e-05    0.000000e+00
-1.098680e-05    -2.624425e-05    0.000000e+00
-8.194038e-06    -2.604902e-05    0.000000e+00
-5.440757e-06    -2.590957e-05    0.000000e+00
-2.713798e-06    -2.582591e-05    0.000000e+00
-5.969465e-19    -2.579802e-05    0.000000e+00
2.713798e-06    -2.582591e-05    0.000000e+00
5.440757e-06    -2.590957e-05    0.000000e+00
8.194038e-06    -2.604902e-05    0.000000e+00
1.098680e-05    -2.624425e-05    0.000000e+00
1.383222e-05    -2.649526e-05    0.000000e+00
-1.446944e-05    -2.943604e-05    0.000000e+00
-1.149658e-05    -2.919549e-05    0.000000e+00
-8.576366e-06    -2.900839e-05    0.000000e+00
-5.695641e-06    -2.887475e-05    0.000000e+00
-2.841240e-06    -2.879456e-05    0.000000e+00
-6.002287e-19    -2.876783e-05    0.000000e+00
2.841240e-06    -2.879456e-05    0.000000e+00
5.695641e-06    -2.887475e-05    0.000000e+00
8.576366e-06    -2.900839e-05    0.000000e+00
1.149658e-05    -2.919549e-05    0.000000e+00
1.446944e-05    -2.943604e-05    0.000000e+00
-1.507956e-05    -3.250157e-05    0.000000e+00
-1.198467e-05    -3.227146e-05    0.000000e+00
-8.942435e-06    -3.209249e-05    0.000000e+00
-5.939686e-06    -3.196466e-05    0.000000e+00
-2.963262e-06    -3.188796e-05    0.000000e+00
-6.112402e-19    -3.186239e-05    0.000000e+00
2.963262e-06    -3.188796e-05    0.000000e+00
5.939686e-06    -3.196466e-05    0.000000e+00
8.942435e-06    -3.209249e-05    0.000000e+00
1.198467e-05    -3.227146e-05    0.000000e+00
1.507956e-05    -3.250157e-05    0.000000e+00
-1.566258e-05    -3.568641e-05    0.000000e+00
-1.245109e-05    -3.546675e-05    0.000000e+00
-9.292245e-06    -3.529591e-05    0.000000e+00
-6.172891e-06    -3.517389e-05    0.000000e+00
-3.079864e-06    -3.510067e-05    0.000000e+00
-6.334748e-19    -3.507627e-05    0.000000e+00
3.079864e-06    -3.510067e-05    0.000000e+00
6.172891e-06    -3.517389e-05    0.000000e+00
9.292245e-06    -3.529591e-05    0.000000e+00
1.245109e-05    -3.546675e-05    0.000000e+00
1.566258e-05    -3.568641e-05    0.000000e+00
-1.621851e-05    -3.898515e-05    0.000000e+00
-1.289582e-05    -3.877595e-05    0.000000e+00
-9.625795e-06    -3.861324e-05    0.000000e+00
-6.395257e-06    -3.849702e-05    0.000000e+00
-3.191047e-06    -3.842729e-05    0.000000e+00
-6.776264e-19    -3.840404e-05    0.000000e+00
3.191047e-06    -3.842729e-05    0.000000e+00
6.395257e-06    -3.849702e-05    0.000000e+00
9.625795e-06    -3.861324e-05    0.000000e+00
1.289582e-05    -3.877595e-05    0.000000e+00
1.621851e-05    -3.898515e-05    0.000000e+00
-1.674733e-05    -4.239237e-05    0.000000e+00
-1.331888e-05    -4.219362e-05    0.000000e+00
-9.943084e-06    -4.203904e-05    0.000000e+00
-6.606782e-06    -4.192863e-05    0.000000e+00
-3.296809e-06    -4.186238e-05    0.000000e+00
-7.403068e-19    -4.184030e-05    0.000000e+00
3.296809e-06    -4.186238e-05    0.000000e+00
6.606782e-06    -4.192863e-05    0.000000e+00
9.943084e-06    -4.203904e-05    0.000000e+00
1.331888e-05    -4.219362e-05    0.000000e+00
1.674733e-05    -4.239237e-05    0.000000e+00
-1.724905e-05    -4.590265e-05    0.000000e+00
-1.372025e-05    -4.571435e-05    0.000000e+00
-1.024411e-05    -4.556790e-05    0.000000e+00
-6.807467e-06    -4.546330e-05    0.000000e+00
-3.397151e-06    -4.540054e-05    0.000000e+00
-7.911288e-19    -4.537962e-05    0.000000e+00
3.397151e-06    -4.540054e-05    0.000000e+00
6.807467e-06    -4.546330e-05    0.000000e+00
1.024411e-05    -4.556790e-05    0.000000e+00
1.372025e-05    -4.571435e-05    0.000000e+00
1.724905e-05    -4.590265e-05    0.000000e+00
-1.772367e-05    -4.951056e-05    0.000000e+00
-1.409994e-05    -4.933272e-05    0.000000e+00
-1.052888e-05    -4.919441e-05    0.000000e+00
-6.997310e-06    -4.909561e-05    0.000000e+00
-3.492072e-06    -4.903633e-05    0.000000e+00
-8.271277e-19    -4.901658e-05    0.000000e+00
3.492072e-06    -4.903633e-05    0.000000e+00
6.997310e-06    -4.909561e-05    0.000000e+00
1.052888e-05    -4.919441e-05    0.000000e+00
1.409994e-05    -4.933272e-05    0.000000e+00
1.772367e-05    -4.951056e-05    0.000000e+00
-1.817118e-05    -5.321070e-05    0.000000e+00
-1.445795e-05    -5.304332e-05    0.000000e+00
-1.079738e-05    -5.291313e-05    0.000000e+00
-7.176311e-06    -5.282014e-05    0.000000e+00
-3.581572e-06    -5.276435e-05    0.000000e+00
-8.764673e-19    -5.274575e-05    0.000000e+00
3.581572e-06    -5.276435e-05    0.000000e+00
7.176311e-06    -5.282014e-05    0.000000e+00
1.079738e-05    -5.291313e-05    0.000000e+00
1.445795e-05    -5.304332e-05    0.000000e+00
1.817118e-05    -5.321070e-05    0.000000e+00
-1.859159e-05    -5.699764e-05    0.000000e+00
-1.479427e-05    -5.684071e-05    0.000000e+00
-1.104962e-05    -5.671866e-05    0.000000e+00
-7.344470e-06    -5.663148e-05    0.000000e+00
-3.665652e-06    -5.657917e-05    0.000000e+00
-9.014548e-19    -5.656173e-05    0.000000e+00
3.665652e-06    -5.657917e-05    0.000000e+00
7.344470e-06    -5.663148e-05    0.000000e+00
1.104962e-05    -5.671866e-05    0.000000e+00
1.479427e-05    -5.684071e-05    0.000000e+00
1.859159e-05    -5.699764e-05    0.000000e+00
-1.898489e-05    -6.086595e-05    0.000000e+00
-1.510891e-05    -6.071948e-05    0.000000e+00
-1.128560e-05    -6.060556e-05    0.000000e+00
-7.501787e-06    -6.052419e-05    0.000000e+00
-3.744310e-06    -6.047536e-05    0.000000e+00
-9.200895e-19    -6.045909e-05    0.000000e+00
3.744310e-06    -6.047536e-05    0.000000e+00
7.501787e-06    -6.052419e-05    0.000000e+00
1.128560e-05    -6.060556e-05    0.000000e+00
1.510891e-05    -6.071948e-05    0.000000e+00
1.898489e-05    -6.086595e-05    0.000000e+00
-1.935108e-05    -6.481022e-05    0.000000e+00
-1.540186e-05    -6.467420e-05    0.000000e+00
-1.150531e-05    -6.456841e-05    0.000000e+00
-7.648260e-06    -6.449285e-05    0.000000e+00
-3.817547e-06    -6.444752e-05    0.000000e+00
-9.412654e-19    -6.443240e-05    0.000000e+00
3.817547e-06    -6.444752e-05    0.000000e+00
7.648260e-06    -6.449285e-05    0.000000e+00
1.150531e-05    -6.456841e-05    0.000000e+00
1.540186e-05    -6.467420e-05    0.000000e+00
1.935108e-05    -6.481022e-05    0.000000e+00
-1.969016e-05    -6.882501e-05    0.000000e+00
-1.567312e-05    -6.869946e-05    0.000000e+00
-1.170875e-05    -6.860181e-05    0.000000e+00
-7.783889e-06    -6.853206e-05    0.000000e+00
-3.885360e-06    -6.849021e-05    0.000000e+00
-9.277128e-19    -6.847626e-05    0.000000e+00
3.885360e-06    -6.849021e-05    0.000000e+00
7.783889e-06    -6.853206e-05    0.000000e+00
1.170875e-05    -6.860181e-05    0.000000e+00
1.567312e-05    -6.869946e-05    0.000000e+00
1.969016e-05    -6.882501e-05    0.000000e+00
-2.000211e-05    -7.290492e-05    0.000000e+00
-1.592269e-05    -7.278982e-05    0.000000e+00
-1.189593e-05    -7.270030e-05    0.000000e+00
-7.908669e-06    -7.263637e-05    0.000000e+00
-3.947748e-06    -7.259802e-05    0.000000e+00
-9.268658e-19    -7.258524e-05    0.000000e+00
3.947748e-06    -7.259802e-05    0.000000e+00
7.908669e-06    -7.263637e-05    0.000000e+00
1.189593e-05    -7.270030e-05    0.000000e+00
1.592269e-05    -7.278982e-05    0.000000e+00
2.000211e-05    -7.290492e-05    0.000000e+00
-2.028696e-05    -7.704449e-05    0.000000e+00
-1.615057e-05    -7.693985e-05    0.000000e+00
-1.206683e-05    -7.685848e-05    0.000000e+00
-8.022587e-06    -7.680039e-05    0.000000e+00
-4.004699e-06    -7.676555e-05    0.000000e+00
-9.651940e-19    -7.675394e-05    0.000000e+00
4.004699e-06    -7.676555e-05    0.000000e+00
8.022587e-06    -7.680039e-05    0.000000e+00
1.206683e-05    -7.685848e-05    0.000000e+00
1.615057e-05    -7.693985e-05    0.000000e+00
2.028696e-05    -7.704449e-05    0.000000e+00
-2.054469e-05    -8.123828e-05    0.000000e+00
-1.635677e-05    -8.114410e-05    0.000000e+00
-1.222144e-05    -8.107089e-05    0.000000e+00
-8.125615e-06    -8.101868e-05    0.000000e+00
-4.056190e-06    -8.098740e-05    0.000000e+00
-9.952637e-19    -8.097698e-05    0.000000e+00
4.056190e-06    -8.098740e-05    0.000000e+00
8.125615e-06    -8.101868e-05    0.000000e+00
1.222144e-05    -8.107089e-05    0.000000e+00
1.635677e-05    -8.114410e-05    0.000000e+00
2.054469e-05    -8.123828e-05    0.000000e+00
-2.077535e-05    -8.548083e-05    0.000000e+00
-1.654131e-05    -8.539710e-05    0.000000e+00
-1.235973e-05    -8.533210e-05    0.000000e+00
-8.217683e-06    -8.528584e-05    0.000000e+00
-4.102169e-06    -8.525820e-05    0.000000e+00
-1.055403e-18    -8.524901e-05    0.000000e+00
4.102169e-06    -8.525820e-05    0.000000e+00
8.217683e-06    -8.528584e-05    0.000000e+00
1.235973e-05    -8.533210e-05    0.000000e+00
1.654131e-05    -8.539710e-05    0.000000e+00
2.077535e-05    -8.548083e-05    0.000000e+00
-2.097904e-05    -8.976668e-05    0.000000e+00
-1.670421e-05    -8.969337e-05    0.000000e+00
-1.248160e-05    -8.963664e-05    0.000000e+00
-8.298647e-06    -8.959650e-05    0.000000e+00
-4.142532e-06    -8.957265e-05    0.000000e+00
-1.126130e-18    -8.956475e-05    0.000000e+00
4.142532e-06    -8.957265e-05    0.000000e+00
8.298647e-06    -8.959650e-05    0.000000e+00
1.248160e-05    -8.963664e-05    0.000000e+00
1.670421e-05    -8.969337e-05    0.000000e+00
2.097904e-05    -8.976668e-05    0.000000e+00
-2.115600e-05    -9.409034e-05    0.000000e+00
-1.684554e-05    -9.402739e-05    0.000000e+00
-1.258689e-05    -9.397907e-05    0.000000e+00
-8.368235e-06    -9.394532e-05    0.000000e+00
-4.177087e-06    -9.392551e-05    0.000000e+00
-1.167635e-18    -9.391899e-05    0.000000e+00
4.177087e-06    -9.392551e-05    0.000000e+00
8.368235e-06    -9.394532e-05    0.000000e+00
1.258689e-05    -9.397907e-05    0.000000e+00
1.684554e-05    -9.402739e-05    0.000000e+00
2.115600e-05    -9.409034e-05    0.000000e+00
-2.130677e-05    -9.844649e-05    0.000000e+00
-1.696538e-05    -9.839376e-05    0.000000e+00
-1.267525e-05    -9.835405e-05    0.000000e+00
-8.425988e-06    -9.832705e-05    0.000000e+00
-4.205536e-06    -9.831158e-05    0.000000e+00
-1.218033e-18    -9.830655e-05    0.000000e+00
4.205536e-06    -9.831158e-05    0.000000e+00
8.425988e-06    -9.832705e-05    0.000000e+00
1.267525e-05    -9.835405e-05    0.000000e+00
1.696538e-05    -9.839376e-05    0.000000e+00
2.130677e-05    -9.844649e-05    0.000000e+00
-2.143243e-05    -1.028302e-04    0.000000e+00
-1.706383e-05    -1.027874e-04    0.000000e+00
-1.274610e-05    -1.027566e-04    0.000000e+00
-8.471281e-06    -1.027366e-04    0.000000e+00
-4.227528e-06    -1.027255e-04    0.000000e+00
-1.276055e-18    -1.027220e-04    0.000000e+00
4.227528e-06    -1.027255e-04    0.000000e+00
8.471281e-06    -1.027366e-04    0.000000e+00
1.274610e-05    -1.027566e-04    0.000000e+00
1.706383e-05    -1.027874e-04    0.000000e+00
2.143243e-05    -1.028302e-04    0.000000e+00
-2.153497e-05    -1.072379e-04    0.000000e+00
-1.714081e-05    -1.072046e-04    0.000000e+00
-1.279870e-05    -1.071824e-04    0.000000e+00
-8.503654e-06    -1.071689e-04    0.000000e+00
-4.242957e-06    -1.071614e-04    0.000000e+00
-1.234551e-18    -1.071589e-04    0.000000e+00
4.242957e-06    -1.071614e-04    0.000000e+00
8.503654e-06    -1.071689e-04    0.000000e+00
1.279870e-05    -1.071824e-04    0.000000e+00
1.714081e-05    -1.072046e-04    0.000000e+00
2.153497e-05    -1.072379e-04    0.000000e+00
-2.161746e-05    -1.116695e-04    0.000000e+00
-1.719574e-05    -1.116445e-04    0.000000e+00
-1.283281e-05    -1.116293e-04    0.000000e+00
-8.524012e-06    -1.116183e-04    0.000000e+00
-4.252654e-06    -1.116108e-04    0.000000e+00
-1.161706e-18    -1.116081e-04    0.000000e+00
4.252654e-06    -1.116108e-04    0.000000e+00
8.524012e-06    -1.116183e-04    0.000000e+00
1.283281e-05    -1.116293e-04    0.000000e+00
1.719574e-05    -1.116445e-04    0.000000e+00
2.161746e-05    -1.116695e-04    0.000000e+00
-2.168192e-05    -1.161329e-04    0.000000e+00
-1.722760e-05    -1.161149e-04    0.000000e+00
-1.285235e-05    -1.160964e-04    0.000000e+00
-8.536943e-06    -1.160758e-04    0.000000e+00
-4.259236e-06    -1.160604e-04    0.000000e+00
-1.162129e-18    -1.160548e-04    0.000000e+00
4.259236e-06    -1.160604e-04    0.000000e+00
8.536943e-06    -1.160758e-04    0.000000e+00
1.285235e-05    -1.160964e-04    0.000000e+00
1.722760e-05    -1.161149e-04    0.000000e+00
2.168192e-05    -1.161329e-04    0.000000e+00
-2.171602e-05    -1.206684e-04    0.000000e+00
-1.724778e-05    -1.206337e-04    0.000000e+00
-1.287217e-05    -1.205752e-04    0.000000e+00
-8.552054e-06    -1.205224e-04    0.000000e+00
-4.267408e-06    -1.204872e-04    0.000000e+00
-1.166576e-18    -1.204749e-04    0.000000e+00
4.267408e-06    -1.204872e-04    0.000000e+00
8.552054e-06    -1.205224e-04    0.000000e+00
1.287217e-05    -1.205752e-04    0.000000e+00
1.724778e-05    -1.206337e-04    0.000000e+00
2.171602e-05    -1.206684e-04    0.000000e+00

CELL_DATA      400
TENSORS Element_Stress3.000000e-01 double
1.818093e+06 2.548080e+05        0
2.548080e+05 4.157714e+05        0
       0        0        0

1.242038e+06 1.306397e+05        0
1.306397e+05 3.561299e+05        0
       0        0        0

8.639581e+05 4.290899e+04        0
4.290899e+04 2.746220e+05        0
       0        0        0

5.093257e+05 -3.621241e+03        0
-3.621241e+03 1.687806e+05        0
       0        0        0

1.686293e+05 -2.489962e+04        0
-2.489962e+04 5.687281e+04        0
       0        0        0

-1.685936e+05 -2.489350e+04        0
-2.489350e+04 -5.688078e+04        0
       0        0        0

-5.088511e+05 -3.621946e+03        0
-3.621946e+03 -1.686164e+05        0
       0        0        0

-8.625510e+05 4.283743e+04        0
4.283743e+04 -2.740946e+05        0
       0        0        0

-1.239060e+06 1.303520e+05        0
1.303520e+05 -3.549890e+05        0
       0        0        0

-1.811886e+06 2.539998e+05        0
2.539998e+05 -4.136253e+05        0
       0        0        0

1.639843e+06 4.152266e+04        0
4.152266e+04 4.227217e+03        0
       0        0        0

1.320574e+06 1.204431e+05        0
1.204431e+05 1.285025e+05        0
       0        0        0

9.070395e+05 9.882754e+04        0
9.882754e+04 1.313352e+05        0
       0        0        0

5.356900e+05 7.565429e+04        0
7.565429e+04 9.180546e+04        0
       0        0        0

1.765835e+05 6.307978e+04        0
6.307978e+04 3.203369e+04        0
       0        0        0

-1.776182e+05 6.306151e+04        0
6.306151e+04 -3.312191e+04        0
       0        0        0

-5.362221e+05 7.558906e+04        0
7.558906e+04 -9.271454e+04        0
       0        0        0

-9.064946e+05 9.868781e+04        0
9.868781e+04 -1.318523e+05        0
       0        0        0

-1.318056e+06 1.202063e+05        0
1.202063e+05 -1.282508e+05        0
       0        0        0

-1.635250e+06 4.143628e+04        0
4.143628e+04 -3.131244e+03        0
       0        0        0

1.582833e+06 1.538076e+04        0
1.538076e+04 6.606599e+03        0
       0        0        0

1.269896e+06 6.820282e+04        0
6.820282e+04 1.755157e+04        0
       0        0        0

9.134280e+05 1.013794e+05        0
1.013794e+05 4.231639e+04        0
       0        0        0

5.423659e+05 1.072786e+05        0
1.072786e+05 3.587325e+04        0
       0        0        0

1.789116e+05 1.072054e+05        0
1.072054e+05 1.270417e+04        0
       0        0        0

-1.822355e+05 1.071776e+05        0
1.071776e+05 -1.608622e+04        0
       0        0        0

-5.451591e+05 1.071957e+05        0
1.071957e+05 -3.906578e+04        0
       0        0        0

-9.150932e+05 1.012507e+05        0
1.012507e+05 -4.508442e+04        0
       0        0        0

-1.269869e+06 6.808832e+04        0
6.808832e+04 -1.963680e+04        0
       0        0        0

-1.580862e+06 1.534897e+04        0
1.534897e+04 -7.898504e+03        0
       0        0        0

1.544090e+06 1.424139e+04        0
1.424139e+04 -3.967005e+03        0
       0        0        0

1.225067e+06 5.537350e+04        0
5.537350e+04 -1.948385e+03        0
       0        0        0

8.853900e+05 9.227853e+04        0
9.227853e+04 2.930760e+03        0
       0        0        0

5.324350e+05 1.143940e+05        0
1.143940e+05 5.871875e+03        0
       0        0        0

1.751485e+05 1.231339e+05        0
1.231339e+05 6.908521e+02        0
       0        0        0

-1.817999e+05 1.231045e+05        0
1.231045e+05 -7.400183e+03        0
       0        0        0

-5.385616e+05 1.143126e+05        0
1.143126e+05 -1.238804e+04        0
       0        0        0

-8.904567e+05 9.217125e+04        0
9.217125e+04 -9.038741e+03        0
       0        0        0

-1.228563e+06 5.528559e+04        0
5.528559e+04 -3.518125e+03        0
       0        0        0

-1.545488e+06 1.421347e+04        0
1.421347e+04 -5.455968e+02        0
       0        0        0

1.507465e+06 1.709530e+04        0
1.709530e+04 -5.553086e+03        0
       0        0        0

1.183800e+06 5.438150e+04        0
5.438150e+04 -8.559623e+03        0
       0        0        0

8.530497e+05 8.888820e+04        0
8.888820e+04 -8.312023e+03        0
       0        0        0

5.130723e+05 1.134327e+05        0
1.134327e+05 -6.729968e+03        0
       0        0        0

1.678945e+05 1.256164e+05        0
1.256164e+05 -5.624416e+03        0
       0        0        0

-1.787495e+05 1.255882e+05        0
1.255882e+05 -5.285596e+03        0
       0        0        0

-5.234335e+05 1.133566e+05        0
1.133566e+05 -3.996120e+03        0
       0        0        0

-8.624217e+05 8.878994e+04        0
8.878994e+04 -2.031401e+03        0
       0        0        0

-1.191682e+06 5.429853e+04        0
5.429853e+04 -1.170172e+03        0
       0        0        0

-1.513292e+06 1.706243e+04        0
1.706243e+04 -3.253615e+03        0
       0        0        0

1.467789e+06 1.955139e+04        0
1.955139e+04 -7.890510e+03        0
       0        0        0

1.145610e+06 5.633797e+04        0
5.633797e+04 -1.052327e+04        0
       0        0        0

8.213666e+05 8.822097e+04        0
8.822097e+04 -1.190131e+04        0
       0        0        0

4.922384e+05 1.115666e+05        0
1.115666e+05 -1.111362e+04        0
       0        0        0

1.592125e+05 1.237350e+05        0
1.237350e+05 -9.134882e+03        0
       0        0        0

-1.750334e+05 1.237084e+05        0
1.237084e+05 -6.737237e+03        0
       0        0        0

-5.076061e+05 1.114949e+05        0
1.114949e+05 -4.593617e+03        0
       0        0        0

-8.358255e+05 8.812703e+04        0
8.812703e+04 -3.464254e+03        0
       0        0        0

-1.158690e+06 5.625455e+04        0
5.625455e+04 -4.295998e+03        0
       0        0        0

-1.478965e+06 1.951472e+04        0
1.951472e+04 -6.121125e+03        0
       0        0        0

1.425270e+06 2.110419e+04        0
2.110419e+04 -1.050104e+04        0
       0        0        0

1.108458e+06 5.823998e+04        0
5.823998e+04 -1.233528e+04        0
       0        0        0

7.914128e+05 8.847658e+04        0
8.847658e+04 -1.358811e+04        0
       0        0        0

4.720420e+05 1.101395e+05        0
1.101395e+05 -1.333799e+04        0
       0        0        0

1.504437e+05 1.214505e+05        0
1.214505e+05 -1.178660e+04        0
       0        0        0

-1.719128e+05 1.214253e+05        0
1.214253e+05 -9.730164e+03        0
       0        0        0

-4.931056e+05 1.100712e+05        0
1.100712e+05 -8.042036e+03        0
       0        0        0

-8.116620e+05 8.838531e+04        0
8.838531e+04 -7.509578e+03        0
       0        0        0

-1.127470e+06 5.815619e+04        0
5.815619e+04 -8.314498e+03        0
       0        0        0

-1.442587e+06 2.106564e+04        0
2.106564e+04 -9.501769e+03        0
       0        0        0

1.380759e+06 2.196075e+04        0
2.196075e+04 -1.360007e+04        0
       0        0        0

1.071566e+06 5.950319e+04        0
5.950319e+04 -1.468298e+04        0
       0        0        0

7.626412e+05 8.884556e+04        0
8.884556e+04 -1.553420e+04        0
       0        0        0

4.527639e+05 1.092844e+05        0
1.092844e+05 -1.548446e+04        0
       0        0        0

1.417939e+05 1.198156e+05        0
1.198156e+05 -1.454969e+04        0
       0        0        0

-1.695279e+05 1.197916e+05        0
1.197916e+05 -1.322867e+04        0
       0        0        0

-4.801447e+05 1.092187e+05        0
1.092187e+05 -1.219191e+04        0
       0        0        0

-7.893119e+05 8.875666e+04        0
8.875666e+04 -1.193192e+04        0
       0        0        0

-1.097159e+06 5.942007e+04        0
5.942007e+04 -1.245163e+04        0
       0        0        0

-1.404888e+06 2.192177e+04        0
2.192177e+04 -1.306261e+04        0
       0        0        0

1.335027e+06 2.238959e+04        0
2.238959e+04 -1.708330e+04        0
       0        0        0

1.034592e+06 6.021389e+04        0
6.021389e+04 -1.765990e+04        0
       0        0        0

7.344859e+05 8.911593e+04        0
8.911593e+04 -1.814560e+04        0
       0        0        0

4.340721e+05 1.088316e+05        0
1.088316e+05 -1.815807e+04        0
       0        0        0

1.332109e+05 1.188572e+05        0
1.188572e+05 -1.766060e+04        0
       0        0        0

-1.677629e+05 1.188341e+05        0
1.188341e+05 -1.693296e+04        0
       0        0        0

-4.683254e+05 1.087682e+05        0
1.087682e+05 -1.637187e+04        0
       0        0        0

-7.681385e+05 8.902948e+04        0
8.902948e+04 -1.625277e+04        0
       0        0        0

-1.067335e+06 6.013231e+04        0
6.013231e+04 -1.653036e+04        0
       0        0        0

-1.366537e+06 2.235104e+04        0
2.235104e+04 -1.681080e+04        0
       0        0        0

1.288574e+06 2.258623e+04        0
2.258623e+04 -2.087734e+04        0
       0        0        0

9.974326e+05 6.057217e+04        0
6.057217e+04 -2.113556e+04        0
       0        0        0

7.065548e+05 8.927514e+04        0
8.927514e+04 -2.136712e+04        0
       0        0        0

4.156396e+05 1.086138e+05        0
1.086138e+05 -2.137624e+04        0
       0        0        0

1.245918e+05 1.183599e+05        0
1.183599e+05 -2.113024e+04        0
       0        0        0

-1.664513e+05 1.183377e+05        0
1.183377e+05 -2.076802e+04        0
       0        0        0

-4.572552e+05 1.085525e+05        0
1.085525e+05 -2.049818e+04        0
       0        0        0

-7.476799e+05 8.919125e+04        0
8.919125e+04 -2.045642e+04        0
       0        0        0

-1.037815e+06 6.049267e+04        0
6.049267e+04 -2.060391e+04        0
       0        0        0

-1.327951e+06 2.254855e+04        0
2.254855e+04 -2.073676e+04        0
       0        0        0

1.241693e+06 2.266813e+04        0
2.266813e+04 -2.491540e+04        0
       0        0        0

9.600724e+05 6.073659e+04        0
6.073659e+04 -2.497499e+04        0
       0        0        0

6.786366e+05 8.935777e+04        0
8.935777e+04 -2.504008e+04        0
       0        0        0

3.972547e+05 1.085182e+05        0
1.085182e+05 -2.502092e+04        0
       0        0        0

1.158718e+05 1.181261e+05        0
1.181261e+05 -2.489680e+04        0
       0        0        0

-1.654636e+05 1.181046e+05        0
1.181046e+05 -2.473124e+04        0
       0        0        0

-4.466567e+05 1.084590e+05        0
1.084590e+05 -2.462301e+04        0
       0        0        0

-7.276565e+05 8.927654e+04        0
8.927654e+04 -2.463301e+04        0
       0        0        0

-1.008513e+06 6.065946e+04        0
6.065946e+04 -2.473554e+04        0
       0        0        0

-1.289350e+06 2.263156e+04        0
2.263156e+04 -2.483403e+04        0
       0        0        0

1.194546e+06 2.269818e+04        0
2.269818e+04 -2.914587e+04        0
       0        0        0

9.225316e+05 6.080491e+04        0
6.080491e+04 -2.907314e+04        0
       0        0        0

6.506374e+05 8.939666e+04        0
8.939666e+04 -2.902696e+04        0
       0        0        0

3.788114e+05 1.084808e+05        0
1.084808e+05 -2.897099e+04        0
       0        0        0

1.070247e+05 1.180267e+05        0
1.180267e+05 -2.889464e+04        0
       0        0        0

-1.647099e+05 1.180059e+05        0
1.180059e+05 -2.882442e+04        0
       0        0        0

-4.363595e+05 1.084235e+05        0
1.084235e+05 -2.880286e+04        0
       0        0        0

-7.079088e+05 8.931814e+04        0
8.931814e+04 -2.885412e+04        0
       0        0        0

-9.793824e+05 6.073031e+04        0
6.073031e+04 -2.896308e+04        0
       0        0        0

-1.250826e+06 2.266279e+04        0
2.266279e+04 -2.908689e+04        0
       0        0        0

1.147224e+06 2.270700e+04        0
2.270700e+04 -3.352702e+04        0
       0        0        0

8.848405e+05 6.082986e+04        0
6.082986e+04 -3.335609e+04        0
       0        0        0

6.225292e+05 8.941338e+04        0
8.941338e+04 -3.322930e+04        0
       0        0        0

3.602712e+05 1.084685e+05        0
1.084685e+05 -3.313487e+04        0
       0        0        0

9.805167e+04 1.179896e+05        0
1.179896e+05 -3.306852e+04        0
       0        0        0

-1.641290e+05 1.179696e+05        0
1.179696e+05 -3.304030e+04        0
       0        0        0

-4.262623e+05 1.084133e+05        0
1.084133e+05 -3.306645e+04        0
       0        0        0

-6.883457e+05 8.933758e+04        0
8.933758e+04 -3.315479e+04        0
       0        0        0

-9.503895e+05 6.075784e+04        0
6.075784e+04 -3.329661e+04        0
       0        0        0

-1.212406e+06 2.267284e+04        0
2.267284e+04 -3.347364e+04        0
       0        0        0

1.099781e+06 2.270823e+04        0
2.270823e+04 -3.802354e+04        0
       0        0        0

8.470313e+05 6.083715e+04        0
6.083715e+04 -3.777126e+04        0
       0        0        0

5.943172e+05 8.941994e+04        0
8.941994e+04 -3.757986e+04        0
       0        0        0

3.416323e+05 1.084662e+05        0
1.084662e+05 -3.744778e+04        0
       0        0        0

8.896881e+04 1.179790e+05        0
1.179790e+05 -3.737418e+04        0
       0        0        0

-1.636762e+05 1.179597e+05        0
1.179597e+05 -3.736247e+04        0
       0        0        0

-4.163026e+05 1.084130e+05        0
1.084130e+05 -3.741776e+04        0
       0        0        0

-6.689112e+05 8.934689e+04        0
8.934689e+04 -3.754125e+04        0
       0        0        0

-9.215052e+05 6.076773e+04        0
6.076773e+04 -3.772768e+04        0
       0        0        0

-1.174085e+06 2.267531e+04        0
2.267531e+04 -3.796891e+04        0
       0        0        0

1.052256e+06 2.270736e+04        0
2.270736e+04 -4.260394e+04        0
       0        0        0

8.091349e+05 6.083822e+04        0
6.083822e+04 -4.227879e+04        0
       0        0        0

5.660209e+05 8.942238e+04        0
8.942238e+04 -4.203103e+04        0
       0        0        0

3.229105e+05 1.084674e+05        0
1.084674e+05 -4.186286e+04        0
       0        0        0

7.979929e+04 1.179785e+05        0
1.179785e+05 -4.177509e+04        0
       0        0        0

-1.633162e+05 1.179599e+05        0
1.179599e+05 -4.176884e+04        0
       0        0        0

-4.064376e+05 1.084161e+05        0
1.084161e+05 -4.184498e+04        0
       0        0        0

-6.495662e+05 8.935208e+04        0
8.935208e+04 -4.200242e+04        0
       0        0        0

-8.927020e+05 6.077142e+04        0
6.077142e+04 -4.223751e+04        0
       0        0        0

-1.135842e+06 2.267568e+04        0
2.267568e+04 -4.254578e+04        0
       0        0        0

1.004678e+06 2.270630e+04        0
2.270630e+04 -4.723915e+04        0
       0        0        0

7.711808e+05 6.083767e+04        0
6.083767e+04 -4.684590e+04        0
       0        0        0

5.376654e+05 8.942344e+04        0
8.942344e+04 -4.654632e+04        0
       0        0        0

3.041292e+05 1.084695e+05        0
1.084695e+05 -4.634373e+04        0
       0        0        0

7.056898e+04 1.179812e+05        0
1.179812e+05 -4.623964e+04        0
       0        0        0

-1.630182e+05 1.179634e+05        0
1.179634e+05 -4.623456e+04        0
       0        0        0

-3.966342e+05 1.084203e+05        0
1.084203e+05 -4.632803e+04        0
       0        0        0

-6.302795e+05 8.935589e+04        0
8.935589e+04 -4.651832e+04        0
       0        0        0

-8.639530e+05 6.077349e+04        0
6.077349e+04 -4.680248e+04        0
       0        0        0

-1.097651e+06 2.267586e+04        0
2.267586e+04 -4.717708e+04        0
       0        0        0

9.570754e+05 2.270556e+04        0
2.270556e+04 -5.190174e+04        0
       0        0        0

7.331967e+05 6.083710e+04        0
6.083710e+04 -5.144368e+04        0
       0        0        0

5.092772e+05 8.942427e+04        0
8.942427e+04 -5.109521e+04        0
       0        0        0

2.853140e+05 1.084719e+05        0
1.084719e+05 -5.085979e+04        0
       0        0        0

6.130427e+04 1.179849e+05        0
1.179849e+05 -5.073922e+04        0
       0        0        0

-1.627544e+05 1.179677e+05        0
1.179677e+05 -5.073393e+04        0
       0        0        0

-3.868635e+05 1.084247e+05        0
1.084247e+05 -5.084319e+04        0
       0        0        0

-6.110231e+05 8.935948e+04        0
8.935948e+04 -5.106522e+04        0
       0        0        0

-8.352315e+05 6.077553e+04        0
6.077553e+04 -5.139729e+04        0
       0        0        0

-1.059485e+06 2.267636e+04        0
2.267636e+04 -5.183611e+04        0
       0        0        0

9.094738e+05 2.270516e+04        0
2.270516e+04 -5.656557e+04        0
       0        0        0

6.952090e+05 6.083693e+04        0
6.083693e+04 -5.604550e+04        0
       0        0        0

4.808825e+05 8.942529e+04        0
8.942529e+04 -5.565043e+04        0
       0        0        0

2.664907e+05 1.084744e+05        0
1.084744e+05 -5.538371e+04        0
       0        0        0

5.203106e+04 1.179886e+05        0
1.179886e+05 -5.524721e+04        0
       0        0        0

-1.624986e+05 1.179722e+05        0
1.179722e+05 -5.524144e+04        0
       0        0        0

-3.770994e+05 1.084292e+05        0
1.084292e+05 -5.536571e+04        0
       0        0        0

-5.917711e+05 8.936325e+04        0
8.936325e+04 -5.561828e+04        0
       0        0        0

-8.065120e+05 6.077798e+04        0
6.077798e+04 -5.599651e+04        0
       0        0        0

-1.021319e+06 2.267721e+04        0
2.267721e+04 -5.649697e+04        0
       0        0        0

8.618976e+05 2.270503e+04        0
2.270503e+04 -6.120568e+04        0
       0        0        0

6.572428e+05 6.083720e+04        0
6.083720e+04 -6.062626e+04        0
       0        0        0

4.525063e+05 8.942662e+04        0
8.942662e+04 -6.018668e+04        0
       0        0        0

2.476844e+05 1.084771e+05        0
1.084771e+05 -5.989013e+04        0
       0        0        0

4.277432e+04 1.179925e+05        0
1.179925e+05 -5.973847e+04        0
       0        0        0

-1.622259e+05 1.179768e+05        0
1.179768e+05 -5.973229e+04        0
       0        0        0

-3.673170e+05 1.084339e+05        0
1.084339e+05 -5.987099e+04        0
       0        0        0

-5.724988e+05 8.936733e+04        0
8.936733e+04 -6.015289e+04        0
       0        0        0

-7.777695e+05 6.078086e+04        0
6.078086e+04 -6.057534e+04        0
       0        0        0

-9.831260e+05 2.267832e+04        0
2.267832e+04 -6.113473e+04        0
       0        0        0

8.143703e+05 2.270510e+04        0
2.270510e+04 -6.579819e+04        0
       0        0        0

6.193218e+05 6.083783e+04        0
6.083783e+04 -6.516209e+04        0
       0        0        0

4.241726e+05 8.942830e+04        0
8.942830e+04 -6.468004e+04        0
       0        0        0

2.289190e+05 1.084800e+05        0
1.084800e+05 -6.435509e+04        0
       0        0        0

3.355799e+04 1.179965e+05        0
1.179965e+05 -6.418909e+04        0
       0        0        0

-1.619122e+05 1.179816e+05        0
1.179816e+05 -6.418265e+04        0
       0        0        0

-3.574925e+05 1.084388e+05        0
1.084388e+05 -6.433524e+04        0
       0        0        0

-5.531823e+05 8.937176e+04        0
8.937176e+04 -6.464522e+04        0
       0        0        0

-7.489802e+05 6.078412e+04        0
6.078412e+04 -6.510989e+04        0
       0        0        0

-9.448831e+05 2.267963e+04        0
2.267963e+04 -6.572553e+04        0
       0        0        0

7.669146e+05 2.270531e+04        0
2.270531e+04 -7.032032e+04        0
       0        0        0

5.814687e+05 6.083878e+04        0
6.083878e+04 -6.963023e+04        0
       0        0        0

3.959044e+05 8.943032e+04        0
8.943032e+04 -6.910775e+04        0
       0        0        0

2.102174e+05 1.084832e+05        0
1.084832e+05 -6.875584e+04        0
       0        0        0

2.440490e+04 1.180008e+05        0
1.180008e+05 -6.857627e+04        0
       0        0        0

-1.615350e+05 1.179866e+05        0
1.179866e+05 -6.856970e+04        0
       0        0        0

-3.476032e+05 1.084440e+05        0
1.084440e+05 -6.873562e+04        0
       0        0        0

-5.337990e+05 8.937654e+04        0
8.937654e+04 -6.907241e+04        0
       0        0        0

-7.201211e+05 6.078768e+04        0
6.078768e+04 -6.957734e+04        0
       0        0        0

-9.065667e+05 2.268107e+04        0
2.268107e+04 -7.024657e+04        0
       0        0        0

7.195519e+05 2.270564e+04        0
2.270564e+04 -7.475035e+04        0
       0        0        0

5.437054e+05 6.084003e+04        0
6.084003e+04 -7.400901e+04        0
       0        0        0

3.677233e+05 8.943269e+04        0
8.943269e+04 -7.344818e+04        0
       0        0        0

1.916015e+05 1.084867e+05        0
1.084867e+05 -7.307070e+04        0
       0        0        0

1.533679e+04 1.180053e+05        0
1.180053e+05 -7.287832e+04        0
       0        0        0

-1.610726e+05 1.179919e+05        0
1.179919e+05 -7.287170e+04        0
       0        0        0

-3.376274e+05 1.084495e+05        0
1.084495e+05 -7.305036e+04        0
       0        0        0

-5.143272e+05 8.938166e+04        0
8.938166e+04 -7.341270e+04        0
       0        0        0

-6.911705e+05 6.079154e+04        0
6.079154e+04 -7.395593e+04        0
       0        0        0

-8.681549e+05 2.268265e+04        0
2.268265e+04 -7.467612e+04        0
       0        0        0

6.723026e+05 2.270610e+04        0
2.270610e+04 -7.906767e+04        0
       0        0        0

5.060521e+05 6.084157e+04        0
6.084157e+04 -7.827784e+04        0
       0        0        0

3.396500e+05 8.943541e+04        0
8.943541e+04 -7.768074e+04        0
       0        0        0

1.730917e+05 1.084906e+05        0
1.084906e+05 -7.727910e+04        0
       0        0        0

6.374312e+03 1.180102e+05        0
1.180102e+05 -7.707463e+04        0
       0        0        0

-1.605042e+05 1.179975e+05        0
1.179975e+05 -7.706800e+04        0
       0        0        0

-3.275445e+05 1.084554e+05        0
1.084554e+05 -7.725879e+04        0
       0        0        0

-4.947461e+05 8.938714e+04        0
8.938714e+04 -7.764539e+04        0
       0        0        0

-6.621077e+05 6.079570e+04        0
6.079570e+04 -7.822499e+04        0
       0        0        0

-8.296269e+05 2.268435e+04        0
2.268435e+04 -7.899355e+04        0
       0        0        0

6.251860e+05 2.270672e+04        0
2.270672e+04 -8.325273e+04        0
       0        0        0

4.685284e+05 6.084345e+04        0
6.084345e+04 -8.241722e+04        0
       0        0        0

3.117039e+05 8.943849e+04        0
8.943849e+04 -8.178595e+04        0
       0        0        0

1.547079e+05 1.084948e+05        0
1.084948e+05 -8.136154e+04        0
       0        0        0

-2.462973e+03 1.180154e+05        0
1.180154e+05 -8.114567e+04        0
       0        0        0

-1.598104e+05 1.180033e+05        0
1.180033e+05 -8.113905e+04        0
       0        0        0

-3.173350e+05 1.084616e+05        0
1.084616e+05 -8.134130e+04        0
       0        0        0

-4.750363e+05 8.939298e+04        0
8.939298e+04 -8.175087e+04        0
       0        0        0

-6.329130e+05 6.080020e+04        0
6.080020e+04 -8.236493e+04        0
       0        0        0

-7.909629e+05 2.268621e+04        0
2.268621e+04 -8.317930e+04        0
       0        0        0

5.782203e+05 2.270755e+04        0
2.270755e+04 -8.728708e+04        0
       0        0        0

4.311527e+05 6.084573e+04        0
6.084573e+04 -8.640869e+04        0
       0        0        0

2.839037e+05 8.944194e+04        0
8.944194e+04 -8.574535e+04        0
       0        0        0

1.364684e+05 1.084992e+05        0
1.084992e+05 -8.529954e+04        0
       0        0        0

-1.115657e+04 1.180207e+05        0
1.180207e+05 -8.507297e+04        0
       0        0        0

-1.589728e+05 1.180094e+05        0
1.180094e+05 -8.506637e+04        0
       0        0        0

-3.069806e+05 1.084681e+05        0
1.084681e+05 -8.527944e+04        0
       0        0        0

-4.551793e+05 8.939918e+04        0
8.939918e+04 -8.571066e+04        0
       0        0        0

-6.035678e+05 6.080510e+04        0
6.080510e+04 -8.635725e+04        0
       0        0        0

-7.521441e+05 2.268828e+04        0
2.268828e+04 -8.721489e+04        0
       0        0        0

5.314225e+05 2.270867e+04        0
2.270867e+04 -9.115333e+04        0
       0        0        0

3.939424e+05 6.084843e+04        0
6.084843e+04 -9.023482e+04        0
       0        0        0

2.562669e+05 8.944571e+04        0
8.944571e+04 -8.954141e+04        0
       0        0        0

1.183907e+05 1.085039e+05        0
1.085039e+05 -8.907556e+04        0
       0        0        0

-1.968909e+04 1.180263e+05        0
1.180263e+05 -8.883907e+04        0
       0        0        0

-1.579739e+05 1.180157e+05        0
1.180157e+05 -8.883269e+04        0
       0        0        0

-2.964638e+05 1.084748e+05        0
1.084748e+05 -8.905601e+04        0
       0        0        0

-4.351579e+05 8.940571e+04        0
8.940571e+04 -8.950753e+04        0
       0        0        0

-5.740547e+05 6.081042e+04        0
6.081042e+04 -9.018459e+04        0
       0        0        0

-7.131528e+05 2.269064e+04        0
2.269064e+04 -9.108290e+04        0
       0        0        0

4.848085e+05 2.271010e+04        0
2.271010e+04 -9.483511e+04        0
       0        0        0

3.569137e+05 6.085138e+04        0
6.085138e+04 -9.387902e+04        0
       0        0        0

2.288097e+05 8.944959e+04        0
8.944959e+04 -9.315722e+04        0
       0        0        0

1.004911e+05 1.085089e+05        0
1.085089e+05 -9.267261e+04        0
       0        0        0

-2.804432e+04 1.180325e+05        0
1.180325e+05 -9.242739e+04        0
       0        0        0

-1.567975e+05 1.180226e+05        0
1.180226e+05 -9.242201e+04        0
       0        0        0

-2.857684e+05 1.084818e+05        0
1.084818e+05 -9.265539e+04        0
       0        0        0

-4.149558e+05 8.941234e+04        0
8.941234e+04 -9.312579e+04        0
       0        0        0

-5.443575e+05 6.081599e+04        0
6.081599e+04 -9.383094e+04        0
       0        0        0

-6.739721e+05 2.269331e+04        0
2.269331e+04 -9.476706e+04        0
       0        0        0

4.383935e+05 2.271163e+04        0
2.271163e+04 -9.831697e+04        0
       0        0        0

3.200824e+05 6.085378e+04        0
6.085378e+04 -9.732506e+04        0
       0        0        0

2.015470e+05 8.945296e+04        0
8.945296e+04 -9.657567e+04        0
       0        0        0

8.278391e+04 1.085146e+05        0
1.085146e+05 -9.607359e+04        0
       0        0        0

-3.620745e+04 1.180405e+05        0
1.180405e+05 -9.582193e+04        0
       0        0        0

-1.554279e+05 1.180313e+05        0
1.180313e+05 -9.581996e+04        0
       0        0        0

-2.748784e+05 1.084894e+05        0
1.084894e+05 -9.606433e+04        0
       0        0        0

-3.945574e+05 8.941846e+04        0
8.941846e+04 -9.655210e+04        0
       0        0        0

-5.144612e+05 6.082100e+04        0
6.082100e+04 -9.728198e+04        0
       0        0        0

-6.345867e+05 2.269608e+04        0
2.269608e+04 -9.825222e+04        0
       0        0        0

3.921928e+05 2.271228e+04        0
2.271228e+04 -1.015841e+05        0
       0        0        0

2.834633e+05 6.085309e+04        0
6.085309e+04 -1.005562e+05        0
       0        0        0

1.744915e+05 8.945422e+04        0
8.945422e+04 -9.977791e+04        0
       0        0        0

6.528064e+04 1.085222e+05        0
1.085222e+05 -9.925966e+04        0
       0        0        0

-4.416569e+04 1.180541e+05        0
1.180541e+05 -9.900662e+04        0
       0        0        0

-1.538499e+05 1.180457e+05        0
1.180457e+05 -9.901444e+04        0
       0        0        0

-2.637770e+05 1.084991e+05        0
1.084991e+05 -9.927348e+04        0
       0        0        0

-3.739472e+05 8.942248e+04        0
8.942248e+04 -9.977711e+04        0
       0        0        0

-4.843524e+05 6.082294e+04        0
6.082294e+04 -1.005262e+05        0
       0        0        0

-5.949833e+05 2.269798e+04        0
2.269798e+04 -1.015246e+05        0
       0        0        0

3.462241e+05 2.270904e+04        0
2.270904e+04 -1.046220e+05        0
       0        0        0

2.470704e+05 6.084277e+04        0
6.084277e+04 -1.035531e+05        0
       0        0        0

1.476507e+05 8.944978e+04        0
8.944978e+04 -1.027401e+05        0
       0        0        0

4.798663e+04 1.085355e+05        0
1.085355e+05 -1.022073e+05        0
       0        0        0

-5.190953e+04 1.180829e+05        0
1.180829e+05 -1.019641e+05        0
       0        0        0

-1.520468e+05 1.180752e+05        0
1.180752e+05 -1.019968e+05        0
       0        0        0

-2.524437e+05 1.085144e+05        0
1.085144e+05 -1.022804e+05        0
       0        0        0

-3.531067e+05 8.942080e+04        0
8.942080e+04 -1.027988e+05        0
       0        0        0

-4.540191e+05 6.081523e+04        0
6.081523e+04 -1.035566e+05        0
       0        0        0

-5.551530e+05 2.269598e+04        0
2.269598e+04 -1.045723e+05        0
       0        0        0

3.005129e+05 2.269407e+04        0
2.269407e+04 -1.074154e+05        0
       0        0        0

2.109170e+05 6.080752e+04        0
6.080752e+04 -1.062907e+05        0
       0        0        0

1.210218e+05 8.943223e+04        0
8.943223e+04 -1.054278e+05        0
       0        0        0

3.089491e+04 1.085634e+05        0
1.085634e+05 -1.048833e+05        0
       0        0        0

-5.943547e+04 1.181484e+05        0
1.181484e+05 -1.046738e+05        0
       0        0        0

-1.499985e+05 1.181414e+05        0
1.181414e+05 -1.047639e+05        0
       0        0        0

-2.408480e+05 1.085443e+05        0
1.085443e+05 -1.050949e+05        0
       0        0        0

-3.320099e+05 8.940600e+04        0
8.940600e+04 -1.056280e+05        0
       0        0        0

-4.234507e+05 6.078262e+04        0
6.078262e+04 -1.063748e+05        0
       0        0        0

-5.150971e+05 2.268226e+04        0
2.268226e+04 -1.073860e+05        0
       0        0        0

2.551043e+05 2.264915e+04        0
2.264915e+04 -1.099472e+05        0
       0        0        0

1.750133e+05 6.071502e+04        0
6.071502e+04 -1.087320e+05        0
       0        0        0

9.458009e+04 8.938769e+04        0
8.938769e+04 -1.077880e+05        0
       0        0        0

1.397401e+04 1.086258e+05        0
1.086258e+05 -1.072378e+05        0
       0        0        0

-6.675081e+04 1.182952e+05        0
1.182952e+05 -1.071089e+05        0
       0        0        0

-1.476756e+05 1.182889e+05        0
1.182889e+05 -1.073205e+05        0
       0        0        0

-2.289371e+05 1.086087e+05        0
1.086087e+05 -1.077452e+05        0
       0        0        0

-3.106114e+05 8.936423e+04        0
8.936423e+04 -1.082976e+05        0
       0        0        0

-3.926369e+05 6.069276e+04        0
6.069276e+04 -1.089972e+05        0
       0        0        0

-4.748381e+05 2.263860e+04        0
2.263860e+04 -1.099606e+05        0
       0        0        0

2.100841e+05 2.253561e+04        0
2.253561e+04 -1.121963e+05        0
       0        0        0

1.393607e+05 6.050302e+04        0
6.050302e+04 -1.108221e+05        0
       0        0        0

6.825690e+04 8.929374e+04        0
8.929374e+04 -1.097409e+05        0
       0        0        0

-2.852471e+03 1.087629e+05        0
1.087629e+05 -1.091996e+05        0
       0        0        0

-7.388141e+04 1.186063e+05        0
1.186063e+05 -1.092351e+05        0
       0        0        0

-1.450314e+05 1.186008e+05        0
1.186008e+05 -1.096801e+05        0
       0        0        0

-2.166156e+05 1.087478e+05        0
1.087478e+05 -1.102839e+05        0
       0        0        0

-2.888261e+05 8.927305e+04        0
8.927305e+04 -1.108704e+05        0
       0        0        0

-3.615634e+05 6.048344e+04        0
6.048344e+04 -1.114629e+05        0
       0        0        0

-4.344436e+05 2.252634e+04        0
2.252634e+04 -1.122988e+05        0
       0        0        0

1.656159e+05 2.227845e+04        0
2.227845e+04 -1.141380e+05        0
       0        0        0

1.039363e+05 6.006521e+04        0
6.006521e+04 -1.124851e+05        0
       0        0        0

4.190378e+04 8.912260e+04        0
8.912260e+04 -1.111854e+05        0
       0        0        0

-1.973372e+04 1.090482e+05        0
1.090482e+05 -1.106864e+05        0
       0        0        0

-8.088069e+04 1.192176e+05        0
1.192176e+05 -1.110151e+05        0
       0        0        0

-1.419910e+05 1.192128e+05        0
1.192128e+05 -1.118583e+05        0
       0        0        0

-2.037169e+05 1.090350e+05        0
1.090350e+05 -1.127757e+05        0
       0        0        0

-2.664941e+05 8.910469e+04        0
8.910469e+04 -1.134363e+05        0
       0        0        0

-3.301998e+05 6.004833e+04        0
6.004833e+04 -1.138402e+05        0
       0        0        0

-3.940666e+05 2.227049e+04        0
2.227049e+04 -1.144150e+05        0
       0        0        0

1.219931e+05 2.174664e+04        0
2.174664e+04 -1.157466e+05        0
       0        0        0

6.865447e+04 5.925245e+04        0
5.925245e+04 -1.136466e+05        0
       0        0        0

1.524498e+04 8.886468e+04        0
8.886468e+04 -1.120546e+05        0
       0        0        0

-3.691196e+04 1.095981e+05        0
1.095981e+05 -1.116728e+05        0
       0        0        0

-8.783083e+04 1.203020e+05        0
1.203020e+05 -1.124376e+05        0
       0        0        0

-1.384455e+05 1.202980e+05        0
1.202980e+05 -1.138398e+05        0
       0        0        0

-1.899805e+05 1.095870e+05        0
1.095870e+05 -1.152276e+05        0
       0        0        0

-2.433352e+05 8.884960e+04        0
8.884960e+04 -1.160578e+05        0
       0        0        0

-2.984683e+05 5.923833e+04        0
5.923833e+04 -1.162114e+05        0
       0        0        0

-3.540075e+05 2.174004e+04        0
2.174004e+04 -1.163418e+05        0
       0        0        0

7.967949e+04 2.074596e+04        0
2.074596e+04 -1.170271e+05        0
       0        0        0

3.328360e+04 5.794540e+04        0
5.794540e+04 -1.143333e+05        0
       0        0        0

-1.215145e+04 8.860752e+04        0
8.860752e+04 -1.125333e+05        0
       0        0        0

-5.467604e+04 1.105486e+05        0
1.105486e+05 -1.124052e+05        0
       0        0        0

-9.481008e+04 1.219498e+05        0
1.219498e+05 -1.136062e+05        0
       0        0        0

-1.342763e+05 1.219465e+05        0
1.219465e+05 -1.154809e+05        0
       0        0        0

-1.750927e+05 1.105396e+05        0
1.105396e+05 -1.173685e+05        0
       0        0        0

-2.189214e+05 8.859534e+04        0
8.859534e+04 -1.185537e+05        0
       0        0        0

-2.661727e+05 5.793406e+04        0
5.793406e+04 -1.185853e+05        0
       0        0        0

-3.147785e+05 2.074074e+04        0
2.074074e+04 -1.181228e+05        0
       0        0        0

3.924095e+04 1.909436e+04        0
1.909436e+04 -1.180749e+05        0
       0        0        0

-2.724034e+03 5.635826e+04        0
5.635826e+04 -1.150808e+05        0
       0        0        0

-4.074625e+04 8.870803e+04        0
8.870803e+04 -1.136600e+05        0
       0        0        0

-7.311013e+04 1.119006e+05        0
1.119006e+05 -1.139459e+05        0
       0        0        0

-1.017614e+05 1.237705e+05        0
1.237705e+05 -1.149346e+05        0
       0        0        0

-1.294716e+05 1.237682e+05        0
1.237682e+05 -1.162988e+05        0
       0        0        0

-1.589244e+05 1.118941e+05        0
1.118941e+05 -1.180912e+05        0
       0        0        0

-1.927984e+05 8.869896e+04        0
8.869896e+04 -1.198923e+05        0
       0        0        0

-2.328465e+05 5.634972e+04        0
5.634972e+04 -1.205072e+05        0
       0        0        0

-2.770850e+05 1.909051e+04        0
1.909051e+04 -1.198019e+05        0
       0        0        0

7.634371e+02 1.709762e+04        0
1.709762e+04 -1.197111e+05        0
       0        0        0

-4.032382e+04 5.590739e+04        0
5.590739e+04 -1.180636e+05        0
       0        0        0

-7.040622e+04 8.998861e+04        0
8.998861e+04 -1.190037e+05        0
       0        0        0

-9.136226e+04 1.128684e+05        0
1.128684e+05 -1.190910e+05        0
       0        0        0

-1.082336e+05 1.240053e+05        0
1.240053e+05 -1.173703e+05        0
       0        0        0

-1.243625e+05 1.240042e+05        0
1.240042e+05 -1.152259e+05        0
       0        0        0

-1.422359e+05 1.128650e+05        0
1.128650e+05 -1.145081e+05        0
       0        0        0

-1.650839e+05 8.998324e+04        0
8.998324e+04 -1.164893e+05        0
       0        0        0

-1.976685e+05 5.590166e+04        0
5.590166e+04 -1.199369e+05        0
       0        0        0

-2.413450e+05 1.709501e+04        0
1.709501e+04 -1.208898e+05        0
       0        0        0

-3.813715e+04 1.779908e+04        0
1.779908e+04 -1.238959e+05        0
       0        0        0

-8.031885e+04 6.132653e+04        0
6.132653e+04 -1.326577e+05        0
       0        0        0

-9.798936e+04 9.239950e+04        0
9.239950e+04 -1.373904e+05        0
       0        0        0

-1.066846e+05 1.101317e+05        0
1.101317e+05 -1.327693e+05        0
       0        0        0

-1.132428e+05 1.182461e+05        0
1.182461e+05 -1.224147e+05        0
       0        0        0

-1.197352e+05 1.182465e+05        0
1.182465e+05 -1.105633e+05        0
       0        0        0

-1.275937e+05 1.101324e+05        0
1.101324e+05 -1.015089e+05        0
       0        0        0

-1.388105e+05 9.239931e+04        0
9.239931e+04 -9.940941e+04        0
       0        0        0

-1.599556e+05 6.132434e+04        0
6.132434e+04 -1.076187e+05        0
       0        0        0

-2.058133e+05 1.779728e+04        0
1.779728e+04 -1.200640e+05        0
       0        0        0

-9.015602e+04 4.054681e+04        0
4.054681e+04 -1.560211e+05        0
       0        0        0

-1.135896e+05 7.593280e+04        0
7.593280e+04 -1.855884e+05        0
       0        0        0

-1.148222e+05 8.919819e+04        0
8.919819e+04 -1.814698e+05        0
       0        0        0

-1.151394e+05 9.570499e+04        0
9.570499e+04 -1.605808e+05        0
       0        0        0

-1.155013e+05 9.855358e+04        0
9.855358e+04 -1.315399e+05        0
       0        0        0

-1.165883e+05 9.855548e+04        0
9.855548e+04 -1.005494e+05        0
       0        0        0

-1.186159e+05 9.571015e+04        0
9.571015e+04 -7.317182e+04        0
       0        0        0

-1.223082e+05 8.920499e+04        0
8.920499e+04 -5.565510e+04        0
       0        0        0

-1.286506e+05 7.593841e+04        0
7.593841e+04 -5.664582e+04        0
       0        0        0

-1.583932e+05 4.054659e+04        0
4.054659e+04 -9.252833e+04        0
       0        0        0

POINT_DATA     451
VECTORS DISPLACEMENT_3.200000e-01 double
0.000000e+00    0.000000e+00    0.000000e+00
0.000000e+00    0.000000e+00    0.000000e+00
0.000000e+00    0.000000e+00    0.000000e+00
0.000000e+00    0.000000e+00    0.000000e+00
0.000000e+00    0.000000e+00    0.000000e+00
0.000000e+00    0.000000e+00    0.000000e+00
0.000000e+00    0.000000e+00    0.000000e+00
0.000000e+00    0.000000e+00    0.000000e+00
0.000000e+00    0.000000e+00    0.000000e+00
0.000000e+00    0.000000e+00    0.000000e+00
0.000000e+00    0.000000e+00    0.000000e+00
-1.140630e-06    -8.292356e-07    0.000000e+00
-7.227465e-07    -4.159288e-07    0.000000e+00
-5.156918e-07    -2.155071e-07    0.000000e+00
-3.329521e-07    -1.066985e-07    0.000000e+00
-1.641530e-07    -5.038461e-08    0.000000e+00
-3.490567e-20    -3.287529e-08    0.000000e+00
1.641530e-07    -5.038461e-08    0.000000e+00
3.329521e-07    -1.066985e-07    0.000000e+00
5.156918e-07    -2.155071e-07    0.000000e+00
7.227465e-07    -4.159288e-07    0.000000e+00
1.140630e-06    -8.292356e-07    0.000000e+00
-2.152135e-06    -1.379089e-06    0.000000e+00
-1.573136e-06    -9.978596e-07    0.000000e+00
-1.104190e-06    -7.008874e-07    0.000000e+00
-7.122507e-07    -5.171870e-07    0.000000e+00
-3.498192e-07    -4.170899e-07    0.000000e+00
-7.375887e-20    -3.852954e-07    0.000000e+00
3.498192e-07    -4.170899e-07    0.000000e+00
7.122507e-07    -5.171870e-07    0.000000e+00
1.104190e-06    -7.008874e-07    0.000000e+00
1.573136e-06    -9.978596e-07    0.000000e+00
2.152135e-06    -1.379089e-06    0.000000e+00
-3.129822e-06    -2.062808e-06    0.000000e+00
-2.392200e-06    -1.680741e-06    0.000000e+00
-1.721299e-06    -1.379488e-06    0.000000e+00
-1.114337e-06    -1.166994e-06    0.000000e+00
-5.483060e-07    -1.044516e-06    0.000000e+00
-1.161990e-19    -1.004620e-06    0.000000e+00
5.483060e-07    -1.044516e-06    0.000000e+00
1.114337e-06    -1.166994e-06    0.000000e+00
1.721299e-06    -1.379488e-06    0.000000e+00
2.392200e-06    -1.680741e-06    0.000000e+00
3.129822e-06    -2.062808e-06    0.000000e+00
-4.096691e-06    -2.906612e-06    0.000000e+00
-3.184269e-06    -2.533261e-06    0.000000e+00
-2.325069e-06    -2.237029e-06    0.000000e+00
-1.518181e-06    -2.023251e-06    0.000000e+00
-7.494516e-07    -1.894932e-06    0.000000e+00
-1.604929e-19    -1.852383e-06    0.000000e+00
7.494516e-07    -1.894932e-06    0.000000e+00
1.518181e-06    -2.023251e-06    0.000000e+00
2.325069e-06    -2.237029e-06    0.000000e+00
3.184269e-06    -2.533261e-06    0.000000e+00
4.096691e-06    -2.906612e-06    0.000000e+00
-5.047198e-06    -3.933213e-06    0.000000e+00
-3.953257e-06    -3.568573e-06    0.000000e+00
-2.909631e-06    -3.281283e-06    0.000000e+00
-1.911325e-06    -3.073129e-06    0.000000e+00
-9.467890e-07    -2.947117e-06    0.000000e+00
-2.057893e-19    -2.904937e-06    0.000000e+00
9.467890e-07    -2.947117e-06    0.000000e+00
1.911325e-06    -3.073129e-06    0.000000e+00
2.909631e-06    -3.281283e-06    0.000000e+00
3.953257e-06    -3.568573e-06    0.000000e+00
5.047198e-06    -3.933213e-06    0.000000e+00
-5.976999e-06    -5.145274e-06    0.000000e+00
-4.700705e-06    -4.790277e-06    0.000000e+00
-3.474939e-06    -4.512070e-06    0.000000e+00
-2.291082e-06    -4.311280e-06    0.000000e+00
-1.137573e-06    -4.189748e-06    0.000000e+00
-2.520849e-19    -4.149051e-06    0.000000e+00
1.137573e-06    -4.189748e-06    0.000000e+00
2.291082e-06    -4.311280e-06    0.000000e+00
3.474939e-06    -4.512070e-06    0.000000e+00
4.700705e-06    -4.790277e-06    0.000000e+00
5.976999e-06    -5.145274e-06    0.000000e+00
-6.882981e-06    -6.540739e-06    0.000000e+00
-5.426882e-06    -6.195783e-06    0.000000e+00
-4.022069e-06    -5.926426e-06    0.000000e+00
-2.657645e-06    -5.732815e-06    0.000000e+00
-1.321508e-06    -5.615962e-06    0.000000e+00
-2.957468e-19    -5.576876e-06    0.000000e+00
1.321508e-06    -5.615962e-06    0.000000e+00
2.657645e-06    -5.732815e-06    0.000000e+00
4.022069e-06    -5.926426e-06    0.000000e+00
5.426882e-06    -6.195783e-06    0.000000e+00
6.882981e-06    -6.540739e-06    0.000000e+00
-7.763426e-06    -8.115195e-06    0.000000e+00
-6.131698e-06    -7.780515e-06    0.000000e+00
-4.551878e-06    -7.519718e-06    0.000000e+00
-3.011831e-06    -7.332808e-06    0.000000e+00
-1.498983e-06    -7.220280e-06    0.000000e+00
-3.395543e-19    -7.182693e-06    0.000000e+00
1.498983e-06    -7.220280e-06    0.000000e+00
3.011831e-06    -7.332808e-06    0.000000e+00
4.551878e-06    -7.519718e-06    0.000000e+00
6.131698e-06    -7.780515e-06    0.000000e+00
7.763426e-06    -8.115195e-06    0.000000e+00
-8.617445e-06    -9.863455e-06    0.000000e+00
-6.815023e-06    -9.539161e-06    0.000000e+00
-5.064895e-06    -9.286726e-06    0.000000e+00
-3.354319e-06    -9.106120e-06    0.000000e+00
-1.670425e-06    -8.997566e-06    0.000000e+00
-3.836530e-19    -8.961342e-06    0.000000e+00
1.670425e-06    -8.997566e-06    0.000000e+00
3.354319e-06    -9.106120e-06    0.000000e+00
5.064895e-06    -9.286726e-06    0.000000e+00
6.815023e-06    -9.539161e-06    0.000000e+00
8.617445e-06    -9.863455e-06    0.000000e+00
-9.444622e-06    -1.178008e-05    0.000000e+00
-7.476761e-06    -1.146622e-05    0.000000e+00
-5.561404e-06    -1.122203e-05    0.000000e+00
-3.685537e-06    -1.104748e-05    0.000000e+00
-1.836126e-06    -1.094266e-05    0.000000e+00
-4.286516e-19    -1.090771e-05    0.000000e+00
1.836126e-06    -1.094266e-05    0.000000e+00
3.685537e-06    -1.104748e-05    0.000000e+00
5.561404e-06    -1.122203e-05    0.000000e+00
7.476761e-06    -1.146622e-05    0.000000e+00
9.444622e-06    -1.178008e-05    0.000000e+00
-1.024478e-05    -1.385958e-05    0.000000e+00
-8.116859e-06    -1.355617e-05    0.000000e+00
-6.041546e-06    -1.332016e-05    0.000000e+00
-4.005716e-06    -1.315153e-05    0.000000e+00
-1.996254e-06    -1.305032e-05    0.000000e+00
-4.657622e-19    -1.301658e-05    0.000000e+00
1.996254e-06    -1.305032e-05    0.000000e+00
4.005716e-06    -1.315153e-05    0.000000e+00
6.041546e-06    -1.332016e-05    0.000000e+00
8.116859e-06    -1.355617e-05    0.000000e+00
1.024478e-05    -1.385958e-05    0.000000e+00
-1.101784e-05    -1.609647e-05    0.000000e+00
-8.735287e-06    -1.580352e-05    0.000000e+00
-6.505383e-06    -1.557566e-05    0.000000e+00
-4.314969e-06    -1.541289e-05    0.000000e+00
-2.150896e-06    -1.531522e-05    0.000000e+00
-5.054669e-19    -1.528266e-05    0.000000e+00
2.150896e-06    -1.531522e-05    0.000000e+00
4.314969e-06    -1.541289e-05    0.000000e+00
6.505383e-06    -1.557566e-05    0.000000e+00
8.735287e-06    -1.580352e-05    0.000000e+00
1.101784e-05    -1.609647e-05    0.000000e+00
-1.176380e-05    -1.848530e-05    0.000000e+00
-9.332032e-06    -1.820280e-05    0.000000e+00
-6.952941e-06    -1.798309e-05    0.000000e+00
-4.613348e-06    -1.782615e-05    0.000000e+00
-2.300090e-06    -1.773198e-05    0.000000e+00
-5.520008e-19    -1.770059e-05    0.000000e+00
2.300090e-06    -1.773198e-05    0.000000e+00
4.613348e-06    -1.782615e-05    0.000000e+00
6.952941e-06    -1.798309e-05    0.000000e+00
9.332032e-06    -1.820280e-05    0.000000e+00
1.176380e-05    -1.848530e-05    0.000000e+00
-1.248263e-05    -2.102062e-05    0.000000e+00
-9.907089e-06    -2.074859e-05    0.000000e+00
-7.384229e-06    -2.053701e-05    0.000000e+00
-4.900874e-06    -2.038588e-05    0.000000e+00
-2.443853e-06    -2.029521e-05    0.000000e+00
-5.796882e-19    -2.026498e-05    0.000000e+00
2.443853e-06    -2.029521e-05    0.000000e+00
4.900874e-06    -2.038588e-05    0.000000e+00
7.384229e-06    -2.053701e-05    0.000000e+00
9.907089e-06    -2.074859e-05    0.000000e+00
1.248263e-05    -2.102062e-05    0.000000e+00
-1.317434e-05    -2.369700e-05    0.000000e+00
-1.046045e-05    -2.343543e-05    0.000000e+00
-7.799249e-06    -2.323199e-05    0.000000e+00
-5.177552e-06    -2.308667e-05    0.000000e+00
-2.582192e-06    -2.299948e-05    0.000000e+00
-6.042521e-19    -2.297042e-05    0.000000e+00
2.582192e-06    -2.299948e-05    0.000000e+00
5.177552e-06    -2.308667e-05    0.000000e+00
7.799249e-06    -2.323199e-05    0.000000e+00
1.046045e-05    -2.343543e-05    0.000000e+00
1.317434e-05    -2.369700e-05    0.000000e+00
-1.383894e-05    -2.650902e-05    0.000000e+00
-1.099213e-05    -2.625791e-05    0.000000e+00
-8.198001e-06    -2.606260e-05    0.000000e+00
-5.443385e-06    -2.592309e-05    0.000000e+00
-2.715108e-06    -2.583939e-05    0.000000e+00
-6.251103e-19    -2.581149e-05    0.000000e+00
2.715108e-06    -2.583939e-05    0.000000e+00
5.443385e-06    -2.592309e-05    0.000000e+00
8.198001e-06    -2.606260e-05    0.000000e+00
1.099213e-05    -2.625791e-05    0.000000e+00
1.383894e-05    -2.650902e-05    0.000000e+00
-1.447642e-05    -2.945125e-05    0.000000e+00
-1.150211e-05    -2.921059e-05    0.000000e+00
-8.580485e-06    -2.902342e-05    0.000000e+00
-5.698373e-06    -2.888972e-05    0.000000e+00
-2.842601e-06    -2.880951e-05    0.000000e+00
-6.325219e-19    -2.878277e-05    0.000000e+00
2.842601e-06    -2.880951e-05    0.000000e+00
5.698373e-06    -2.888972e-05    0.000000e+00
8.580485e-06    -2.902342e-05    0.000000e+00
1.150211e-05    -2.921059e-05    0.000000e+00
1.447642e-05    -2.945125e-05    0.000000e+00
-1.508678e-05    -3.251826e-05    0.000000e+00
-1.199040e-05    -3.228807e-05    0.000000e+00
-8.946699e-06    -3.210903e-05    0.000000e+00
-5.942515e-06    -3.198114e-05    0.000000e+00
-2.964672e-06    -3.190441e-05    0.000000e+00
-6.496743e-19    -3.187883e-05    0.000000e+00
2.964672e-06    -3.190441e-05    0.000000e+00
5.942515e-06    -3.198114e-05    0.000000e+00
8.946699e-06    -3.210903e-05    0.000000e+00
1.199040e-05    -3.228807e-05    0.000000e+00
1.508678e-05    -3.251826e-05    0.000000e+00
-1.567002e-05    -3.570464e-05    0.000000e+00
-1.245699e-05    -3.548490e-05    0.000000e+00
-9.296644e-06    -3.531400e-05    0.000000e+00
-6.175810e-06    -3.519192e-05    0.000000e+00
-3.081320e-06    -3.511868e-05    0.000000e+00
-6.776264e-19    -3.509426e-05    0.000000e+00
3.081320e-06    -3.511868e-05    0.000000e+00
6.175810e-06    -3.519192e-05    0.000000e+00
9.296644e-06    -3.531400e-05    0.000000e+00
1.245699e-05    -3.548490e-05    0.000000e+00
1.567002e-05    -3.570464e-05    0.000000e+00
-1.622615e-05    -3.900495e-05    0.000000e+00
-1.290189e-05    -3.879568e-05    0.000000e+00
-9.630319e-06    -3.863291e-05    0.000000e+00
-6.398260e-06    -3.851665e-05    0.000000e+00
-3.192544e-06    -3.844689e-05    0.000000e+00
-7.267543e-19    -3.842364e-05    0.000000e+00
3.192544e-06    -3.844689e-05    0.000000e+00
6.398260e-06    -3.851665e-05    0.000000e+00
9.630319e-06    -3.863291e-05    0.000000e+00
1.290189e-05    -3.879568e-05    0.000000e+00
1.622615e-05    -3.900495e-05    0.000000e+00
-1.675516e-05    -4.241379e-05    0.000000e+00
-1.332510e-05    -4.221497e-05    0.000000e+00
-9.947723e-06    -4.206034e-05    0.000000e+00
-6.609862e-06    -4.194989e-05    0.000000e+00
-3.298345e-06    -4.188361e-05    0.000000e+00
-7.913405e-19    -4.186152e-05    0.000000e+00
3.298345e-06    -4.188361e-05    0.000000e+00
6.609862e-06    -4.194989e-05    0.000000e+00
9.947723e-06    -4.206034e-05    0.000000e+00
1.332510e-05    -4.221497e-05    0.000000e+00
1.675516e-05    -4.241379e-05    0.000000e+00
-1.725706e-05    -4.592571e-05    0.000000e+00
-1.372661e-05    -4.573736e-05    0.000000e+00
-1.024886e-05    -4.559086e-05    0.000000e+00
-6.810616e-06    -4.548622e-05    0.000000e+00
-3.398722e-06    -4.542343e-05    0.000000e+00
-8.423743e-19    -4.540251e-05    0.000000e+00
3.398722e-06    -4.542343e-05    0.000000e+00
6.810616e-06    -4.548622e-05    0.000000e+00
1.024886e-05    -4.559086e-05    0.000000e+00
1.372661e-05    -4.573736e-05    0.000000e+00
1.725706e-05    -4.592571e-05    0.000000e+00
-1.773183e-05    -4.953531e-05    0.000000e+00
-1.410643e-05    -4.935742e-05    0.000000e+00
-1.053372e-05    -4.921905e-05    0.000000e+00
-7.000523e-06    -4.912022e-05    0.000000e+00
-3.493675e-06    -4.906093e-05    0.000000e+00
-8.804907e-19    -4.904116e-05    0.000000e+00
3.493675e-06    -4.906093e-05    0.000000e+00
7.000523e-06    -4.912022e-05    0.000000e+00
1.053372e-05    -4.921905e-05    0.000000e+00
1.410643e-05    -4.935742e-05    0.000000e+00
1.773183e-05    -4.953531e-05    0.000000e+00
-1.817949e-05    -5.323715e-05    0.000000e+00
-1.446455e-05    -5.306972e-05    0.000000e+00
-1.080231e-05    -5.293949e-05    0.000000e+00
-7.179583e-06    -5.284647e-05    0.000000e+00
-3.583205e-06    -5.279066e-05    0.000000e+00
-9.321598e-19    -5.277206e-05    0.000000e+00
3.583205e-06    -5.279066e-05    0.000000e+00
7.179583e-06    -5.284647e-05    0.000000e+00
1.080231e-05    -5.293949e-05    0.000000e+00
1.446455e-05    -5.306972e-05    0.000000e+00
1.817949e-05    -5.323715e-05    0.000000e+00
-1.860002e-05    -5.702582e-05    0.000000e+00
-1.480097e-05    -5.686885e-05    0.000000e+00
-1.105462e-05    -5.674676e-05    0.000000e+00
-7.347794e-06    -5.665955e-05    0.000000e+00
-3.667311e-06    -5.660723e-05    0.000000e+00
-9.499475e-19    -5.658978e-05    0.000000e+00
3.667311e-06    -5.660723e-05    0.000000e+00
7.347794e-06    -5.665955e-05    0.000000e+00
1.105462e-05    -5.674676e-05    0.000000e+00
1.480097e-05    -5.686885e-05    0.000000e+00
1.860002e-05    -5.702582e-05    0.000000e+00
-1.899343e-05    -6.089588e-05    0.000000e+00
-1.511570e-05    -6.074937e-05    0.000000e+00
-1.129067e-05    -6.063542e-05    0.000000e+00
-7.505157e-06    -6.055402e-05    0.000000e+00
-3.745992e-06    -6.050519e-05    0.000000e+00
-9.645588e-19    -6.048891e-05    0.000000e+00
3.745992e-06    -6.050519e-05    0.000000e+00
7.505157e-06    -6.055402e-05    0.000000e+00
1.129067e-05    -6.063542e-05    0.000000e+00
1.511570e-05    -6.074937e-05    0.000000e+00
1.899343e-05    -6.089588e-05    0.000000e+00
-1.935972e-05    -6.484192e-05    0.000000e+00
-1.540873e-05    -6.470587e-05    0.000000e+00
-1.151044e-05    -6.460006e-05    0.000000e+00
-7.651672e-06    -6.452447e-05    0.000000e+00
-3.819250e-06    -6.447912e-05    0.000000e+00
-9.751467e-19    -6.446401e-05    0.000000e+00
3.819250e-06    -6.447912e-05    0.000000e+00
7.651672e-06    -6.452447e-05    0.000000e+00
1.151044e-05    -6.460006e-05    0.000000e+00
1.540873e-05    -6.470587e-05    0.000000e+00
1.935972e-05    -6.484192e-05    0.000000e+00
-1.969888e-05    -6.885851e-05    0.000000e+00
-1.568006e-05    -6.873292e-05    0.000000e+00
-1.171394e-05    -6.863524e-05    0.000000e+00
-7.787337e-06    -6.856547e-05    0.000000e+00
-3.887082e-06    -6.852361e-05    0.000000e+00
-9.641353e-19    -6.850966e-05    0.000000e+00
3.887082e-06    -6.852361e-05    0.000000e+00
7.787337e-06    -6.856547e-05    0.000000e+00
1.171394e-05    -6.863524e-05    0.000000e+00
1.568006e-05    -6.873292e-05    0.000000e+00
1.969888e-05    -6.885851e-05    0.000000e+00
-2.001091e-05    -7.294020e-05    0.000000e+00
-1.592969e-05    -7.282508e-05    0.000000e+00
-1.190116e-05    -7.273554e-05    0.000000e+00
-7.912149e-06    -7.267160e-05    0.000000e+00
-3.949485e-06    -7.263324e-05    0.000000e+00
-9.673116e-19    -7.262045e-05    0.000000e+00
3.949485e-06    -7.263324e-05    0.000000e+00
7.912149e-06    -7.267160e-05    0.000000e+00
1.190116e-05    -7.273554e-05    0.000000e+00
1.592969e-05    -7.282508e-05    0.000000e+00
2.001091e-05    -7.294020e-05    0.000000e+00
-2.029581e-05    -7.708158e-05    0.000000e+00
-1.615762e-05    -7.697692e-05    0.000000e+00
-1.207210e-05    -7.689553e-05    0.000000e+00
-8.026094e-06    -7.683743e-05    0.000000e+00
-4.006450e-06    -7.680258e-05    0.000000e+00
-1.008816e-18    -7.679097e-05    0.000000e+00
4.006450e-06    -7.680258e-05    0.000000e+00
8.026094e-06    -7.683743e-05    0.000000e+00
1.207210e-05    -7.689553e-05    0.000000e+00
1.615762e-05    -7.697692e-05    0.000000e+00
2.029581e-05    -7.708158e-05    0.000000e+00
-2.055359e-05    -8.127719e-05    0.000000e+00
-1.636387e-05    -8.118299e-05    0.000000e+00
-1.222675e-05    -8.110977e-05    0.000000e+00
-8.129145e-06    -8.105754e-05    0.000000e+00
-4.057953e-06    -8.102626e-05    0.000000e+00
-1.072344e-18    -8.101584e-05    0.000000e+00
4.057953e-06    -8.102626e-05    0.000000e+00
8.129145e-06    -8.105754e-05    0.000000e+00
1.222675e-05    -8.110977e-05    0.000000e+00
1.636387e-05    -8.118299e-05    0.000000e+00
2.055359e-05    -8.127719e-05    0.000000e+00
-2.078430e-05    -8.552157e-05    0.000000e+00
-1.654844e-05    -8.543782e-05    0.000000e+00
-1.236506e-05    -8.537280e-05    0.000000e+00
-8.221232e-06    -8.532654e-05    0.000000e+00
-4.103942e-06    -8.529889e-05    0.000000e+00
-1.156623e-18    -8.528970e-05    0.000000e+00
4.103942e-06    -8.529889e-05    0.000000e+00
8.221232e-06    -8.532654e-05    0.000000e+00
1.236506e-05    -8.537280e-05    0.000000e+00
1.654844e-05    -8.543782e-05    0.000000e+00
2.078430e-05    -8.552157e-05    0.000000e+00
-2.098802e-05    -8.980923e-05    0.000000e+00
-1.671137e-05    -8.973591e-05    0.000000e+00
-1.248696e-05    -8.967917e-05    0.000000e+00
-8.302212e-06    -8.963903e-05    0.000000e+00
-4.144313e-06    -8.961517e-05    0.000000e+00
-1.231586e-18    -8.960727e-05    0.000000e+00
4.144313e-06    -8.961517e-05    0.000000e+00
8.302212e-06    -8.963903e-05    0.000000e+00
1.248696e-05    -8.967917e-05    0.000000e+00
1.671137e-05    -8.973591e-05    0.000000e+00
2.098802e-05    -8.980923e-05    0.000000e+00
-2.116500e-05    -9.413473e-05    0.000000e+00
-1.685272e-05    -9.407176e-05    0.000000e+00
-1.259226e-05    -9.402344e-05    0.000000e+00
-8.371813e-06    -9.398968e-05    0.000000e+00
-4.178874e-06    -9.396986e-05    0.000000e+00
-1.269702e-18    -9.396335e-05    0.000000e+00
4.178874e-06    -9.396986e-05    0.000000e+00
8.371813e-06    -9.398968e-05    0.000000e+00
1.259226e-05    -9.402344e-05    0.000000e+00
1.685272e-05    -9.407176e-05    0.000000e+00
2.116500e-05    -9.413473e-05    0.000000e+00
-2.131578e-05    -9.849270e-05    0.000000e+00
-1.697258e-05    -9.843996e-05    0.000000e+00
-1.268063e-05    -9.840025e-05    0.000000e+00
-8.429575e-06    -9.837325e-05    0.000000e+00
-4.207328e-06    -9.835776e-05    0.000000e+00
-1.324760e-18    -9.835274e-05    0.000000e+00
4.207328e-06    -9.835776e-05    0.000000e+00
8.429575e-06    -9.837325e-05    0.000000e+00
1.268063e-05    -9.840025e-05    0.000000e+00
1.697258e-05    -9.843996e-05    0.000000e+00
2.131578e-05    -9.849270e-05    0.000000e+00
-2.144146e-05    -1.028783e-04    0.000000e+00
-1.707104e-05    -1.028355e-04    0.000000e+00
-1.275150e-05    -1.028046e-04    0.000000e+00
-8.474876e-06    -1.027846e-04    0.000000e+00
-4.229324e-06    -1.027736e-04    0.000000e+00
-1.379393e-18    -1.027700e-04    0.000000e+00
4.229324e-06    -1.027736e-04    0.000000e+00
8.474876e-06    -1.027846e-04    0.000000e+00
1.275150e-05    -1.028046e-04    0.000000e+00
1.707104e-05    -1.028355e-04    0.000000e+00
2.144146e-05    -1.028783e-04    0.000000e+00
-2.154400e-05    -1.072878e-04    0.000000e+00
-1.714802e-05    -1.072544e-04    0.000000e+00
-1.280410e-05    -1.072323e-04    0.000000e+00
-8.507254e-06    -1.072187e-04    0.000000e+00
-4.244756e-06    -1.072112e-04    0.000000e+00
-1.334500e-18    -1.072088e-04    0.000000e+00
4.244756e-06    -1.072112e-04    0.000000e+00
8.507254e-06    -1.072187e-04    0.000000e+00
1.280410e-05    -1.072323e-04    0.000000e+00
1.714802e-05    -1.072544e-04    0.000000e+00
2.154400e-05    -1.072878e-04    0.000000e+00
-2.162649e-05    -1.117211e-04    0.000000e+00
-1.720296e-05    -1.116961e-04    0.000000e+00
-1.283822e-05    -1.116810e-04    0.000000e+00
-8.527615e-06    -1.116700e-04    0.000000e+00
-4.254455e-06    -1.116625e-04    0.000000e+00
-1.262926e-18    -1.116598e-04    0.000000e+00
4.254455e-06    -1.116625e-04    0.000000e+00
8.527615e-06    -1.116700e-04    0.000000e+00
1.283822e-05    -1.116810e-04    0.000000e+00
1.720296e-05    -1.116961e-04    0.000000e+00
2.162649e-05    -1.117211e-04    0.000000e+00
-2.169095e-05    -1.161864e-04    0.000000e+00
-1.723482e-05    -1.161684e-04    0.000000e+00
-1.285776e-05    -1.161499e-04    0.000000e+00
-8.540548e-06    -1.161293e-04    0.000000e+00
-4.261037e-06    -1.161139e-04    0.000000e+00
-1.244291e-18    -1.161083e-04    0.000000e+00
4.261037e-06    -1.161139e-04    0.000000e+00
8.540548e-06    -1.161293e-04    0.000000e+00
1.285776e-05    -1.161499e-04    0.000000e+00
1.723482e-05    -1.161684e-04    0.000000e+00
2.169095e-05    -1.161864e-04    0.000000e+00
-2.172506e-05    -1.207237e-04    0.000000e+00
-1.725500e-05    -1.206890e-04    0.000000e+00
-1.287758e-05    -1.206305e-04    0.000000e+00
-8.555661e-06    -1.205777e-04    0.000000e+00
-4.269210e-06    -1.205425e-04    0.000000e+00
-1.225021e-18    -1.205302e-04    0.000000e+00
4.269210e-06    -1.205425e-04    0.000000e+00
8.555661e-06    -1.205777e-04    0.000000e+00
1.287758e-05    -1.206305e-04    0.000000e+00
1.725500e-05    -1.206890e-04    0.000000e+00
2.172506e-05    -1.207237e-04    0.000000e+00

CELL_DATA      400
TENSORS Element_Stress3.200000e-01 double
1.819068e+06 2.549533e+05        0
2.549533e+05 4.159961e+05        0
       0        0        0

1.242693e+06 1.307230e+05        0
1.307230e+05 3.563198e+05        0
       0        0        0

8.644097e+05 4.294842e+04        0
4.294842e+04 2.747675e+05        0
       0        0        0

5.095905e+05 -3.604554e+03        0
-3.604554e+03 1.688696e+05        0
       0        0        0

1.687168e+05 -2.489325e+04        0
-2.489325e+04 5.690272e+04        0
       0        0        0

-1.686811e+05 -2.488712e+04        0
-2.488712e+04 -5.691073e+04        0
       0        0        0

-5.091155e+05 -3.605276e+03        0
-3.605276e+03 -1.687052e+05        0
       0        0        0

-8.630011e+05 4.287677e+04        0
4.287677e+04 -2.742396e+05        0
       0        0        0

-1.239712e+06 1.304349e+05        0
1.304349e+05 -3.551778e+05        0
       0        0        0

-1.812855e+06 2.541442e+05        0
2.541442e+05 -4.138478e+05        0
       0        0        0

1.640710e+06 4.155178e+04        0
4.155178e+04 4.230167e+03        0
       0        0        0

1.321267e+06 1.205219e+05        0
1.205219e+05 1.285733e+05        0
       0        0        0

9.075114e+05 9.889759e+04        0
9.889759e+04 1.314068e+05        0
       0        0        0

5.359673e+05 7.571363e+04        0
7.571363e+04 9.185514e+04        0
       0        0        0

1.766744e+05 6.313321e+04        0
6.313321e+04 3.205077e+04        0
       0        0        0

-1.777104e+05 6.311491e+04        0
6.311491e+04 -3.314022e+04        0
       0        0        0

-5.365001e+05 7.564832e+04        0
7.564832e+04 -9.276527e+04        0
       0        0        0

-9.069661e+05 9.875769e+04        0
9.875769e+04 -1.319245e+05        0
       0        0        0

-1.318747e+06 1.202848e+05        0
1.202848e+05 -1.283215e+05        0
       0        0        0

-1.636113e+06 4.146529e+04        0
4.146529e+04 -3.133311e+03        0
       0        0        0

1.583658e+06 1.539463e+04        0
1.539463e+04 6.609992e+03        0
       0        0        0

1.270556e+06 6.825274e+04        0
6.825274e+04 1.756158e+04        0
       0        0        0

9.139002e+05 1.014512e+05        0
1.014512e+05 4.233993e+04        0
       0        0        0

5.426448e+05 1.073556e+05        0
1.073556e+05 3.589279e+04        0
       0        0        0

1.790028e+05 1.072832e+05        0
1.072832e+05 1.271047e+04        0
       0        0        0

-1.823302e+05 1.072554e+05        0
1.072554e+05 -1.609621e+04        0
       0        0        0

-5.454411e+05 1.072726e+05        0
1.072726e+05 -3.908884e+04        0
       0        0        0

-9.155674e+05 1.013223e+05        0
1.013223e+05 -4.511108e+04        0
       0        0        0

-1.270529e+06 6.813810e+04        0
6.813810e+04 -1.964930e+04        0
       0        0        0

-1.581685e+06 1.536279e+04        0
1.536279e+04 -7.903680e+03        0
       0        0        0

1.544884e+06 1.425396e+04        0
1.425396e+04 -3.970408e+03        0
       0        0        0

1.225696e+06 5.541576e+04        0
5.541576e+04 -1.950320e+03        0
       0        0        0

8.858429e+05 9.234536e+04        0
9.234536e+04 2.931699e+03        0
       0        0        0

5.327060e+05 1.144753e+05        0
1.144753e+05 5.874171e+03        0
       0        0        0

1.752363e+05 1.232211e+05        0
1.232211e+05 6.897680e+02        0
       0        0        0

-1.818948e+05 1.231916e+05        0
1.231916e+05 -7.406311e+03        0
       0        0        0

-5.388393e+05 1.143938e+05        0
1.143938e+05 -1.239739e+04        0
       0        0        0

-8.909153e+05 9.223794e+04        0
9.223794e+04 -9.046376e+03        0
       0        0        0

-1.229195e+06 5.532773e+04        0
5.532773e+04 -3.522329e+03        0
       0        0        0

-1.546284e+06 1.422601e+04        0
1.422601e+04 -5.474798e+02        0
       0        0        0

1.508229e+06 1.710905e+04        0
1.710905e+04 -5.558596e+03        0
       0        0        0

1.184399e+06 5.442269e+04        0
5.442269e+04 -8.566637e+03        0
       0        0        0

8.534803e+05 8.895299e+04        0
8.895299e+04 -8.318746e+03        0
       0        0        0

5.133298e+05 1.135137e+05        0
1.135137e+05 -6.735925e+03        0
       0        0        0

1.679766e+05 1.257053e+05        0
1.257053e+05 -5.630106e+03        0
       0        0        0

-1.788432e+05 1.256771e+05        0
1.256771e+05 -5.291518e+03        0
       0        0        0

-5.237021e+05 1.134376e+05        0
1.134376e+05 -4.001631e+03        0
       0        0        0

-8.628625e+05 8.885461e+04        0
8.885461e+04 -2.035839e+03        0
       0        0        0

-1.192290e+06 5.433961e+04        0
5.433961e+04 -1.173816e+03        0
       0        0        0

-1.514063e+06 1.707614e+04        0
1.707614e+04 -3.257976e+03        0
       0        0        0

1.468521e+06 1.956627e+04        0
1.956627e+04 -7.898687e+03        0
       0        0        0

1.146181e+06 5.637985e+04        0
5.637985e+04 -1.053289e+04        0
       0        0        0

8.217746e+05 8.828517e+04        0
8.828517e+04 -1.191159e+04        0
       0        0        0

4.924811e+05 1.116466e+05        0
1.116466e+05 -1.112349e+04        0
       0        0        0

1.592880e+05 1.238231e+05        0
1.238231e+05 -9.143816e+03        0
       0        0        0

-1.751256e+05 1.237965e+05        0
1.237965e+05 -6.745058e+03        0
       0        0        0

-5.078651e+05 1.115748e+05        0
1.115748e+05 -4.600387e+03        0
       0        0        0

-8.362491e+05 8.819112e+04        0
8.819112e+04 -3.470361e+03        0
       0        0        0

-1.159275e+06 5.629633e+04        0
5.629633e+04 -4.302364e+03        0
       0        0        0

-1.479710e+06 1.952956e+04        0
1.952956e+04 -6.128293e+03        0
       0        0        0

1.425970e+06 2.111979e+04        0
2.111979e+04 -1.051216e+04        0
       0        0        0

1.109001e+06 5.828263e+04        0
5.828263e+04 -1.234747e+04        0
       0        0        0

7.917990e+05 8.854067e+04        0
8.854067e+04 -1.360093e+04        0
       0        0        0

4.722699e+05 1.102186e+05        0
1.102186e+05 -1.335064e+04        0
       0        0        0

1.505123e+05 1.215373e+05        0
1.215373e+05 -1.179841e+04        0
       0        0        0

-1.720039e+05 1.215121e+05        0
1.215121e+05 -9.740891e+03        0
       0        0        0

-4.933557e+05 1.101502e+05        0
1.101502e+05 -8.051847e+03        0
       0        0        0

-8.120696e+05 8.844930e+04        0
8.844930e+04 -7.519042e+03        0
       0        0        0

-1.128033e+06 5.819874e+04        0
5.819874e+04 -8.324315e+03        0
       0        0        0

-1.443306e+06 2.108119e+04        0
2.108119e+04 -9.512210e+03        0
       0        0        0

1.381426e+06 2.197673e+04        0
2.197673e+04 -1.361452e+04        0
       0        0        0

1.072082e+06 5.954631e+04        0
5.954631e+04 -1.469809e+04        0
       0        0        0

7.630060e+05 8.890958e+04        0
8.890958e+04 -1.554974e+04        0
       0        0        0

4.529774e+05 1.093627e+05        0
1.093627e+05 -1.549989e+04        0
       0        0        0

1.418555e+05 1.199013e+05        0
1.199013e+05 -1.456453e+04        0
       0        0        0

-1.696183e+05 1.198772e+05        0
1.198772e+05 -1.324272e+04        0
       0        0        0

-4.803867e+05 1.092970e+05        0
1.092970e+05 -1.220533e+04        0
       0        0        0

-7.897047e+05 8.882058e+04        0
8.882058e+04 -1.194515e+04        0
       0        0        0

-1.097702e+06 5.946308e+04        0
5.946308e+04 -1.246514e+04        0
       0        0        0

-1.405580e+06 2.193770e+04        0
2.193770e+04 -1.307656e+04        0
       0        0        0

1.335659e+06 2.240572e+04        0
2.240572e+04 -1.710137e+04        0
       0        0        0

1.035080e+06 6.025717e+04        0
6.025717e+04 -1.767836e+04        0
       0        0        0

7.348296e+05 8.917979e+04        0
8.917979e+04 -1.816426e+04        0
       0        0        0

4.342714e+05 1.089093e+05        0
1.089093e+05 -1.817661e+04        0
       0        0        0

1.332654e+05 1.189420e+05        0
1.189420e+05 -1.767872e+04        0
       0        0        0

-1.678532e+05 1.189189e+05        0
1.189189e+05 -1.695055e+04        0
       0        0        0

-4.685602e+05 1.088459e+05        0
1.088459e+05 -1.638906e+04        0
       0        0        0

-7.685172e+05 8.909323e+04        0
8.909323e+04 -1.626985e+04        0
       0        0        0

-1.067857e+06 6.017548e+04        0
6.017548e+04 -1.654765e+04        0
       0        0        0

-1.367202e+06 2.236712e+04        0
2.236712e+04 -1.682845e+04        0
       0        0        0

1.289171e+06 2.260237e+04        0
2.260237e+04 -2.089926e+04        0
       0        0        0

9.978925e+05 6.061538e+04        0
6.061538e+04 -2.115767e+04        0
       0        0        0

7.068775e+05 8.933870e+04        0
8.933870e+04 -2.138927e+04        0
       0        0        0

4.158248e+05 1.086910e+05        0
1.086910e+05 -2.139824e+04        0
       0        0        0

1.246393e+05 1.184440e+05        0
1.184440e+05 -2.115191e+04        0
       0        0        0

-1.665417e+05 1.184217e+05        0
1.184217e+05 -2.078931e+04        0
       0        0        0

-4.574831e+05 1.086296e+05        0
1.086296e+05 -2.051919e+04        0
       0        0        0

-7.480450e+05 8.925472e+04        0
8.925472e+04 -2.047738e+04        0
       0        0        0

-1.038317e+06 6.053578e+04        0
6.053578e+04 -2.062505e+04        0
       0        0        0

-1.328590e+06 2.256465e+04        0
2.256465e+04 -2.075827e+04        0
       0        0        0

1.242255e+06 2.268420e+04        0
2.268420e+04 -2.494134e+04        0
       0        0        0

9.605046e+05 6.077958e+04        0
6.077958e+04 -2.500101e+04        0
       0        0        0

6.789384e+05 8.942093e+04        0
8.942093e+04 -2.506602e+04        0
       0        0        0

3.974257e+05 1.085948e+05        0
1.085948e+05 -2.504664e+04        0
       0        0        0

1.159120e+05 1.182094e+05        0
1.182094e+05 -2.492222e+04        0
       0        0        0

-1.655543e+05 1.181879e+05        0
1.181879e+05 -2.475634e+04        0
       0        0        0

-4.468781e+05 1.085355e+05        0
1.085355e+05 -2.464790e+04        0
       0        0        0

-7.280084e+05 8.933960e+04        0
8.933960e+04 -2.465788e+04        0
       0        0        0

-1.008995e+06 6.070237e+04        0
6.070237e+04 -2.476061e+04        0
       0        0        0

-1.289962e+06 2.264758e+04        0
2.264758e+04 -2.485954e+04        0
       0        0        0

1.195074e+06 2.271414e+04        0
2.271414e+04 -2.917597e+04        0
       0        0        0

9.229360e+05 6.084759e+04        0
6.084759e+04 -2.910322e+04        0
       0        0        0

6.509182e+05 8.945932e+04        0
8.945932e+04 -2.905688e+04        0
       0        0        0

3.789684e+05 1.085567e+05        0
1.085567e+05 -2.900063e+04        0
       0        0        0

1.070576e+05 1.181092e+05        0
1.181092e+05 -2.892395e+04        0
       0        0        0

-1.648011e+05 1.180885e+05        0
1.180885e+05 -2.885343e+04        0
       0        0        0

-4.365747e+05 1.084994e+05        0
1.084994e+05 -2.883169e+04        0
       0        0        0

-7.082479e+05 8.938070e+04        0
8.938070e+04 -2.888295e+04        0
       0        0        0

-9.798449e+05 6.077290e+04        0
6.077290e+04 -2.899216e+04        0
       0        0        0

-1.251411e+06 2.267871e+04        0
2.267871e+04 -2.911651e+04        0
       0        0        0

1.147717e+06 2.272281e+04        0
2.272281e+04 -3.356135e+04        0
       0        0        0

8.852173e+05 6.087214e+04        0
6.087214e+04 -3.339034e+04        0
       0        0        0

6.227893e+05 8.947544e+04        0
8.947544e+04 -3.326332e+04        0
       0        0        0

3.604141e+05 1.085437e+05        0
1.085437e+05 -3.316855e+04        0
       0        0        0

9.807724e+04 1.180714e+05        0
1.180714e+05 -3.310183e+04        0
       0        0        0

-1.642209e+05 1.180513e+05        0
1.180513e+05 -3.307330e+04        0
       0        0        0

-4.264716e+05 1.084884e+05        0
1.084884e+05 -3.309927e+04        0
       0        0        0

-6.886721e+05 8.939955e+04        0
8.939955e+04 -3.318763e+04        0
       0        0        0

-9.508327e+05 6.080004e+04        0
6.080004e+04 -3.332976e+04        0
       0        0        0

-1.212966e+06 2.268861e+04        0
2.268861e+04 -3.350743e+04        0
       0        0        0

1.100240e+06 2.272387e+04        0
2.272387e+04 -3.806215e+04        0
       0        0        0

8.473806e+05 6.087896e+04        0
6.087896e+04 -3.780974e+04        0
       0        0        0

5.945565e+05 8.948131e+04        0
8.948131e+04 -3.761805e+04        0
       0        0        0

3.417612e+05 1.085406e+05        0
1.085406e+05 -3.748558e+04        0
       0        0        0

8.898703e+04 1.180599e+05        0
1.180599e+05 -3.741156e+04        0
       0        0        0

-1.637689e+05 1.180405e+05        0
1.180405e+05 -3.739951e+04        0
       0        0        0

-4.165060e+05 1.084873e+05        0
1.084873e+05 -3.745460e+04        0
       0        0        0

-6.692252e+05 8.940817e+04        0
8.940817e+04 -3.757814e+04        0
       0        0        0

-9.219294e+05 6.080947e+04        0
6.080947e+04 -3.776493e+04        0
       0        0        0

-1.174619e+06 2.269091e+04        0
2.269091e+04 -3.800690e+04        0
       0        0        0

1.052681e+06 2.272280e+04        0
2.272280e+04 -4.264684e+04        0
       0        0        0

8.094570e+05 6.087950e+04        0
6.087950e+04 -4.232153e+04        0
       0        0        0

5.662397e+05 8.948295e+04        0
8.948295e+04 -4.207342e+04        0
       0        0        0

3.230256e+05 1.085408e+05        0
1.085408e+05 -4.190480e+04        0
       0        0        0

7.981016e+04 1.180583e+05        0
1.180583e+05 -4.181657e+04        0
       0        0        0

-1.634096e+05 1.180397e+05        0
1.180397e+05 -4.180993e+04        0
       0        0        0

-4.066353e+05 1.084895e+05        0
1.084895e+05 -4.188587e+04        0
       0        0        0

-6.498680e+05 8.941258e+04        0
8.941258e+04 -4.204336e+04        0
       0        0        0

-8.931075e+05 6.081262e+04        0
6.081262e+04 -4.227886e+04        0
       0        0        0

-1.136350e+06 2.269108e+04        0
2.269108e+04 -4.258799e+04        0
       0        0        0

1.005069e+06 2.272151e+04        0
2.272151e+04 -4.728631e+04        0
       0        0        0

7.714760e+05 6.087835e+04        0
6.087835e+04 -4.689288e+04        0
       0        0        0

5.378640e+05 8.948313e+04        0
8.948313e+04 -4.659291e+04        0
       0        0        0

3.042305e+05 1.085418e+05        0
1.085418e+05 -4.638981e+04        0
       0        0        0

7.057257e+04 1.180599e+05        0
1.180599e+05 -4.628520e+04        0
       0        0        0

-1.631125e+05 1.180420e+05        0
1.180420e+05 -4.627969e+04        0
       0        0        0

-3.968263e+05 1.084926e+05        0
1.084926e+05 -4.637294e+04        0
       0        0        0

-6.305692e+05 8.941550e+04        0
8.941550e+04 -4.656330e+04        0
       0        0        0

-8.643399e+05 6.081409e+04        0
6.081409e+04 -4.684792e+04        0
       0        0        0

-1.098134e+06 2.269104e+04        0
2.269104e+04 -4.722349e+04        0
       0        0        0

9.574335e+05 2.272052e+04        0
2.272052e+04 -5.195312e+04        0
       0        0        0

7.334655e+05 6.087710e+04        0
6.087710e+04 -5.149486e+04        0
       0        0        0

5.094558e+05 8.948296e+04        0
8.948296e+04 -5.114596e+04        0
       0        0        0

2.854017e+05 1.085430e+05        0
1.085430e+05 -5.090998e+04        0
       0        0        0

6.130066e+04 1.180622e+05        0
1.180622e+05 -5.078883e+04        0
       0        0        0

-1.628496e+05 1.180450e+05        0
1.180450e+05 -5.078307e+04        0
       0        0        0

-3.870502e+05 1.084957e+05        0
1.084957e+05 -5.089208e+04        0
       0        0        0

-6.113010e+05 8.941810e+04        0
8.941810e+04 -5.111418e+04        0
       0        0        0

-8.356003e+05 6.081547e+04        0
6.081547e+04 -5.144677e+04        0
       0        0        0

-1.059944e+06 2.269129e+04        0
2.269129e+04 -5.188666e+04        0
       0        0        0

9.097993e+05 2.271985e+04        0
2.271985e+04 -5.662109e+04        0
       0        0        0

6.954517e+05 6.087619e+04        0
6.087619e+04 -5.610081e+04        0
       0        0        0

4.810414e+05 8.948288e+04        0
8.948288e+04 -5.570528e+04        0
       0        0        0

2.665651e+05 1.085442e+05        0
1.085442e+05 -5.543795e+04        0
       0        0        0

5.202037e+04 1.180645e+05        0
1.180645e+05 -5.530081e+04        0
       0        0        0

-1.625946e+05 1.180481e+05        0
1.180481e+05 -5.529452e+04        0
       0        0        0

-3.772807e+05 1.084989e+05        0
1.084989e+05 -5.541851e+04        0
       0        0        0

-5.920375e+05 8.942077e+04        0
8.942077e+04 -5.567116e+04        0
       0        0        0

-8.068629e+05 6.081718e+04        0
6.081718e+04 -5.604996e+04        0
       0        0        0

-1.021753e+06 2.269186e+04        0
2.269186e+04 -5.655158e+04        0
       0        0        0

8.621912e+05 2.271941e+04        0
2.271941e+04 -6.126524e+04        0
       0        0        0

6.574599e+05 6.087563e+04        0
6.087563e+04 -6.068561e+04        0
       0        0        0

4.526459e+05 8.948300e+04        0
8.948300e+04 -6.024553e+04        0
       0        0        0

2.477457e+05 1.085454e+05        0
1.085454e+05 -5.994832e+04        0
       0        0        0

4.275670e+04 1.180667e+05        0
1.180667e+05 -5.979598e+04        0
       0        0        0

-1.623227e+05 1.180511e+05        0
1.180511e+05 -5.978924e+04        0
       0        0        0

-3.674930e+05 1.085021e+05        0
1.085021e+05 -5.992762e+04        0
       0        0        0

-5.727537e+05 8.942366e+04        0
8.942366e+04 -6.020960e+04        0
       0        0        0

-7.781028e+05 6.081924e+04        0
6.081924e+04 -6.063265e+04        0
       0        0        0

-9.835369e+05 2.269267e+04        0
2.269267e+04 -6.119330e+04        0
       0        0        0

8.146328e+05 2.271914e+04        0
2.271914e+04 -6.586167e+04        0
       0        0        0

6.195140e+05 6.087537e+04        0
6.087537e+04 -6.522536e+04        0
       0        0        0

4.242934e+05 8.948336e+04        0
8.948336e+04 -6.474278e+04        0
       0        0        0

2.289675e+05 1.085467e+05        0
1.085467e+05 -6.441713e+04        0
       0        0        0

3.353361e+04 1.180690e+05        0
1.180690e+05 -6.425039e+04        0
       0        0        0

-1.620098e+05 1.180541e+05        0
1.180541e+05 -6.424334e+04        0
       0        0        0

-3.576633e+05 1.085054e+05        0
1.085054e+05 -6.439558e+04        0
       0        0        0

-5.534261e+05 8.942677e+04        0
8.942677e+04 -6.470563e+04        0
       0        0        0

-7.492963e+05 6.082160e+04        0
6.082160e+04 -6.517095e+04        0
       0        0        0

-9.452707e+05 2.269365e+04        0
2.269365e+04 -6.578794e+04        0
       0        0        0

7.671467e+05 2.271899e+04        0
2.271899e+04 -7.038757e+04        0
       0        0        0

5.816367e+05 6.087534e+04        0
6.087534e+04 -6.969728e+04        0
       0        0        0

3.960069e+05 8.948394e+04        0
8.948394e+04 -6.917426e+04        0
       0        0        0

2.102535e+05 1.085481e+05        0
1.085481e+05 -6.882159e+04        0
       0        0        0

2.437397e+04 1.180714e+05        0
1.180714e+05 -6.864124e+04        0
       0        0        0

-1.616334e+05 1.180572e+05        0
1.180572e+05 -6.863400e+04        0
       0        0        0

-3.477689e+05 1.085089e+05        0
1.085089e+05 -6.879954e+04        0
       0        0        0

-5.340318e+05 8.943011e+04        0
8.943011e+04 -6.913640e+04        0
       0        0        0

-7.204204e+05 6.082420e+04        0
6.082420e+04 -6.964201e+04        0
       0        0        0

-9.069314e+05 2.269473e+04        0
2.269473e+04 -7.031267e+04        0
       0        0        0

7.197544e+05 2.271893e+04        0
2.271893e+04 -7.482121e+04        0
       0        0        0

5.438497e+05 6.087553e+04        0
6.087553e+04 -7.407970e+04        0
       0        0        0

3.678080e+05 8.948475e+04        0
8.948475e+04 -7.351829e+04        0
       0        0        0

1.916255e+05 1.085498e+05        0
1.085498e+05 -7.314002e+04        0
       0        0        0

1.529953e+04 1.180739e+05        0
1.180739e+05 -7.294680e+04        0
       0        0        0

-1.611715e+05 1.180604e+05        0
1.180604e+05 -7.293947e+04        0
       0        0        0

-3.377881e+05 1.085126e+05        0
1.085126e+05 -7.311771e+04        0
       0        0        0

-5.145493e+05 8.943368e+04        0
8.943368e+04 -7.348011e+04        0
       0        0        0

-6.914533e+05 6.082700e+04        0
6.082700e+04 -7.402404e+04        0
       0        0        0

-8.684974e+05 2.269591e+04        0
2.269591e+04 -7.474575e+04        0
       0        0        0

6.724766e+05 2.271896e+04        0
2.271896e+04 -7.914196e+04        0
       0        0        0

5.061736e+05 6.087593e+04        0
6.087593e+04 -7.835199e+04        0
       0        0        0

3.397175e+05 8.948580e+04        0
8.948580e+04 -7.775430e+04        0
       0        0        0

1.731042e+05 1.085516e+05        0
1.085516e+05 -7.735183e+04        0
       0        0        0

6.330972e+03 1.180765e+05        0
1.180765e+05 -7.714647e+04        0
       0        0        0

-1.606038e+05 1.180638e+05        0
1.180638e+05 -7.713907e+04        0
       0        0        0

-3.277002e+05 1.085164e+05        0
1.085164e+05 -7.732940e+04        0
       0        0        0

-4.949577e+05 8.943748e+04        0
8.943748e+04 -7.771604e+04        0
       0        0        0

-6.623745e+05 6.083002e+04        0
6.083002e+04 -7.829637e+04        0
       0        0        0

-8.299477e+05 2.269719e+04        0
2.269719e+04 -7.906653e+04        0
       0        0        0

6.253325e+05 2.271912e+04        0
2.271912e+04 -8.333026e+04        0
       0        0        0

4.686280e+05 6.087659e+04        0
6.087659e+04 -8.249463e+04        0
       0        0        0

3.117550e+05 8.948708e+04        0
8.948708e+04 -8.186277e+04        0
       0        0        0

1.547092e+05 1.085536e+05        0
1.085536e+05 -8.143749e+04        0
       0        0        0

-2.512121e+03 1.180793e+05        0
1.180793e+05 -8.122068e+04        0
       0        0        0

-1.599105e+05 1.180673e+05        0
1.180673e+05 -8.121324e+04        0
       0        0        0

-3.174860e+05 1.085204e+05        0
1.085204e+05 -8.141499e+04        0
       0        0        0

-4.752378e+05 8.944153e+04        0
8.944153e+04 -8.182459e+04        0
       0        0        0

-6.331642e+05 6.083330e+04        0
6.083330e+04 -8.243940e+04        0
       0        0        0

-7.912627e+05 2.269860e+04        0
2.269860e+04 -8.325544e+04        0
       0        0        0

5.783403e+05 2.271947e+04        0
2.271947e+04 -8.736765e+04        0
       0        0        0

4.312312e+05 6.087756e+04        0
6.087756e+04 -8.648918e+04        0
       0        0        0

2.839390e+05 8.948861e+04        0
8.948861e+04 -8.582525e+04        0
       0        0        0

1.364591e+05 1.085557e+05        0
1.085557e+05 -8.537854e+04        0
       0        0        0

-1.121124e+04 1.180821e+05        0
1.180821e+05 -8.515097e+04        0
       0        0        0

-1.590732e+05 1.180708e+05        0
1.180708e+05 -8.514350e+04        0
       0        0        0

-3.071268e+05 1.085245e+05        0
1.085245e+05 -8.535602e+04        0
       0        0        0

-4.553709e+05 8.944581e+04        0
8.944581e+04 -8.578726e+04        0
       0        0        0

-6.038039e+05 6.083689e+04        0
6.083689e+04 -8.643460e+04        0
       0        0        0

-7.524235e+05 2.270018e+04        0
2.270018e+04 -8.729398e+04        0
       0        0        0

5.315172e+05 2.272006e+04        0
2.272006e+04 -9.123672e+04        0
       0        0        0

3.940007e+05 6.087886e+04        0
6.087886e+04 -9.031818e+04        0
       0        0        0

2.562870e+05 8.949033e+04        0
8.949033e+04 -8.962418e+04        0
       0        0        0

1.183713e+05 1.085579e+05        0
1.085579e+05 -8.915739e+04        0
       0        0        0

-1.974897e+04 1.180850e+05        0
1.180850e+05 -8.891986e+04        0
       0        0        0

-1.580747e+05 1.180744e+05        0
1.180744e+05 -8.891255e+04        0
       0        0        0

-2.966054e+05 1.085288e+05        0
1.085288e+05 -8.913528e+04        0
       0        0        0

-4.353399e+05 8.945029e+04        0
8.945029e+04 -8.958679e+04        0
       0        0        0

-5.742762e+05 6.084082e+04        0
6.084082e+04 -9.026463e+04        0
       0        0        0

-7.134124e+05 2.270202e+04        0
2.270202e+04 -9.116474e+04        0
       0        0        0

4.848792e+05 2.272094e+04        0
2.272094e+04 -9.492111e+04        0
       0        0        0

3.569529e+05 6.088033e+04        0
6.088033e+04 -9.396503e+04        0
       0        0        0

2.288154e+05 8.949202e+04        0
8.949202e+04 -9.324264e+04        0
       0        0        0

1.004620e+05 1.085603e+05        0
1.085603e+05 -9.275708e+04        0
       0        0        0

-2.810909e+04 1.180883e+05        0
1.180883e+05 -9.251076e+04        0
       0        0        0

-1.568985e+05 1.180784e+05        0
1.180784e+05 -9.250440e+04        0
       0        0        0

-2.859056e+05 1.085331e+05        0
1.085331e+05 -9.273715e+04        0
       0        0        0

-4.151286e+05 8.945475e+04        0
8.945475e+04 -9.320750e+04        0
       0        0        0

-5.445650e+05 6.084491e+04        0
6.084491e+04 -9.391343e+04        0
       0        0        0

-6.742129e+05 2.270414e+04        0
2.270414e+04 -9.485140e+04        0
       0        0        0

4.384414e+05 2.272188e+04        0
2.272188e+04 -9.840534e+04        0
       0        0        0

3.201035e+05 6.088116e+04        0
6.088116e+04 -9.741351e+04        0
       0        0        0

2.015393e+05 8.949307e+04        0
8.949307e+04 -9.666354e+04        0
       0        0        0

8.274586e+04 1.085631e+05        0
1.085631e+05 -9.616047e+04        0
       0        0        0

-3.627679e+04 1.180932e+05        0
1.180932e+05 -9.590768e+04        0
       0        0        0

-1.555290e+05 1.180841e+05        0
1.180841e+05 -9.590466e+04        0
       0        0        0

-2.750112e+05 1.085380e+05        0
1.085380e+05 -9.614835e+04        0
       0        0        0

-3.947214e+05 8.945855e+04        0
8.945855e+04 -9.663604e+04        0
       0        0        0

-5.146554e+05 6.084836e+04        0
6.084836e+04 -9.736672e+04        0
       0        0        0

-6.348094e+05 2.270633e+04        0
2.270633e+04 -9.833886e+04        0
       0        0        0

3.922193e+05 2.272192e+04        0
2.272192e+04 -1.016746e+05        0
       0        0        0

2.834673e+05 6.087881e+04        0
6.087881e+04 -1.006468e+05        0
       0        0        0

1.744711e+05 8.949189e+04        0
8.949189e+04 -9.986800e+04        0
       0        0        0

6.523416e+04 1.085678e+05        0
1.085678e+05 -9.934874e+04        0
       0        0        0

-4.423925e+04 1.181036e+05        0
1.181036e+05 -9.909452e+04        0
       0        0        0

-1.539510e+05 1.180952e+05        0
1.180952e+05 -9.910124e+04        0
       0        0        0

-2.639056e+05 1.085447e+05        0
1.085447e+05 -9.935955e+04        0
       0        0        0

-3.741027e+05 8.946013e+04        0
8.946013e+04 -9.986307e+04        0
       0        0        0

-4.845338e+05 6.084863e+04        0
6.084863e+04 -1.006129e+05        0
       0        0        0

-5.951888e+05 2.270761e+04        0
2.270761e+04 -1.016133e+05        0
       0        0        0

3.462306e+05 2.271803e+04        0
2.271803e+04 -1.047145e+05        0
       0        0        0

2.470587e+05 6.086673e+04        0
6.086673e+04 -1.036458e+05        0
       0        0        0

1.476185e+05 8.948488e+04        0
8.948488e+04 -1.028322e+05        0
       0        0        0

4.793234e+04 1.085780e+05        0
1.085780e+05 -1.022984e+05        0
       0        0        0

-5.198697e+04 1.181290e+05        0
1.181290e+05 -1.020539e+05        0
       0        0        0

-1.521479e+05 1.181214e+05        0
1.181214e+05 -1.020855e+05        0
       0        0        0

-2.525684e+05 1.085568e+05        0
1.085568e+05 -1.023683e+05        0
       0        0        0

-3.532543e+05 8.945589e+04        0
8.945589e+04 -1.028865e+05        0
       0        0        0

-4.541884e+05 6.083918e+04        0
6.083918e+04 -1.036451e+05        0
       0        0        0

-5.553424e+05 2.270496e+04        0
2.270496e+04 -1.046628e+05        0
       0        0        0

3.005010e+05 2.270237e+04        0
2.270237e+04 -1.075096e+05        0
       0        0        0

2.108907e+05 6.082964e+04        0
6.082964e+04 -1.063851e+05        0
       0        0        0

1.209788e+05 8.946462e+04        0
8.946462e+04 -1.055216e+05        0
       0        0        0

3.083345e+04 1.086026e+05        0
1.086026e+05 -1.049761e+05        0
       0        0        0

-5.951642e+04 1.181910e+05        0
1.181910e+05 -1.047653e+05        0
       0        0        0

-1.500994e+05 1.181840e+05        0
1.181840e+05 -1.048543e+05        0
       0        0        0

-2.409688e+05 1.085835e+05        0
1.085835e+05 -1.051844e+05        0
       0        0        0

-3.321500e+05 8.943838e+04        0
8.943838e+04 -1.057174e+05        0
       0        0        0

-4.236088e+05 6.080473e+04        0
6.080473e+04 -1.064650e+05        0
       0        0        0

-5.152713e+05 2.269055e+04        0
2.269055e+04 -1.074781e+05        0
       0        0        0

2.550755e+05 2.265672e+04        0
2.265672e+04 -1.100427e+05        0
       0        0        0

1.749736e+05 6.073520e+04        0
6.073520e+04 -1.088279e+05        0
       0        0        0

9.452714e+04 8.941724e+04        0
8.941724e+04 -1.078834e+05        0
       0        0        0

1.390604e+04 1.086616e+05        0
1.086616e+05 -1.073322e+05        0
       0        0        0

-6.683491e+04 1.183340e+05        0
1.183340e+05 -1.072019e+05        0
       0        0        0

-1.477763e+05 1.183278e+05        0
1.183278e+05 -1.074123e+05        0
       0        0        0

-2.290544e+05 1.086444e+05        0
1.086444e+05 -1.078362e+05        0
       0        0        0

-3.107445e+05 8.939377e+04        0
8.939377e+04 -1.083883e+05        0
       0        0        0

-3.927846e+05 6.071294e+04        0
6.071294e+04 -1.090887e+05        0
       0        0        0

-4.749983e+05 2.264617e+04        0
2.264617e+04 -1.100541e+05        0
       0        0        0

2.100400e+05 2.254242e+04        0
2.254242e+04 -1.122931e+05        0
       0        0        0

1.393089e+05 6.052118e+04        0
6.052118e+04 -1.109193e+05        0
       0        0        0

6.819503e+04 8.932031e+04        0
8.932031e+04 -1.098377e+05        0
       0        0        0

-2.926277e+03 1.087951e+05        0
1.087951e+05 -1.092953e+05        0
       0        0        0

-7.396830e+04 1.186413e+05        0
1.186413e+05 -1.093294e+05        0
       0        0        0

-1.451319e+05 1.186358e+05        0
1.186358e+05 -1.097731e+05        0
       0        0        0

-2.167296e+05 1.087799e+05        0
1.087799e+05 -1.103761e+05        0
       0        0        0

-2.889528e+05 8.929961e+04        0
8.929961e+04 -1.109622e+05        0
       0        0        0

-3.617015e+05 6.050158e+04        0
6.050158e+04 -1.115555e+05        0
       0        0        0

-4.345909e+05 2.253315e+04        0
2.253315e+04 -1.123935e+05        0
       0        0        0

1.655582e+05 2.228446e+04        0
2.228446e+04 -1.142358e+05        0
       0        0        0

1.038738e+05 6.008121e+04        0
6.008121e+04 -1.125834e+05        0
       0        0        0

4.183398e+04 8.914604e+04        0
8.914604e+04 -1.112833e+05        0
       0        0        0

-1.981269e+04 1.090766e+05        0
1.090766e+05 -1.107832e+05        0
       0        0        0

-8.097001e+04 1.192485e+05        0
1.192485e+05 -1.111105e+05        0
       0        0        0

-1.420912e+05 1.192437e+05        0
1.192437e+05 -1.119523e+05        0
       0        0        0

-2.038278e+05 1.090634e+05        0
1.090634e+05 -1.128688e+05        0
       0        0        0

-2.666149e+05 8.912813e+04        0
8.912813e+04 -1.135291e+05        0
       0        0        0

-3.303292e+05 6.006433e+04        0
6.006433e+04 -1.139338e+05        0
       0        0        0

-3.942023e+05 2.227650e+04        0
2.227650e+04 -1.145106e+05        0
       0        0        0

1.219236e+05 2.175179e+04        0
2.175179e+04 -1.158452e+05        0
       0        0        0

6.858268e+04 5.926619e+04        0
5.926619e+04 -1.137458e+05        0
       0        0        0

1.516826e+04 8.888486e+04        0
8.888486e+04 -1.121533e+05        0
       0        0        0

-3.699545e+04 1.096226e+05        0
1.096226e+05 -1.117704e+05        0
       0        0        0

-8.792222e+04 1.203287e+05        0
1.203287e+05 -1.125339e+05        0
       0        0        0

-1.385453e+05 1.203247e+05        0
1.203247e+05 -1.139348e+05        0
       0        0        0

-1.900886e+05 1.096115e+05        0
1.096115e+05 -1.153216e+05        0
       0        0        0

-2.434509e+05 8.886977e+04        0
8.886977e+04 -1.161514e+05        0
       0        0        0

-2.985899e+05 5.925206e+04        0
5.925206e+04 -1.163057e+05        0
       0        0        0

-3.541329e+05 2.174518e+04        0
2.174518e+04 -1.164382e+05        0
       0        0        0

7.960000e+04 2.075017e+04        0
2.075017e+04 -1.171263e+05        0
       0        0        0

3.320387e+04 5.795672e+04        0
5.795672e+04 -1.144331e+05        0
       0        0        0

-1.223411e+04 8.862428e+04        0
8.862428e+04 -1.126326e+05        0
       0        0        0

-5.476341e+04 1.105691e+05        0
1.105691e+05 -1.125034e+05        0
       0        0        0

-9.490321e+04 1.219722e+05        0
1.219722e+05 -1.137030e+05        0
       0        0        0

-1.343757e+05 1.219689e+05        0
1.219689e+05 -1.155765e+05        0
       0        0        0

-1.751982e+05 1.105601e+05        0
1.105601e+05 -1.174631e+05        0
       0        0        0

-2.190324e+05 8.861210e+04        0
8.861210e+04 -1.186480e+05        0
       0        0        0

-2.662877e+05 5.794537e+04        0
5.794537e+04 -1.186802e+05        0
       0        0        0

-3.148951e+05 2.074495e+04        0
2.074495e+04 -1.182197e+05        0
       0        0        0

3.915345e+04 1.909753e+04        0
1.909753e+04 -1.181746e+05        0
       0        0        0

-2.810307e+03 5.636697e+04        0
5.636697e+04 -1.151810e+05        0
       0        0        0

-4.083393e+04 8.872123e+04        0
8.872123e+04 -1.137597e+05        0
       0        0        0

-7.320079e+04 1.119170e+05        0
1.119170e+05 -1.140445e+05        0
       0        0        0

-1.018560e+05 1.237886e+05        0
1.237886e+05 -1.150319e+05        0
       0        0        0

-1.295705e+05 1.237863e+05        0
1.237863e+05 -1.163949e+05        0
       0        0        0

-1.590276e+05 1.119105e+05        0
1.119105e+05 -1.181864e+05        0
       0        0        0

-1.929054e+05 8.871215e+04        0
8.871215e+04 -1.199872e+05        0
       0        0        0

-2.329559e+05 5.635842e+04        0
5.635842e+04 -1.206026e+05        0
       0        0        0

-2.771945e+05 1.909368e+04        0
1.909368e+04 -1.198992e+05        0
       0        0        0

6.699714e+02 1.709960e+04        0
1.709960e+04 -1.198112e+05        0
       0        0        0

-4.041531e+04 5.591333e+04        0
5.591333e+04 -1.181642e+05        0
       0        0        0

-7.049804e+04 8.999813e+04        0
8.999813e+04 -1.191037e+05        0
       0        0        0

-9.145562e+04 1.128806e+05        0
1.128806e+05 -1.191898e+05        0
       0        0        0

-1.083292e+05 1.240189e+05        0
1.240189e+05 -1.174678e+05        0
       0        0        0

-1.244607e+05 1.240178e+05        0
1.240178e+05 -1.153222e+05        0
       0        0        0

-1.423369e+05 1.128772e+05        0
1.128772e+05 -1.146035e+05        0
       0        0        0

-1.651873e+05 8.999275e+04        0
8.999275e+04 -1.165846e+05        0
       0        0        0

-1.977735e+05 5.590760e+04        0
5.590760e+04 -1.200328e+05        0
       0        0        0

-2.414493e+05 1.709699e+04        0
1.709699e+04 -1.209875e+05        0
       0        0        0

-3.823457e+04 1.779978e+04        0
1.779978e+04 -1.239966e+05        0
       0        0        0

-8.041434e+04 6.132967e+04        0
6.132967e+04 -1.327589e+05        0
       0        0        0

-9.808444e+04 9.240530e+04        0
9.240530e+04 -1.374911e+05        0
       0        0        0

-1.067801e+05 1.101395e+05        0
1.101395e+05 -1.328687e+05        0
       0        0        0

-1.133391e+05 1.182551e+05        0
1.182551e+05 -1.225124e+05        0
       0        0        0

-1.198326e+05 1.182555e+05        0
1.182555e+05 -1.106593e+05        0
       0        0        0

-1.276926e+05 1.101402e+05        0
1.101402e+05 -1.016039e+05        0
       0        0        0

-1.389109e+05 9.240510e+04        0
9.240510e+04 -9.950429e+04        0
       0        0        0

-1.600573e+05 6.132748e+04        0
6.132748e+04 -1.077146e+05        0
       0        0        0

-2.059147e+05 1.779798e+04        0
1.779798e+04 -1.201622e+05        0
       0        0        0

-9.025572e+04 4.054661e+04        0
4.054661e+04 -1.561231e+05        0
       0        0        0

-1.136878e+05 7.593360e+04        0
7.593360e+04 -1.856917e+05        0
       0        0        0

-1.149193e+05 8.920020e+04        0
8.920020e+04 -1.815725e+05        0
       0        0        0

-1.152359e+05 9.570793e+04        0
9.570793e+04 -1.606815e+05        0
       0        0        0

-1.155976e+05 9.855701e+04        0
9.855701e+04 -1.316378e+05        0
       0        0        0

-1.166849e+05 9.855890e+04        0
9.855890e+04 -1.006445e+05        0
       0        0        0

-1.187131e+05 9.571310e+04        0
9.571310e+04 -7.326487e+04        0
       0        0        0

-1.224065e+05 8.920700e+04        0
8.920700e+04 -5.574776e+04        0
       0        0        0

-1.287501e+05 7.593921e+04        0
7.593921e+04 -5.674029e+04        0
       0        0        0

-1.584940e+05 4.054639e+04        0
4.054639e+04 -9.262678e+04        0
       0        0        0

POINT_DATA     451
VECTORS DISPLACEMENT_3.400000e-01 double
0.000000e+00    0.000000e+00    0.000000e+00
0.000000e+00    0.000000e+00    0.000000e+00
0.000000e+00    0.000000e+00    0.000000e+00
0.000000e+00    0.000000e+00    0.000000e+00
0.000000e+00    0.000000e+00    0.000000e+00
0.000000e+00    0.000000e+00    0.000000e+00
0.000000e+00    0.000000e+00    0.000000e+00
0.000000e+00    0.000000e+00    0.000000e+00
0.000000e+00    0.000000e+00    0.000000e+00
0.000000e+00    0.000000e+00    0.000000e+00
0.000000e+00    0.000000e+00    0.000000e+00
-1.141211e-06    -8.296721e-07    0.000000e+00
-7.231067e-07    -4.161580e-07    0.000000e+00
-5.159463e-07    -2.156389e-07    0.000000e+00
-3.331154e-07    -1.067788e-07    0.000000e+00
-1.642332e-07    -5.043859e-08    0.000000e+00
-3.574608e-20    -3.292115e-08    0.000000e+00
1.642332e-07    -5.043859e-08    0.000000e+00
3.331154e-07    -1.067788e-07    0.000000e+00
5.159463e-07    -2.156389e-07    0.000000e+00
7.231067e-07    -4.161580e-07    0.000000e+00
1.141211e-06    -8.296721e-07    0.000000e+00
-2.153222e-06    -1.379824e-06    0.000000e+00
-1.573919e-06    -9.984058e-07    0.000000e+00
-1.104734e-06    -7.012883e-07    0.000000e+00
-7.125990e-07    -5.174995e-07    0.000000e+00
-3.499896e-07    -4.173548e-07    0.000000e+00
-7.555633e-20    -3.855452e-07    0.000000e+00
3.499896e-07    -4.173548e-07    0.000000e+00
7.125990e-07    -5.174995e-07    0.000000e+00
1.104734e-06    -7.012883e-07    0.000000e+00
1.573919e-06    -9.984058e-07    0.000000e+00
2.153222e-06    -1.379824e-06    0.000000e+00
-3.131390e-06    -2.063908e-06    0.000000e+00
-2.393385e-06    -1.681654e-06    0.000000e+00
-1.722144e-06    -1.380255e-06    0.000000e+00
-1.114881e-06    -1.167658e-06    0.000000e+00
-5.485727e-07    -1.045121e-06    0.000000e+00
-1.190445e-19    -1.005206e-06    0.000000e+00
5.485727e-07    -1.045121e-06    0.000000e+00
1.114881e-06    -1.167658e-06    0.000000e+00
1.722144e-06    -1.380255e-06    0.000000e+00
2.393385e-06    -1.681654e-06    0.000000e+00
3.131390e-06    -2.063908e-06    0.000000e+00
-4.098729e-06    -2.908153e-06    0.000000e+00
-3.185839e-06    -2.534623e-06    0.000000e+00
-2.326207e-06    -2.238248e-06    0.000000e+00
-1.518920e-06    -2.024367e-06    0.000000e+00
-7.498153e-07    -1.895987e-06    0.000000e+00
-1.643641e-19    -1.853417e-06    0.000000e+00
7.498153e-07    -1.895987e-06    0.000000e+00
1.518920e-06    -2.024367e-06    0.000000e+00
2.326207e-06    -2.238248e-06    0.000000e+00
3.185839e-06    -2.534623e-06    0.000000e+00
4.098729e-06    -2.908153e-06    0.000000e+00
-5.049692e-06    -3.935285e-06    0.000000e+00
-3.955196e-06    -3.570471e-06    0.000000e+00
-2.911049e-06    -3.283044e-06    0.000000e+00
-1.912253e-06    -3.074791e-06    0.000000e+00
-9.472472e-07    -2.948719e-06    0.000000e+00
-2.110171e-19    -2.906519e-06    0.000000e+00
9.472472e-07    -2.948719e-06    0.000000e+00
1.912253e-06    -3.074791e-06    0.000000e+00
2.911049e-06    -3.283044e-06    0.000000e+00
3.955196e-06    -3.570471e-06    0.000000e+00
5.049692e-06    -3.935285e-06    0.000000e+00
-5.979933e-06    -5.147964e-06    0.000000e+00
-4.702998e-06    -4.792800e-06    0.000000e+00
-3.476625e-06    -4.514462e-06    0.000000e+00
-2.292190e-06    -4.313578e-06    0.000000e+00
-1.138122e-06    -4.191989e-06    0.000000e+00
-2.582789e-19    -4.151272e-06    0.000000e+00
1.138122e-06    -4.191989e-06    0.000000e+00
2.292190e-06    -4.313578e-06    0.000000e+00
3.476625e-06    -4.514462e-06    0.000000e+00
4.702998e-06    -4.792800e-06    0.000000e+00
5.979933e-06    -5.147964e-06    0.000000e+00
-6.886339e-06    -6.544133e-06    0.000000e+00
-5.429514e-06    -6.199017e-06    0.000000e+00
-4.024011e-06    -5.929535e-06    0.000000e+00
-2.658924e-06    -5.735834e-06    0.000000e+00
-1.322142e-06    -5.618927e-06    0.000000e+00
-3.029731e-19    -5.579822e-06    0.000000e+00
1.322142e-06    -5.618927e-06    0.000000e+00
2.658924e-06    -5.735834e-06    0.000000e+00
4.024011e-06    -5.929535e-06    0.000000e+00
5.429514e-06    -6.199017e-06    0.000000e+00
6.886339e-06    -6.544133e-06    0.000000e+00
-7.767189e-06    -8.119376e-06    0.000000e+00
-6.134655e-06    -7.784543e-06    0.000000e+00
-4.554064e-06    -7.523627e-06    0.000000e+00
-3.013273e-06    -7.336631e-06    0.000000e+00
-1.499700e-06    -7.224051e-06    0.000000e+00
-3.466218e-19    -7.186447e-06    0.000000e+00
1.499700e-06    -7.224051e-06    0.000000e+00
3.013273e-06    -7.336631e-06    0.000000e+00
4.554064e-06    -7.523627e-06    0.000000e+00
6.134655e-06    -7.784543e-06    0.000000e+00
7.767189e-06    -8.119376e-06    0.000000e+00
-8.621595e-06    -9.868503e-06    0.000000e+00
-6.818290e-06    -9.544062e-06    0.000000e+00
-5.067314e-06    -9.291513e-06    0.000000e+00
-3.355917e-06    -9.110825e-06    0.000000e+00
-1.671219e-06    -9.002223e-06    0.000000e+00
-3.916733e-19    -8.965982e-06    0.000000e+00
1.671219e-06    -9.002223e-06    0.000000e+00
3.355917e-06    -9.110825e-06    0.000000e+00
5.067314e-06    -9.291513e-06    0.000000e+00
6.818290e-06    -9.544062e-06    0.000000e+00
8.621595e-06    -9.868503e-06    0.000000e+00
-9.449142e-06    -1.178607e-05    0.000000e+00
-7.480324e-06    -1.147207e-05    0.000000e+00
-5.564045e-06    -1.122777e-05    0.000000e+00
-3.687283e-06    -1.105314e-05    0.000000e+00
-1.836995e-06    -1.094828e-05    0.000000e+00
-4.354279e-19    -1.091331e-05    0.000000e+00
1.836995e-06    -1.094828e-05    0.000000e+00
3.687283e-06    -1.105314e-05    0.000000e+00
5.564045e-06    -1.122777e-05    0.000000e+00
7.480324e-06    -1.147207e-05    0.000000e+00
9.449142e-06    -1.178607e-05    0.000000e+00
-1.024965e-05    -1.386658e-05    0.000000e+00
-8.120702e-06    -1.356304e-05    0.000000e+00
-6.044398e-06    -1.332693e-05    0.000000e+00
-4.007603e-06    -1.315823e-05    0.000000e+00
-1.997193e-06    -1.305697e-05    0.000000e+00
-4.738620e-19    -1.302321e-05    0.000000e+00
1.997193e-06    -1.305697e-05    0.000000e+00
4.007603e-06    -1.315823e-05    0.000000e+00
6.044398e-06    -1.332693e-05    0.000000e+00
8.120702e-06    -1.356304e-05    0.000000e+00
1.024965e-05    -1.386658e-05    0.000000e+00
-1.102305e-05    -1.610455e-05    0.000000e+00
-8.739397e-06    -1.581147e-05    0.000000e+00
-6.508435e-06    -1.558352e-05    0.000000e+00
-4.316990e-06    -1.542068e-05    0.000000e+00
-2.151902e-06    -1.532297e-05    0.000000e+00
-5.110256e-19    -1.529039e-05    0.000000e+00
2.151902e-06    -1.532297e-05    0.000000e+00
4.316990e-06    -1.542068e-05    0.000000e+00
6.508435e-06    -1.558352e-05    0.000000e+00
8.739397e-06    -1.581147e-05    0.000000e+00
1.102305e-05    -1.610455e-05    0.000000e+00
-1.176931e-05    -1.849452e-05    0.000000e+00
-9.336394e-06    -1.821191e-05    0.000000e+00
-6.956183e-06    -1.799211e-05    0.000000e+00
-4.615495e-06    -1.783510e-05    0.000000e+00
-2.301159e-06    -1.774089e-05    0.000000e+00
-5.563418e-19    -1.770949e-05    0.000000e+00
2.301159e-06    -1.774089e-05    0.000000e+00
4.615495e-06    -1.783510e-05    0.000000e+00
6.956183e-06    -1.799211e-05    0.000000e+00
9.336394e-06    -1.821191e-05    0.000000e+00
1.176931e-05    -1.849452e-05    0.000000e+00
-1.248844e-05    -2.103105e-05    0.000000e+00
-9.911688e-06    -2.075891e-05    0.000000e+00
-7.387649e-06    -2.054724e-05    0.000000e+00
-4.903139e-06    -2.039605e-05    0.000000e+00
-2.444982e-06    -2.030534e-05    0.000000e+00
-5.863586e-19    -2.027510e-05    0.000000e+00
2.444982e-06    -2.030534e-05    0.000000e+00
4.903139e-06    -2.039605e-05    0.000000e+00
7.387649e-06    -2.054724e-05    0.000000e+00
9.911688e-06    -2.075891e-05    0.000000e+00
1.248844e-05    -2.103105e-05    0.000000e+00
-1.318043e-05    -2.370869e-05    0.000000e+00
-1.046528e-05    -2.344702e-05    0.000000e+00
-7.802837e-06    -2.324349e-05    0.000000e+00
-5.179930e-06    -2.309812e-05    0.000000e+00
-2.583377e-06    -2.301089e-05    0.000000e+00
-6.136754e-19    -2.298182e-05    0.000000e+00
2.583377e-06    -2.301089e-05    0.000000e+00
5.179930e-06    -2.309812e-05    0.000000e+00
7.802837e-06    -2.324349e-05    0.000000e+00
1.046528e-05    -2.344702e-05    0.000000e+00
1.318043e-05    -2.370869e-05    0.000000e+00
-1.384529e-05    -2.652202e-05    0.000000e+00
-1.099716e-05    -2.627081e-05    0.000000e+00
-8.201747e-06    -2.607543e-05    0.000000e+00
-5.445868e-06    -2.593587e-05    0.000000e+00
-2.716345e-06    -2.585213e-05    0.000000e+00
-6.323101e-19    -2.582422e-05    0.000000e+00
2.716345e-06    -2.585213e-05    0.000000e+00
5.445868e-06    -2.593587e-05    0.000000e+00
8.201747e-06    -2.607543e-05    0.000000e+00
1.099716e-05    -2.627081e-05    0.000000e+00
1.384529e-05    -2.652202e-05    0.000000e+00
-1.448301e-05    -2.946562e-05    0.000000e+00
-1.150734e-05    -2.922487e-05    0.000000e+00
-8.584378e-06    -2.903762e-05    0.000000e+00
-5.700954e-06    -2.890388e-05    0.000000e+00
-2.843888e-06    -2.882363e-05    0.000000e+00
-6.372864e-19    -2.879688e-05    0.000000e+00
2.843888e-06    -2.882363e-05    0.000000e+00
5.700954e-06    -2.890388e-05    0.000000e+00
8.584378e-06    -2.903762e-05    0.000000e+00
1.150734e-05    -2.922487e-05    0.000000e+00
1.448301e-05    -2.946562e-05    0.000000e+00
-1.509360e-05    -3.253404e-05    0.000000e+00
-1.199581e-05    -3.230376e-05    0.000000e+00
-8.950729e-06    -3.212465e-05    0.000000e+00
-5.945188e-06    -3.199672e-05    0.000000e+00
-2.966005e-06    -3.191996e-05    0.000000e+00
-6.544388e-19    -3.189437e-05    0.000000e+00
2.966005e-06    -3.191996e-05    0.000000e+00
5.945188e-06    -3.199672e-05    0.000000e+00
8.950729e-06    -3.212465e-05    0.000000e+00
1.199581e-05    -3.230376e-05    0.000000e+00
1.509360e-05    -3.253404e-05    0.000000e+00
-1.567706e-05    -3.572187e-05    0.000000e+00
-1.246257e-05    -3.550205e-05    0.000000e+00
-9.300801e-06    -3.533109e-05    0.000000e+00
-6.178569e-06    -3.520897e-05    0.000000e+00
-3.082695e-06    -3.513570e-05    0.000000e+00
-6.811204e-19    -3.511127e-05    0.000000e+00
3.082695e-06    -3.513570e-05    0.000000e+00
6.178569e-06    -3.520897e-05    0.000000e+00
9.300801e-06    -3.533109e-05    0.000000e+00
1.246257e-05    -3.550205e-05    0.000000e+00
1.567706e-05    -3.572187e-05    0.000000e+00
-1.623338e-05    -3.902367e-05    0.000000e+00
-1.290763e-05    -3.881432e-05    0.000000e+00
-9.634594e-06    -3.865150e-05    0.000000e+00
-6.401097e-06    -3.853519e-05    0.000000e+00
-3.193959e-06    -3.846541e-05    0.000000e+00
-7.318365e-19    -3.844215e-05    0.000000e+00
3.193959e-06    -3.846541e-05    0.000000e+00
6.401097e-06    -3.853519e-05    0.000000e+00
9.634594e-06    -3.865150e-05    0.000000e+00
1.290763e-05    -3.881432e-05    0.000000e+00
1.623338e-05    -3.902367e-05    0.000000e+00
-1.676257e-05    -4.243403e-05    0.000000e+00
-1.333098e-05    -4.223515e-05    0.000000e+00
-9.952106e-06    -4.208046e-05    0.000000e+00
-6.612772e-06    -4.196997e-05    0.000000e+00
-3.299796e-06    -4.190368e-05    0.000000e+00
-7.953639e-19    -4.188158e-05    0.000000e+00
3.299796e-06    -4.190368e-05    0.000000e+00
6.612772e-06    -4.196997e-05    0.000000e+00
9.952106e-06    -4.208046e-05    0.000000e+00
1.333098e-05    -4.223515e-05    0.000000e+00
1.676257e-05    -4.243403e-05    0.000000e+00
-1.726462e-05    -4.594752e-05    0.000000e+00
-1.373262e-05    -4.575910e-05    0.000000e+00
-1.025334e-05    -4.561255e-05    0.000000e+00
-6.813593e-06    -4.550788e-05    0.000000e+00
-3.400207e-06    -4.544507e-05    0.000000e+00
-8.423743e-19    -4.542414e-05    0.000000e+00
3.400207e-06    -4.544507e-05    0.000000e+00
6.813593e-06    -4.550788e-05    0.000000e+00
1.025334e-05    -4.561255e-05    0.000000e+00
1.373262e-05    -4.575910e-05    0.000000e+00
1.726462e-05    -4.594752e-05    0.000000e+00
-1.773954e-05    -4.955870e-05    0.000000e+00
-1.411256e-05    -4.938075e-05    0.000000e+00
-1.053829e-05    -4.924234e-05    0.000000e+00
-7.003561e-06    -4.914348e-05    0.000000e+00
-3.495191e-06    -4.908417e-05    0.000000e+00
-8.783732e-19    -4.906439e-05    0.000000e+00
3.495191e-06    -4.908417e-05    0.000000e+00
7.003561e-06    -4.914348e-05    0.000000e+00
1.053829e-05    -4.924234e-05    0.000000e+00
1.411256e-05    -4.938075e-05    0.000000e+00
1.773954e-05    -4.955870e-05    0.000000e+00
-1.818733e-05    -5.326216e-05    0.000000e+00
-1.447079e-05    -5.309467e-05    0.000000e+00
-1.080696e-05    -5.296441e-05    0.000000e+00
-7.182675e-06    -5.287136e-05    0.000000e+00
-3.584748e-06    -5.281553e-05    0.000000e+00
-9.222071e-19    -5.279692e-05    0.000000e+00
3.584748e-06    -5.281553e-05    0.000000e+00
7.182675e-06    -5.287136e-05    0.000000e+00
1.080696e-05    -5.296441e-05    0.000000e+00
1.447079e-05    -5.309467e-05    0.000000e+00
1.818733e-05    -5.326216e-05    0.000000e+00
-1.860798e-05    -5.705246e-05    0.000000e+00
-1.480731e-05    -5.689544e-05    0.000000e+00
-1.105935e-05    -5.677331e-05    0.000000e+00
-7.350936e-06    -5.668608e-05    0.000000e+00
-3.668878e-06    -5.663374e-05    0.000000e+00
-9.370302e-19    -5.661630e-05    0.000000e+00
3.668878e-06    -5.663374e-05    0.000000e+00
7.350936e-06    -5.668608e-05    0.000000e+00
1.105935e-05    -5.677331e-05    0.000000e+00
1.480731e-05    -5.689544e-05    0.000000e+00
1.860798e-05    -5.705246e-05    0.000000e+00
-1.900150e-05    -6.092418e-05    0.000000e+00
-1.512212e-05    -6.077763e-05    0.000000e+00
-1.129546e-05    -6.066364e-05    0.000000e+00
-7.508343e-06    -6.058222e-05    0.000000e+00
-3.747582e-06    -6.053337e-05    0.000000e+00
-9.569355e-19    -6.051709e-05    0.000000e+00
3.747582e-06    -6.053337e-05    0.000000e+00
7.508343e-06    -6.058222e-05    0.000000e+00
1.129546e-05    -6.066364e-05    0.000000e+00
1.512212e-05    -6.077763e-05    0.000000e+00
1.900150e-05    -6.092418e-05    0.000000e+00
-1.936788e-05    -6.487189e-05    0.000000e+00
-1.541522e-05    -6.473580e-05    0.000000e+00
-1.151529e-05    -6.462996e-05    0.000000e+00
-7.654897e-06    -6.455435e-05    0.000000e+00
-3.820859e-06    -6.450899e-05    0.000000e+00
-9.711233e-19    -6.449387e-05    0.000000e+00
3.820859e-06    -6.450899e-05    0.000000e+00
7.654897e-06    -6.455435e-05    0.000000e+00
1.151529e-05    -6.462996e-05    0.000000e+00
1.541522e-05    -6.473580e-05    0.000000e+00
1.936788e-05    -6.487189e-05    0.000000e+00
-1.970712e-05    -6.889016e-05    0.000000e+00
-1.568662e-05    -6.876454e-05    0.000000e+00
-1.171884e-05    -6.866684e-05    0.000000e+00
-7.790596e-06    -6.859705e-05    0.000000e+00
-3.888709e-06    -6.855518e-05    0.000000e+00
-9.599001e-19    -6.854123e-05    0.000000e+00
3.888709e-06    -6.855518e-05    0.000000e+00
7.790596e-06    -6.859705e-05    0.000000e+00
1.171884e-05    -6.866684e-05    0.000000e+00
1.568662e-05    -6.876454e-05    0.000000e+00
1.970712e-05    -6.889016e-05    0.000000e+00
-2.001922e-05    -7.297355e-05    0.000000e+00
-1.593631e-05    -7.285841e-05    0.000000e+00
-1.190611e-05    -7.276885e-05    0.000000e+00
-7.915437e-06    -7.270489e-05    0.000000e+00
-3.951127e-06    -7.266652e-05    0.000000e+00
-9.592648e-19    -7.265373e-05    0.000000e+00
3.951127e-06    -7.266652e-05    0.000000e+00
7.915437e-06    -7.270489e-05    0.000000e+00
1.190611e-05    -7.276885e-05    0.000000e+00
1.593631e-05    -7.285841e-05    0.000000e+00
2.001922e-05    -7.297355e-05    0.000000e+00
-2.030418e-05    -7.711664e-05    0.000000e+00
-1.616429e-05    -7.701196e-05    0.000000e+00
-1.207709e-05    -7.693055e-05    0.000000e+00
-8.029409e-06    -7.687243e-05    0.000000e+00
-4.008105e-06    -7.683758e-05    0.000000e+00
-9.973813e-19    -7.682597e-05    0.000000e+00
4.008105e-06    -7.683758e-05    0.000000e+00
8.029409e-06    -7.687243e-05    0.000000e+00
1.207709e-05    -7.693055e-05    0.000000e+00
1.616429e-05    -7.701196e-05    0.000000e+00
2.030418e-05    -7.711664e-05    0.000000e+00
-2.056201e-05    -8.131397e-05    0.000000e+00
-1.637057e-05    -8.121975e-05    0.000000e+00
-1.223177e-05    -8.114651e-05    0.000000e+00
-8.132481e-06    -8.109427e-05    0.000000e+00
-4.059619e-06    -8.106298e-05    0.000000e+00
-1.036345e-18    -8.105256e-05    0.000000e+00
4.059619e-06    -8.106298e-05    0.000000e+00
8.132481e-06    -8.109427e-05    0.000000e+00
1.223177e-05    -8.114651e-05    0.000000e+00
1.637057e-05    -8.121975e-05    0.000000e+00
2.056201e-05    -8.131397e-05    0.000000e+00
-2.079275e-05    -8.556006e-05    0.000000e+00
-1.655518e-05    -8.547630e-05    0.000000e+00
-1.237010e-05    -8.541127e-05    0.000000e+00
-8.224586e-06    -8.536500e-05    0.000000e+00
-4.105617e-06    -8.533734e-05    0.000000e+00
-1.110884e-18    -8.532815e-05    0.000000e+00
4.105617e-06    -8.533734e-05    0.000000e+00
8.224586e-06    -8.536500e-05    0.000000e+00
1.237010e-05    -8.541127e-05    0.000000e+00
1.655518e-05    -8.547630e-05    0.000000e+00
2.079275e-05    -8.556006e-05    0.000000e+00
-2.099650e-05    -8.984945e-05    0.000000e+00
-1.671813e-05    -8.977612e-05    0.000000e+00
-1.249202e-05    -8.971937e-05    0.000000e+00
-8.305581e-06    -8.967922e-05    0.000000e+00
-4.145995e-06    -8.965536e-05    0.000000e+00
-1.175258e-18    -8.964746e-05    0.000000e+00
4.145995e-06    -8.965536e-05    0.000000e+00
8.305581e-06    -8.967922e-05    0.000000e+00
1.249202e-05    -8.971937e-05    0.000000e+00
1.671813e-05    -8.977612e-05    0.000000e+00
2.099650e-05    -8.984945e-05    0.000000e+00
-2.117350e-05    -9.417667e-05    0.000000e+00
-1.685951e-05    -9.411370e-05    0.000000e+00
-1.259734e-05    -9.406537e-05    0.000000e+00
-8.375194e-06    -9.403160e-05    0.000000e+00
-4.180563e-06    -9.401178e-05    0.000000e+00
-1.208716e-18    -9.400527e-05    0.000000e+00
4.180563e-06    -9.401178e-05    0.000000e+00
8.375194e-06    -9.403160e-05    0.000000e+00
1.259734e-05    -9.406537e-05    0.000000e+00
1.685951e-05    -9.411370e-05    0.000000e+00
2.117350e-05    -9.417667e-05    0.000000e+00
-2.132430e-05    -9.853637e-05    0.000000e+00
-1.697938e-05    -9.848363e-05    0.000000e+00
-1.268572e-05    -9.844391e-05    0.000000e+00
-8.432965e-06    -9.841690e-05    0.000000e+00
-4.209021e-06    -9.840142e-05    0.000000e+00
-1.266738e-18    -9.839639e-05    0.000000e+00
4.209021e-06    -9.840142e-05    0.000000e+00
8.432965e-06    -9.841690e-05    0.000000e+00
1.268572e-05    -9.844391e-05    0.000000e+00
1.697938e-05    -9.848363e-05    0.000000e+00
2.132430e-05    -9.853637e-05    0.000000e+00
-2.144999e-05    -1.029237e-04    0.000000e+00
-1.707785e-05    -1.028809e-04    0.000000e+00
-1.275660e-05    -1.028500e-04    0.000000e+00
-8.478273e-06    -1.028300e-04    0.000000e+00
-4.231021e-06    -1.028189e-04    0.000000e+00
-1.318830e-18    -1.028154e-04    0.000000e+00
4.231021e-06    -1.028189e-04    0.000000e+00
8.478273e-06    -1.028300e-04    0.000000e+00
1.275660e-05    -1.028500e-04    0.000000e+00
1.707785e-05    -1.028809e-04    0.000000e+00
2.144999e-05    -1.029237e-04    0.000000e+00
-2.155253e-05    -1.073349e-04    0.000000e+00
-1.715484e-05    -1.073015e-04    0.000000e+00
-1.280921e-05    -1.072794e-04    0.000000e+00
-8.510656e-06    -1.072658e-04    0.000000e+00
-4.246456e-06    -1.072583e-04    0.000000e+00
-1.270549e-18    -1.072559e-04    0.000000e+00
4.246456e-06    -1.072583e-04    0.000000e+00
8.510656e-06    -1.072658e-04    0.000000e+00
1.280921e-05    -1.072794e-04    0.000000e+00
1.715484e-05    -1.073015e-04    0.000000e+00
2.155253e-05    -1.073349e-04    0.000000e+00
-2.163503e-05    -1.117700e-04    0.000000e+00
-1.720978e-05    -1.117450e-04    0.000000e+00
-1.284333e-05    -1.117298e-04    0.000000e+00
-8.531020e-06    -1.117188e-04    0.000000e+00
-4.256156e-06    -1.117113e-04    0.000000e+00
-1.201516e-18    -1.117086e-04    0.000000e+00
4.256156e-06    -1.117113e-04    0.000000e+00
8.531020e-06    -1.117188e-04    0.000000e+00
1.284333e-05    -1.117298e-04    0.000000e+00
1.720978e-05    -1.117450e-04    0.000000e+00
2.163503e-05    -1.117700e-04    0.000000e+00
-2.169949e-05    -1.162370e-04    0.000000e+00
-1.724164e-05    -1.162189e-04    0.000000e+00
-1.286288e-05    -1.162004e-04    0.000000e+00
-8.543955e-06    -1.161798e-04    0.000000e+00
-4.262740e-06    -1.161644e-04    0.000000e+00
-1.196858e-18    -1.161588e-04    0.000000e+00
4.262740e-06    -1.161644e-04    0.000000e+00
8.543955e-06    -1.161798e-04    0.000000e+00
1.286288e-05    -1.162004e-04    0.000000e+00
1.724164e-05    -1.162189e-04    0.000000e+00
2.169949e-05    -1.162370e-04    0.000000e+00
-2.173360e-05    -1.207760e-04    0.000000e+00
-1.726183e-05    -1.207413e-04    0.000000e+00
-1.288270e-05    -1.206828e-04    0.000000e+00
-8.559069e-06    -1.206300e-04    0.000000e+00
-4.270914e-06    -1.205948e-04    0.000000e+00
-1.202787e-18    -1.205825e-04    0.000000e+00
4.270914e-06    -1.205948e-04    0.000000e+00
8.559069e-06    -1.206300e-04    0.000000e+00
1.288270e-05    -1.206828e-04    0.000000e+00
1.726183e-05    -1.207413e-04    0.000000e+00
2.173360e-05    -1.207760e-04    0.000000e+00

CELL_DATA      400
TENSORS Element_Stress3.400000e-01 double
1.819989e+06 2.550905e+05        0
2.550905e+05 4.162085e+05        0
       0        0        0

1.243311e+06 1.308018e+05        0
1.308018e+05 3.564992e+05        0
       0        0        0

8.648365e+05 4.298569e+04        0
4.298569e+04 2.749050e+05        0
       0        0        0

5.098409e+05 -3.588784e+03        0
-3.588784e+03 1.689538e+05        0
       0        0        0

1.687995e+05 -2.488722e+04        0
-2.488722e+04 5.693099e+04        0
       0        0        0

-1.687637e+05 -2.488109e+04        0
-2.488109e+04 -5.693904e+04        0
       0        0        0

-5.093654e+05 -3.589522e+03        0
-3.589522e+03 -1.687892e+05        0
       0        0        0

-8.634265e+05 4.291395e+04        0
4.291395e+04 -2.743766e+05        0
       0        0        0

-1.240327e+06 1.305133e+05        0
1.305133e+05 -3.553561e+05        0
       0        0        0

-1.813770e+06 2.542806e+05        0
2.542806e+05 -4.140581e+05        0
       0        0        0

1.641529e+06 4.157930e+04        0
4.157930e+04 4.232956e+03        0
       0        0        0

1.321921e+06 1.205962e+05        0
1.205962e+05 1.286401e+05        0
       0        0        0

9.079574e+05 9.896380e+04        0
9.896380e+04 1.314744e+05        0
       0        0        0

5.362293e+05 7.576972e+04        0
7.576972e+04 9.190209e+04        0
       0        0        0

1.767604e+05 6.318371e+04        0
6.318371e+04 3.206691e+04        0
       0        0        0

-1.777974e+05 6.316538e+04        0
6.316538e+04 -3.315752e+04        0
       0        0        0

-5.367627e+05 7.570432e+04        0
7.570432e+04 -9.281322e+04        0
       0        0        0

-9.074116e+05 9.882373e+04        0
9.882373e+04 -1.319928e+05        0
       0        0        0

-1.319399e+06 1.203589e+05        0
1.203589e+05 -1.283882e+05        0
       0        0        0

-1.636928e+06 4.149271e+04        0
4.149271e+04 -3.135264e+03        0
       0        0        0

1.584438e+06 1.540773e+04        0
1.540773e+04 6.613198e+03        0
       0        0        0

1.271179e+06 6.829992e+04        0
6.829992e+04 1.757103e+04        0
       0        0        0

9.143464e+05 1.015190e+05        0
1.015190e+05 4.236217e+04        0
       0        0        0

5.429084e+05 1.074284e+05        0
1.074284e+05 3.591125e+04        0
       0        0        0

1.790889e+05 1.073568e+05        0
1.073568e+05 1.271643e+04        0
       0        0        0

-1.824198e+05 1.073289e+05        0
1.073289e+05 -1.610566e+04        0
       0        0        0

-5.457076e+05 1.073453e+05        0
1.073453e+05 -3.911063e+04        0
       0        0        0

-9.160156e+05 1.013900e+05        0
1.013900e+05 -4.513628e+04        0
       0        0        0

-1.271153e+06 6.818514e+04        0
6.818514e+04 -1.966112e+04        0
       0        0        0

-1.582463e+06 1.537585e+04        0
1.537585e+04 -7.908573e+03        0
       0        0        0

1.545634e+06 1.426585e+04        0
1.426585e+04 -3.973625e+03        0
       0        0        0

1.226290e+06 5.545569e+04        0
5.545569e+04 -1.952151e+03        0
       0        0        0

8.862710e+05 9.240851e+04        0
9.240851e+04 2.932584e+03        0
       0        0        0

5.329622e+05 1.145522e+05        0
1.145522e+05 5.876339e+03        0
       0        0        0

1.753192e+05 1.233034e+05        0
1.233034e+05 6.887416e+02        0
       0        0        0

-1.819845e+05 1.232739e+05        0
1.232739e+05 -7.412104e+03        0
       0        0        0

-5.391018e+05 1.144705e+05        0
1.144705e+05 -1.240622e+04        0
       0        0        0

-8.913486e+05 9.230097e+04        0
9.230097e+04 -9.053594e+03        0
       0        0        0

-1.229793e+06 5.536756e+04        0
5.536756e+04 -3.526303e+03        0
       0        0        0

-1.547036e+06 1.423785e+04        0
1.423785e+04 -5.492608e+02        0
       0        0        0

1.508950e+06 1.712205e+04        0
1.712205e+04 -5.563805e+03        0
       0        0        0

1.184966e+06 5.446161e+04        0
5.446161e+04 -8.573268e+03        0
       0        0        0

8.538872e+05 8.901423e+04        0
8.901423e+04 -8.325103e+03        0
       0        0        0

5.135732e+05 1.135902e+05        0
1.135902e+05 -6.741557e+03        0
       0        0        0

1.680543e+05 1.257894e+05        0
1.257894e+05 -5.635487e+03        0
       0        0        0

-1.789317e+05 1.257611e+05        0
1.257611e+05 -5.297118e+03        0
       0        0        0

-5.239560e+05 1.135140e+05        0
1.135140e+05 -4.006842e+03        0
       0        0        0

-8.632790e+05 8.891573e+04        0
8.891573e+04 -2.040037e+03        0
       0        0        0

-1.192865e+06 5.437843e+04        0
5.437843e+04 -1.177262e+03        0
       0        0        0

-1.514791e+06 1.708910e+04        0
1.708910e+04 -3.262099e+03        0
       0        0        0

1.469214e+06 1.958034e+04        0
1.958034e+04 -7.906419e+03        0
       0        0        0

1.146720e+06 5.641943e+04        0
5.641943e+04 -1.054198e+04        0
       0        0        0

8.221603e+05 8.834584e+04        0
8.834584e+04 -1.192131e+04        0
       0        0        0

4.927104e+05 1.117222e+05        0
1.117222e+05 -1.113282e+04        0
       0        0        0

1.593594e+05 1.239064e+05        0
1.239064e+05 -9.152264e+03        0
       0        0        0

-1.752128e+05 1.238797e+05        0
1.238797e+05 -6.752453e+03        0
       0        0        0

-5.081099e+05 1.116504e+05        0
1.116504e+05 -4.606789e+03        0
       0        0        0

-8.366493e+05 8.825168e+04        0
8.825168e+04 -3.476137e+03        0
       0        0        0

-1.159828e+06 5.633582e+04        0
5.633582e+04 -4.308384e+03        0
       0        0        0

-1.480414e+06 1.954358e+04        0
1.954358e+04 -6.135072e+03        0
       0        0        0

1.426632e+06 2.113454e+04        0
2.113454e+04 -1.052269e+04        0
       0        0        0

1.109515e+06 5.832294e+04        0
5.832294e+04 -1.235899e+04        0
       0        0        0

7.921640e+05 8.860125e+04        0
8.860125e+04 -1.361306e+04        0
       0        0        0

4.724853e+05 1.102934e+05        0
1.102934e+05 -1.336260e+04        0
       0        0        0

1.505771e+05 1.216193e+05        0
1.216193e+05 -1.180958e+04        0
       0        0        0

-1.720900e+05 1.215941e+05        0
1.215941e+05 -9.751034e+03        0
       0        0        0

-4.935921e+05 1.102248e+05        0
1.102248e+05 -8.061124e+03        0
       0        0        0

-8.124548e+05 8.850977e+04        0
8.850977e+04 -7.527991e+03        0
       0        0        0

-1.128566e+06 5.823896e+04        0
5.823896e+04 -8.333598e+03        0
       0        0        0

-1.443985e+06 2.109590e+04        0
2.109590e+04 -9.522083e+03        0
       0        0        0

1.382055e+06 2.199183e+04        0
2.199183e+04 -1.362819e+04        0
       0        0        0

1.072569e+06 5.958705e+04        0
5.958705e+04 -1.471238e+04        0
       0        0        0

7.633507e+05 8.897009e+04        0
8.897009e+04 -1.556443e+04        0
       0        0        0

4.531792e+05 1.094368e+05        0
1.094368e+05 -1.551447e+04        0
       0        0        0

1.419137e+05 1.199823e+05        0
1.199823e+05 -1.457856e+04        0
       0        0        0

-1.697038e+05 1.199582e+05        0
1.199582e+05 -1.325601e+04        0
       0        0        0

-4.806155e+05 1.093709e+05        0
1.093709e+05 -1.221802e+04        0
       0        0        0

-7.900759e+05 8.888099e+04        0
8.888099e+04 -1.195766e+04        0
       0        0        0

-1.098215e+06 5.950374e+04        0
5.950374e+04 -1.247791e+04        0
       0        0        0

-1.406234e+06 2.195276e+04        0
2.195276e+04 -1.308974e+04        0
       0        0        0

1.336256e+06 2.242096e+04        0
2.242096e+04 -1.711846e+04        0
       0        0        0

1.035541e+06 6.029806e+04        0
6.029806e+04 -1.769580e+04        0
       0        0        0

7.351544e+05 8.924013e+04        0
8.924013e+04 -1.818191e+04        0
       0        0        0

4.344597e+05 1.089828e+05        0
1.089828e+05 -1.819415e+04        0
       0        0        0

1.333170e+05 1.190221e+05        0
1.190221e+05 -1.769586e+04        0
       0        0        0

-1.679385e+05 1.189990e+05        0
1.189990e+05 -1.696719e+04        0
       0        0        0

-4.687820e+05 1.089193e+05        0
1.089193e+05 -1.640531e+04        0
       0        0        0

-7.688751e+05 8.915348e+04        0
8.915348e+04 -1.628599e+04        0
       0        0        0

-1.068350e+06 6.021628e+04        0
6.021628e+04 -1.656399e+04        0
       0        0        0

-1.367831e+06 2.238231e+04        0
2.238231e+04 -1.684513e+04        0
       0        0        0

1.289735e+06 2.261762e+04        0
2.261762e+04 -2.091999e+04        0
       0        0        0

9.983272e+05 6.065621e+04        0
6.065621e+04 -2.117858e+04        0
       0        0        0

7.071824e+05 8.939878e+04        0
8.939878e+04 -2.141022e+04        0
       0        0        0

4.159997e+05 1.087639e+05        0
1.087639e+05 -2.141904e+04        0
       0        0        0

1.246841e+05 1.185234e+05        0
1.185234e+05 -2.117239e+04        0
       0        0        0

-1.666270e+05 1.185011e+05        0
1.185011e+05 -2.080943e+04        0
       0        0        0

-4.576985e+05 1.087025e+05        0
1.087025e+05 -2.053906e+04        0
       0        0        0

-7.483901e+05 8.931470e+04        0
8.931470e+04 -2.049719e+04        0
       0        0        0

-1.038791e+06 6.057653e+04        0
6.057653e+04 -2.064504e+04        0
       0        0        0

-1.329193e+06 2.257986e+04        0
2.257986e+04 -2.077862e+04        0
       0        0        0

1.242787e+06 2.269939e+04        0
2.269939e+04 -2.496588e+04        0
       0        0        0

9.609130e+05 6.082022e+04        0
6.082022e+04 -2.502561e+04        0
       0        0        0

6.792235e+05 8.948063e+04        0
8.948063e+04 -2.509054e+04        0
       0        0        0

3.975874e+05 1.086673e+05        0
1.086673e+05 -2.507097e+04        0
       0        0        0

1.159500e+05 1.182882e+05        0
1.182882e+05 -2.494625e+04        0
       0        0        0

-1.656400e+05 1.182666e+05        0
1.182666e+05 -2.478007e+04        0
       0        0        0

-4.470874e+05 1.086079e+05        0
1.086079e+05 -2.467143e+04        0
       0        0        0

-7.283410e+05 8.939921e+04        0
8.939921e+04 -2.468139e+04        0
       0        0        0

-1.009451e+06 6.074292e+04        0
6.074292e+04 -2.478432e+04        0
       0        0        0

-1.290540e+06 2.266273e+04        0
2.266273e+04 -2.488366e+04        0
       0        0        0

1.195573e+06 2.272922e+04        0
2.272922e+04 -2.920443e+04        0
       0        0        0

9.233182e+05 6.088793e+04        0
6.088793e+04 -2.913166e+04        0
       0        0        0

6.511836e+05 8.951854e+04        0
8.951854e+04 -2.908517e+04        0
       0        0        0

3.791167e+05 1.086285e+05        0
1.086285e+05 -2.902866e+04        0
       0        0        0

1.070887e+05 1.181873e+05        0
1.181873e+05 -2.895167e+04        0
       0        0        0

-1.648874e+05 1.181665e+05        0
1.181665e+05 -2.888087e+04        0
       0        0        0

-4.367781e+05 1.085711e+05        0
1.085711e+05 -2.885894e+04        0
       0        0        0

-7.085683e+05 8.943983e+04        0
8.943983e+04 -2.891021e+04        0
       0        0        0

-9.802820e+05 6.081315e+04        0
6.081315e+04 -2.901966e+04        0
       0        0        0

-1.251965e+06 2.269375e+04        0
2.269375e+04 -2.914451e+04        0
       0        0        0

1.148183e+06 2.273775e+04        0
2.273775e+04 -3.359381e+04        0
       0        0        0

8.855734e+05 6.091210e+04        0
6.091210e+04 -3.342273e+04        0
       0        0        0

6.230350e+05 8.953409e+04        0
8.953409e+04 -3.329549e+04        0
       0        0        0

3.605492e+05 1.086148e+05        0
1.086148e+05 -3.320040e+04        0
       0        0        0

9.810139e+04 1.181487e+05        0
1.181487e+05 -3.313334e+04        0
       0        0        0

-1.643077e+05 1.181286e+05        0
1.181286e+05 -3.310450e+04        0
       0        0        0

-4.266693e+05 1.085595e+05        0
1.085595e+05 -3.313030e+04        0
       0        0        0

-6.889806e+05 8.945812e+04        0
8.945812e+04 -3.321869e+04        0
       0        0        0

-9.512515e+05 6.083992e+04        0
6.083992e+04 -3.336110e+04        0
       0        0        0

-1.213495e+06 2.270352e+04        0
2.270352e+04 -3.353937e+04        0
       0        0        0

1.100674e+06 2.273865e+04        0
2.273865e+04 -3.809865e+04        0
       0        0        0

8.477107e+05 6.091848e+04        0
6.091848e+04 -3.784614e+04        0
       0        0        0

5.947827e+05 8.953930e+04        0
8.953930e+04 -3.765416e+04        0
       0        0        0

3.418830e+05 1.086108e+05        0
1.086108e+05 -3.752132e+04        0
       0        0        0

8.900422e+04 1.181363e+05        0
1.181363e+05 -3.744691e+04        0
       0        0        0

-1.638564e+05 1.181169e+05        0
1.181169e+05 -3.743453e+04        0
       0        0        0

-4.166983e+05 1.085575e+05        0
1.085575e+05 -3.748944e+04        0
       0        0        0

-6.695219e+05 8.946609e+04        0
8.946609e+04 -3.761302e+04        0
       0        0        0

-9.223303e+05 6.084891e+04        0
6.084891e+04 -3.780015e+04        0
       0        0        0

-1.175123e+06 2.270565e+04        0
2.270565e+04 -3.804283e+04        0
       0        0        0

1.053082e+06 2.273739e+04        0
2.273739e+04 -4.268739e+04        0
       0        0        0

8.097615e+05 6.091851e+04        0
6.091851e+04 -4.236194e+04        0
       0        0        0

5.664465e+05 8.954020e+04        0
8.954020e+04 -4.211350e+04        0
       0        0        0

3.231342e+05 1.086101e+05        0
1.086101e+05 -4.194446e+04        0
       0        0        0

7.982043e+04 1.181337e+05        0
1.181337e+05 -4.185578e+04        0
       0        0        0

-1.634979e+05 1.181151e+05        0
1.181151e+05 -4.184879e+04        0
       0        0        0

-4.068222e+05 1.085588e+05        0
1.085588e+05 -4.192452e+04        0
       0        0        0

-6.501532e+05 8.946975e+04        0
8.946975e+04 -4.208207e+04        0
       0        0        0

-8.934906e+05 6.085157e+04        0
6.085157e+04 -4.231797e+04        0
       0        0        0

-1.136831e+06 2.270564e+04        0
2.270564e+04 -4.262790e+04        0
       0        0        0

1.005439e+06 2.273589e+04        0
2.273589e+04 -4.733090e+04        0
       0        0        0

7.717551e+05 6.091679e+04        0
6.091679e+04 -4.693730e+04        0
       0        0        0

5.380516e+05 8.953953e+04        0
8.953953e+04 -4.663696e+04        0
       0        0        0

3.043262e+05 1.086102e+05        0
1.086102e+05 -4.643338e+04        0
       0        0        0

7.057594e+04 1.181341e+05        0
1.181341e+05 -4.632828e+04        0
       0        0        0

-1.632016e+05 1.181162e+05        0
1.181162e+05 -4.632237e+04        0
       0        0        0

-3.970078e+05 1.085608e+05        0
1.085608e+05 -4.641540e+04        0
       0        0        0

-6.308431e+05 8.947184e+04        0
8.947184e+04 -4.660582e+04        0
       0        0        0

-8.647056e+05 6.085247e+04        0
6.085247e+04 -4.689089e+04        0
       0        0        0

-1.098591e+06 2.270539e+04        0
2.270539e+04 -4.726737e+04        0
       0        0        0

9.577719e+05 2.273466e+04        0
2.273466e+04 -5.200169e+04        0
       0        0        0

7.337195e+05 6.091491e+04        0
6.091491e+04 -5.154325e+04        0
       0        0        0

5.096245e+05 8.953843e+04        0
8.953843e+04 -5.119394e+04        0
       0        0        0

2.854846e+05 1.086102e+05        0
1.086102e+05 -5.095743e+04        0
       0        0        0

6.129723e+04 1.181352e+05        0
1.181352e+05 -5.083574e+04        0
       0        0        0

-1.629395e+05 1.181180e+05        0
1.181180e+05 -5.082953e+04        0
       0        0        0

-3.872266e+05 1.085629e+05        0
1.085629e+05 -5.093831e+04        0
       0        0        0

-6.115637e+05 8.947350e+04        0
8.947350e+04 -5.116048e+04        0
       0        0        0

-8.359488e+05 6.085321e+04        0
6.085321e+04 -5.149356e+04        0
       0        0        0

-1.060378e+06 2.270540e+04        0
2.270540e+04 -5.193445e+04        0
       0        0        0

9.101069e+05 2.273372e+04        0
2.273372e+04 -5.667359e+04        0
       0        0        0

6.956811e+05 6.091329e+04        0
6.091329e+04 -5.615311e+04        0
       0        0        0

4.811915e+05 8.953731e+04        0
8.953731e+04 -5.575713e+04        0
       0        0        0

2.666353e+05 1.086101e+05        0
1.086101e+05 -5.548922e+04        0
       0        0        0

5.201024e+04 1.181361e+05        0
1.181361e+05 -5.535150e+04        0
       0        0        0

-1.626854e+05 1.181197e+05        0
1.181197e+05 -5.534472e+04        0
       0        0        0

-3.774521e+05 1.085648e+05        0
1.085648e+05 -5.546844e+04        0
       0        0        0

-5.922892e+05 8.947514e+04        0
8.947514e+04 -5.572116e+04        0
       0        0        0

-8.071945e+05 6.085422e+04        0
6.085422e+04 -5.610049e+04        0
       0        0        0

-1.022164e+06 2.270571e+04        0
2.270571e+04 -5.660322e+04        0
       0        0        0

8.624687e+05 2.273300e+04        0
2.273300e+04 -6.132155e+04        0
       0        0        0

6.576652e+05 6.091196e+04        0
6.091196e+04 -6.074172e+04        0
       0        0        0

4.527779e+05 8.953629e+04        0
8.953629e+04 -6.030117e+04        0
       0        0        0

2.478036e+05 1.086099e+05        0
1.086099e+05 -6.000334e+04        0
       0        0        0

4.274002e+04 1.181369e+05        0
1.181369e+05 -5.985035e+04        0
       0        0        0

-1.624142e+05 1.181212e+05        0
1.181212e+05 -5.984308e+04        0
       0        0        0

-3.676594e+05 1.085666e+05        0
1.085666e+05 -5.998117e+04        0
       0        0        0

-5.729947e+05 8.947689e+04        0
8.947689e+04 -6.026322e+04        0
       0        0        0

-7.784179e+05 6.085551e+04        0
6.085551e+04 -6.068684e+04        0
       0        0        0

-9.839253e+05 2.270624e+04        0
2.270624e+04 -6.124869e+04        0
       0        0        0

8.148808e+05 2.273242e+04        0
2.273242e+04 -6.592169e+04        0
       0        0        0

6.196956e+05 6.091085e+04        0
6.091085e+04 -6.528518e+04        0
       0        0        0

4.244076e+05 8.953540e+04        0
8.953540e+04 -6.480210e+04        0
       0        0        0

2.290133e+05 1.086097e+05        0
1.086097e+05 -6.447578e+04        0
       0        0        0

3.351054e+04 1.181375e+05        0
1.181375e+05 -6.430835e+04        0
       0        0        0

-1.621021e+05 1.181226e+05        0
1.181226e+05 -6.430072e+04        0
       0        0        0

-3.578248e+05 1.085684e+05        0
1.085684e+05 -6.445264e+04        0
       0        0        0

-5.536565e+05 8.947876e+04        0
8.947876e+04 -6.476276e+04        0
       0        0        0

-7.495950e+05 6.085703e+04        0
6.085703e+04 -6.522868e+04        0
       0        0        0

-9.456370e+05 2.270690e+04        0
2.270690e+04 -6.584695e+04        0
       0        0        0

7.673660e+05 2.273192e+04        0
2.273192e+04 -7.045115e+04        0
       0        0        0

5.817954e+05 6.090990e+04        0
6.090990e+04 -6.976069e+04        0
       0        0        0

3.961038e+05 8.953462e+04        0
8.953462e+04 -6.923714e+04        0
       0        0        0

2.102876e+05 1.086095e+05        0
1.086095e+05 -6.888376e+04        0
       0        0        0

2.434470e+04 1.181381e+05        0
1.181381e+05 -6.870266e+04        0
       0        0        0

-1.617263e+05 1.181239e+05        0
1.181239e+05 -6.869480e+04        0
       0        0        0

-3.479255e+05 1.085703e+05        0
1.085703e+05 -6.885998e+04        0
       0        0        0

-5.342519e+05 8.948074e+04        0
8.948074e+04 -6.919690e+04        0
       0        0        0

-7.207032e+05 6.085870e+04        0
6.085870e+04 -6.970315e+04        0
       0        0        0

-9.072762e+05 2.270764e+04        0
2.270764e+04 -7.037517e+04        0
       0        0        0

7.199458e+05 2.273148e+04        0
2.273148e+04 -7.488821e+04        0
       0        0        0

5.439861e+05 6.090908e+04        0
6.090908e+04 -7.414653e+04        0
       0        0        0

3.678881e+05 8.953396e+04        0
8.953396e+04 -7.358459e+04        0
       0        0        0

1.916483e+05 1.086094e+05        0
1.086094e+05 -7.320556e+04        0
       0        0        0

1.526429e+04 1.181387e+05        0
1.181387e+05 -7.301155e+04        0
       0        0        0

-1.612651e+05 1.181252e+05        0
1.181252e+05 -7.300354e+04        0
       0        0        0

-3.379400e+05 1.085721e+05        0
1.085721e+05 -7.318140e+04        0
       0        0        0

-5.147592e+05 8.948285e+04        0
8.948285e+04 -7.354384e+04        0
       0        0        0

-6.917206e+05 6.086051e+04        0
6.086051e+04 -7.408844e+04        0
       0        0        0

-8.688211e+05 2.270845e+04        0
2.270845e+04 -7.481159e+04        0
       0        0        0

6.726410e+05 2.273112e+04        0
2.273112e+04 -7.921220e+04        0
       0        0        0

5.062885e+05 6.090841e+04        0
6.090841e+04 -7.842209e+04        0
       0        0        0

3.397814e+05 8.953342e+04        0
8.953342e+04 -7.782385e+04        0
       0        0        0

1.731160e+05 1.086093e+05        0
1.086093e+05 -7.742059e+04        0
       0        0        0

6.289982e+03 1.181392e+05        0
1.181392e+05 -7.721439e+04        0
       0        0        0

-1.606979e+05 1.181264e+05        0
1.181264e+05 -7.720627e+04        0
       0        0        0

-3.278475e+05 1.085741e+05        0
1.085741e+05 -7.739616e+04        0
       0        0        0

-4.951578e+05 8.948507e+04        0
8.948507e+04 -7.778285e+04        0
       0        0        0

-6.626266e+05 6.086246e+04        0
6.086246e+04 -7.836387e+04        0
       0        0        0

-8.302509e+05 2.270933e+04        0
2.270933e+04 -7.913554e+04        0
       0        0        0

6.254708e+05 2.273085e+04        0
2.273085e+04 -8.340357e+04        0
       0        0        0

4.687220e+05 6.090791e+04        0
6.090791e+04 -8.256783e+04        0
       0        0        0

3.118032e+05 8.953300e+04        0
8.953300e+04 -8.193541e+04        0
       0        0        0

1.547105e+05 1.086092e+05        0
1.086092e+05 -8.150931e+04        0
       0        0        0

-2.558601e+03 1.181397e+05        0
1.181397e+05 -8.129161e+04        0
       0        0        0

-1.600050e+05 1.181277e+05        0
1.181277e+05 -8.128339e+04        0
       0        0        0

-3.176287e+05 1.085760e+05        0
1.085760e+05 -8.148467e+04        0
       0        0        0

-4.754282e+05 8.948741e+04        0
8.948741e+04 -8.189429e+04        0
       0        0        0

-6.334016e+05 6.086459e+04        0
6.086459e+04 -8.250981e+04        0
       0        0        0

-7.915459e+05 2.271030e+04        0
2.271030e+04 -8.332743e+04        0
       0        0        0

5.784537e+05 2.273073e+04        0
2.273073e+04 -8.744383e+04        0
       0        0        0

4.313053e+05 6.090764e+04        0
6.090764e+04 -8.656528e+04        0
       0        0        0

2.839722e+05 8.953271e+04        0
8.953271e+04 -8.590079e+04        0
       0        0        0

1.364503e+05 1.086091e+05        0
1.086091e+05 -8.545323e+04        0
       0        0        0

-1.126294e+04 1.181401e+05        0
1.181401e+05 -8.522472e+04        0
       0        0        0

-1.591682e+05 1.181288e+05        0
1.181288e+05 -8.521642e+04        0
       0        0        0

-3.072650e+05 1.085779e+05        0
1.085779e+05 -8.542843e+04        0
       0        0        0

-4.555520e+05 8.948988e+04        0
8.948988e+04 -8.585967e+04        0
       0        0        0

-6.040270e+05 6.086694e+04        0
6.086694e+04 -8.650774e+04        0
       0        0        0

-7.526875e+05 2.271143e+04        0
2.271143e+04 -8.736876e+04        0
       0        0        0

5.316067e+05 2.273084e+04        0
2.273084e+04 -9.131557e+04        0
       0        0        0

3.940557e+05 6.090763e+04        0
6.090763e+04 -9.039700e+04        0
       0        0        0

2.563059e+05 8.953249e+04        0
8.953249e+04 -8.970243e+04        0
       0        0        0

1.183529e+05 1.086090e+05        0
1.086090e+05 -8.923476e+04        0
       0        0        0

-1.980560e+04 1.181405e+05        0
1.181405e+05 -8.899624e+04        0
       0        0        0

-1.581699e+05 1.181299e+05        0
1.181299e+05 -8.898806e+04        0
       0        0        0

-2.967393e+05 1.085798e+05        0
1.085798e+05 -8.921023e+04        0
       0        0        0

-4.355120e+05 8.949242e+04        0
8.949242e+04 -8.966172e+04        0
       0        0        0

-5.744856e+05 6.086955e+04        0
6.086955e+04 -9.034030e+04        0
       0        0        0

-7.136578e+05 2.271278e+04        0
2.271278e+04 -9.124211e+04        0
       0        0        0

4.849459e+05 2.273119e+04        0
2.273119e+04 -9.500241e+04        0
       0        0        0

3.569899e+05 6.090769e+04        0
6.090769e+04 -9.404635e+04        0
       0        0        0

2.288208e+05 8.953212e+04        0
8.953212e+04 -9.332341e+04        0
       0        0        0

1.004346e+05 1.086088e+05        0
1.086088e+05 -9.283694e+04        0
       0        0        0

-2.817035e+04 1.181410e+05        0
1.181410e+05 -9.258959e+04        0
       0        0        0

-1.569939e+05 1.181312e+05        0
1.181312e+05 -9.258229e+04        0
       0        0        0

-2.860352e+05 1.085816e+05        0
1.085816e+05 -9.281445e+04        0
       0        0        0

-4.152920e+05 8.949482e+04        0
8.949482e+04 -9.328475e+04        0
       0        0        0

-5.447612e+05 6.087225e+04        0
6.087225e+04 -9.399143e+04        0
       0        0        0

-6.744404e+05 2.271438e+04        0
2.271438e+04 -9.493115e+04        0
       0        0        0

4.384867e+05 2.273158e+04        0
2.273158e+04 -9.848889e+04        0
       0        0        0

3.201234e+05 6.090703e+04        0
6.090703e+04 -9.749713e+04        0
       0        0        0

2.015319e+05 8.953099e+04        0
8.953099e+04 -9.674662e+04        0
       0        0        0

8.270986e+04 1.086090e+05        0
1.086090e+05 -9.624262e+04        0
       0        0        0

-3.634236e+04 1.181431e+05        0
1.181431e+05 -9.598874e+04        0
       0        0        0

-1.556246e+05 1.181340e+05        0
1.181340e+05 -9.598474e+04        0
       0        0        0

-2.751368e+05 1.085839e+05        0
1.085839e+05 -9.622779e+04        0
       0        0        0

-3.948765e+05 8.949645e+04        0
8.949645e+04 -9.671541e+04        0
       0        0        0

-5.148389e+05 6.087421e+04        0
6.087421e+04 -9.744683e+04        0
       0        0        0

-6.350199e+05 2.271601e+04        0
2.271601e+04 -9.842078e+04        0
       0        0        0

3.922443e+05 2.273103e+04        0
2.273103e+04 -1.017602e+05        0
       0        0        0

2.834712e+05 6.090312e+04        0
6.090312e+04 -1.007326e+05        0
       0        0        0

1.744517e+05 8.952750e+04        0
8.952750e+04 -9.995318e+04        0
       0        0        0

6.519019e+04 1.086109e+05        0
1.086109e+05 -9.943296e+04        0
       0        0        0

-4.430881e+04 1.181505e+05        0
1.181505e+05 -9.917762e+04        0
       0        0        0

-1.540466e+05 1.181421e+05        0
1.181421e+05 -9.918331e+04        0
       0        0        0

-2.640273e+05 1.085877e+05        0
1.085877e+05 -9.944092e+04        0
       0        0        0

-3.742498e+05 8.949572e+04        0
8.949572e+04 -9.994434e+04        0
       0        0        0

-4.847053e+05 6.087292e+04        0
6.087292e+04 -1.006949e+05        0
       0        0        0

-5.953831e+05 2.271671e+04        0
2.271671e+04 -1.016972e+05        0
       0        0        0

3.462367e+05 2.272652e+04        0
2.272652e+04 -1.048019e+05        0
       0        0        0

2.470476e+05 6.088938e+04        0
6.088938e+04 -1.037334e+05        0
       0        0        0

1.475880e+05 8.951806e+04        0
8.951806e+04 -1.029192e+05        0
       0        0        0

4.788100e+04 1.086181e+05        0
1.086181e+05 -1.023845e+05        0
       0        0        0

-5.206018e+04 1.181726e+05        0
1.181726e+05 -1.021389e+05        0
       0        0        0

-1.522435e+05 1.181650e+05        0
1.181650e+05 -1.021694e+05        0
       0        0        0

-2.526862e+05 1.085970e+05        0
1.085970e+05 -1.024514e+05        0
       0        0        0

-3.533939e+05 8.948904e+04        0
8.948904e+04 -1.029695e+05        0
       0        0        0

-4.543486e+05 6.086181e+04        0
6.086181e+04 -1.037288e+05        0
       0        0        0

-5.555214e+05 2.271344e+04        0
2.271344e+04 -1.047484e+05        0
       0        0        0

3.004897e+05 2.271021e+04        0
2.271021e+04 -1.075985e+05        0
       0        0        0

2.108658e+05 6.085055e+04        0
6.085055e+04 -1.064743e+05        0
       0        0        0

1.209381e+05 8.949523e+04        0
8.949523e+04 -1.056104e+05        0
       0        0        0

3.077534e+04 1.086396e+05        0
1.086396e+05 -1.050639e+05        0
       0        0        0

-5.959295e+04 1.182312e+05        0
1.182312e+05 -1.048519e+05        0
       0        0        0

-1.501949e+05 1.182243e+05        0
1.182243e+05 -1.049397e+05        0
       0        0        0

-2.410831e+05 1.086205e+05        0
1.086205e+05 -1.052690e+05        0
       0        0        0

-3.322824e+05 8.946898e+04        0
8.946898e+04 -1.058018e+05        0
       0        0        0

-4.237582e+05 6.082562e+04        0
6.082562e+04 -1.065501e+05        0
       0        0        0

-5.154360e+05 2.269839e+04        0
2.269839e+04 -1.075652e+05        0
       0        0        0

2.550482e+05 2.266388e+04        0
2.266388e+04 -1.101331e+05        0
       0        0        0

1.749360e+05 6.075428e+04        0
6.075428e+04 -1.089186e+05        0
       0        0        0

9.447705e+04 8.944517e+04        0
8.944517e+04 -1.079736e+05        0
       0        0        0

1.384178e+04 1.086954e+05        0
1.086954e+05 -1.074214e+05        0
       0        0        0

-6.691442e+04 1.183707e+05        0
1.183707e+05 -1.072899e+05        0
       0        0        0

-1.478716e+05 1.183645e+05        0
1.183645e+05 -1.074991e+05        0
       0        0        0

-2.291653e+05 1.086782e+05        0
1.086782e+05 -1.079221e+05        0
       0        0        0

-3.108704e+05 8.942169e+04        0
8.942169e+04 -1.084740e+05        0
       0        0        0

-3.929241e+05 6.073200e+04        0
6.073200e+04 -1.091751e+05        0
       0        0        0

-4.751497e+05 2.265332e+04        0
2.265332e+04 -1.101425e+05        0
       0        0        0

2.099983e+05 2.254886e+04        0
2.254886e+04 -1.123847e+05        0
       0        0        0

1.392600e+05 6.053833e+04        0
6.053833e+04 -1.110113e+05        0
       0        0        0

6.813651e+04 8.934542e+04        0
8.934542e+04 -1.099292e+05        0
       0        0        0

-2.996065e+03 1.088254e+05        0
1.088254e+05 -1.093858e+05        0
       0        0        0

-7.405045e+04 1.186743e+05        0
1.186743e+05 -1.094186e+05        0
       0        0        0

-1.452269e+05 1.186688e+05        0
1.186688e+05 -1.098611e+05        0
       0        0        0

-2.168373e+05 1.088103e+05        0
1.088103e+05 -1.104632e+05        0
       0        0        0

-2.890726e+05 8.932471e+04        0
8.932471e+04 -1.110491e+05        0
       0        0        0

-3.618320e+05 6.051873e+04        0
6.051873e+04 -1.116430e+05        0
       0        0        0

-4.347302e+05 2.253959e+04        0
2.253959e+04 -1.124830e+05        0
       0        0        0

1.655036e+05 2.229014e+04        0
2.229014e+04 -1.143283e+05        0
       0        0        0

1.038147e+05 6.009634e+04        0
6.009634e+04 -1.126764e+05        0
       0        0        0

4.176798e+04 8.916820e+04        0
8.916820e+04 -1.113758e+05        0
       0        0        0

-1.988737e+04 1.091034e+05        0
1.091034e+05 -1.108747e+05        0
       0        0        0

-8.105446e+04 1.192777e+05        0
1.192777e+05 -1.112007e+05        0
       0        0        0

-1.421859e+05 1.192729e+05        0
1.192729e+05 -1.120413e+05        0
       0        0        0

-2.039326e+05 1.090903e+05        0
1.090903e+05 -1.129568e+05        0
       0        0        0

-2.667292e+05 8.915029e+04        0
8.915029e+04 -1.136169e+05        0
       0        0        0

-3.304515e+05 6.007945e+04        0
6.007945e+04 -1.140222e+05        0
       0        0        0

-3.943305e+05 2.228217e+04        0
2.228217e+04 -1.146010e+05        0
       0        0        0

1.218578e+05 2.175666e+04        0
2.175666e+04 -1.159385e+05        0
       0        0        0

6.851479e+04 5.927917e+04        0
5.927917e+04 -1.138396e+05        0
       0        0        0

1.509572e+04 8.890393e+04        0
8.890393e+04 -1.122466e+05        0
       0        0        0

-3.707439e+04 1.096458e+05        0
1.096458e+05 -1.118627e+05        0
       0        0        0

-8.800864e+04 1.203539e+05        0
1.203539e+05 -1.126249e+05        0
       0        0        0

-1.386396e+05 1.203499e+05        0
1.203499e+05 -1.140245e+05        0
       0        0        0

-1.901908e+05 1.096347e+05        0
1.096347e+05 -1.154104e+05        0
       0        0        0

-2.435602e+05 8.888884e+04        0
8.888884e+04 -1.162399e+05        0
       0        0        0

-2.987050e+05 5.926503e+04        0
5.926503e+04 -1.163948e+05        0
       0        0        0

-3.542515e+05 2.175005e+04        0
2.175005e+04 -1.165292e+05        0
       0        0        0

7.952484e+04 2.075415e+04        0
2.075415e+04 -1.172201e+05        0
       0        0        0

3.312848e+04 5.796741e+04        0
5.796741e+04 -1.145275e+05        0
       0        0        0

-1.231227e+04 8.864012e+04        0
8.864012e+04 -1.127265e+05        0
       0        0        0

-5.484602e+04 1.105885e+05        0
1.105885e+05 -1.125963e+05        0
       0        0        0

-9.499126e+04 1.219934e+05        0
1.219934e+05 -1.137946e+05        0
       0        0        0

-1.344696e+05 1.219901e+05        0
1.219901e+05 -1.156669e+05        0
       0        0        0

-1.752980e+05 1.105795e+05        0
1.105795e+05 -1.175527e+05        0
       0        0        0

-2.191373e+05 8.862793e+04        0
8.862793e+04 -1.187372e+05        0
       0        0        0

-2.663965e+05 5.795606e+04        0
5.795606e+04 -1.187699e+05        0
       0        0        0

-3.150054e+05 2.074893e+04        0
2.074893e+04 -1.183113e+05        0
       0        0        0

3.907072e+04 1.910052e+04        0
1.910052e+04 -1.182688e+05        0
       0        0        0

-2.891878e+03 5.637520e+04        0
5.637520e+04 -1.152758e+05        0
       0        0        0

-4.091682e+04 8.873370e+04        0
8.873370e+04 -1.138540e+05        0
       0        0        0

-7.328650e+04 1.119325e+05        0
1.119325e+05 -1.141377e+05        0
       0        0        0

-1.019453e+05 1.238057e+05        0
1.238057e+05 -1.151239e+05        0
       0        0        0

-1.296639e+05 1.238034e+05        0
1.238034e+05 -1.164857e+05        0
       0        0        0

-1.591251e+05 1.119260e+05        0
1.119260e+05 -1.182764e+05        0
       0        0        0

-1.930065e+05 8.872462e+04        0
8.872462e+04 -1.200769e+05        0
       0        0        0

-2.330594e+05 5.636665e+04        0
5.636665e+04 -1.206929e+05        0
       0        0        0

-2.772980e+05 1.909667e+04        0
1.909667e+04 -1.199912e+05        0
       0        0        0

5.816030e+02 1.710147e+04        0
1.710147e+04 -1.199058e+05        0
       0        0        0

-4.050182e+04 5.591894e+04        0
5.591894e+04 -1.182594e+05        0
       0        0        0

-7.058485e+04 9.000712e+04        0
9.000712e+04 -1.191983e+05        0
       0        0        0

-9.154390e+04 1.128922e+05        0
1.128922e+05 -1.192833e+05        0
       0        0        0

-1.084196e+05 1.240318e+05        0
1.240318e+05 -1.175600e+05        0
       0        0        0

-1.245535e+05 1.240307e+05        0
1.240307e+05 -1.154133e+05        0
       0        0        0

-1.424323e+05 1.128888e+05        0
1.128888e+05 -1.146938e+05        0
       0        0        0

-1.652851e+05 9.000174e+04        0
9.000174e+04 -1.166746e+05        0
       0        0        0

-1.978728e+05 5.591321e+04        0
5.591321e+04 -1.201234e+05        0
       0        0        0

-2.415480e+05 1.709886e+04        0
1.709886e+04 -1.210799e+05        0
       0        0        0

-3.832668e+04 1.780045e+04        0
1.780045e+04 -1.240918e+05        0
       0        0        0

-8.050463e+04 6.133265e+04        0
6.133265e+04 -1.328547e+05        0
       0        0        0

-9.817434e+04 9.241077e+04        0
9.241077e+04 -1.375863e+05        0
       0        0        0

-1.068703e+05 1.101469e+05        0
1.101469e+05 -1.329626e+05        0
       0        0        0

-1.134301e+05 1.182635e+05        0
1.182635e+05 -1.226047e+05        0
       0        0        0

-1.199248e+05 1.182639e+05        0
1.182639e+05 -1.107502e+05        0
       0        0        0

-1.277862e+05 1.101476e+05        0
1.101476e+05 -1.016937e+05        0
       0        0        0

-1.390059e+05 9.241057e+04        0
9.241057e+04 -9.959399e+04        0
       0        0        0

-1.601534e+05 6.133045e+04        0
6.133045e+04 -1.078053e+05        0
       0        0        0

-2.060106e+05 1.779865e+04        0
1.779865e+04 -1.202551e+05        0
       0        0        0

-9.034997e+04 4.054643e+04        0
4.054643e+04 -1.562196e+05        0
       0        0        0

-1.137807e+05 7.593436e+04        0
7.593436e+04 -1.857893e+05        0
       0        0        0

-1.150112e+05 8.920211e+04        0
8.920211e+04 -1.816697e+05        0
       0        0        0

-1.153271e+05 9.571071e+04        0
9.571071e+04 -1.607768e+05        0
       0        0        0

-1.156887e+05 9.856025e+04        0
9.856025e+04 -1.317303e+05        0
       0        0        0

-1.167763e+05 9.856215e+04        0
9.856215e+04 -1.007343e+05        0
       0        0        0

-1.188051e+05 9.571588e+04        0
9.571588e+04 -7.335285e+04        0
       0        0        0

-1.224994e+05 8.920891e+04        0
8.920891e+04 -5.583537e+04        0
       0        0        0

-1.288443e+05 7.593997e+04        0
7.593997e+04 -5.682960e+04        0
       0        0        0

-1.585893e+05 4.054621e+04        0
4.054621e+04 -9.271986e+04        0
       0        0        0

POINT_DATA     451
VECTORS DISPLACEMENT_3.600000e-01 double
0.000000e+00    0.000000e+00    0.000000e+00
0.000000e+00    0.000000e+00    0.000000e+00
0.000000e+00    0.000000e+00    0.000000e+00
0.000000e+00    0.000000e+00    0.000000e+00
0.000000e+00    0.000000e+00    0.000000e+00
0.000000e+00    0.000000e+00    0.000000e+00
0.000000e+00    0.000000e+00    0.000000e+00
0.000000e+00    0.000000e+00    0.000000e+00
0.000000e+00    0.000000e+00    0.000000e+00
0.000000e+00    0.000000e+00    0.000000e+00
0.000000e+00    0.000000e+00    0.000000e+00
-1.141475e-06    -8.298706e-07    0.000000e+00
-7.232706e-07    -4.162622e-07    0.000000e+00
-5.160620e-07    -2.156989e-07    0.000000e+00
-3.331896e-07    -1.068153e-07    0.000000e+00
-1.642697e-07    -5.046314e-08    0.000000e+00
-3.603063e-20    -3.294200e-08    0.000000e+00
1.642697e-07    -5.046314e-08    0.000000e+00
3.331896e-07    -1.068153e-07    0.000000e+00
5.160620e-07    -2.156989e-07    0.000000e+00
7.232706e-07    -4.162622e-07    0.000000e+00
1.141475e-06    -8.298706e-07    0.000000e+00
-2.153717e-06    -1.380158e-06    0.000000e+00
-1.574274e-06    -9.986543e-07    0.000000e+00
-1.104981e-06    -7.014706e-07    0.000000e+00
-7.127575e-07    -5.176416e-07    0.000000e+00
-3.500672e-07    -4.174752e-07    0.000000e+00
-7.619574e-20    -3.856588e-07    0.000000e+00
3.500672e-07    -4.174752e-07    0.000000e+00
7.127575e-07    -5.176416e-07    0.000000e+00
1.104981e-06    -7.014706e-07    0.000000e+00
1.574274e-06    -9.986543e-07    0.000000e+00
2.153717e-06    -1.380158e-06    0.000000e+00
-3.132104e-06    -2.064408e-06    0.000000e+00
-2.393924e-06    -1.682069e-06    0.000000e+00
-1.722528e-06    -1.380603e-06    0.000000e+00
-1.115128e-06    -1.167960e-06    0.000000e+00
-5.486940e-07    -1.045396e-06    0.000000e+00
-1.200802e-19    -1.005472e-06    0.000000e+00
5.486940e-07    -1.045396e-06    0.000000e+00
1.115128e-06    -1.167960e-06    0.000000e+00
1.722528e-06    -1.380603e-06    0.000000e+00
2.393924e-06    -1.682069e-06    0.000000e+00
3.132104e-06    -2.064408e-06    0.000000e+00
-4.099656e-06    -2.908855e-06    0.000000e+00
-3.186553e-06    -2.535242e-06    0.000000e+00
-2.326724e-06    -2.238802e-06    0.000000e+00
-1.519256e-06    -2.024875e-06    0.000000e+00
-7.499807e-07    -1.896467e-06    0.000000e+00
-1.654030e-19    -1.853888e-06    0.000000e+00
7.499807e-07    -1.896467e-06    0.000000e+00
1.519256e-06    -2.024875e-06    0.000000e+00
2.326724e-06    -2.238802e-06    0.000000e+00
3.186553e-06    -2.535242e-06    0.000000e+00
4.099656e-06    -2.908855e-06    0.000000e+00
-5.050827e-06    -3.936227e-06    0.000000e+00
-3.956078e-06    -3.571334e-06    0.000000e+00
-2.911694e-06    -3.283845e-06    0.000000e+00
-1.912674e-06    -3.075547e-06    0.000000e+00
-9.474556e-07    -2.949448e-06    0.000000e+00
-2.119303e-19    -2.907238e-06    0.000000e+00
9.474556e-07    -2.949448e-06    0.000000e+00
1.912674e-06    -3.075547e-06    0.000000e+00
2.911694e-06    -3.283845e-06    0.000000e+00
3.956078e-06    -3.571334e-06    0.000000e+00
5.050827e-06    -3.936227e-06    0.000000e+00
-5.981268e-06    -5.149187e-06    0.000000e+00
-4.704040e-06    -4.793948e-06    0.000000e+00
-3.477392e-06    -4.515550e-06    0.000000e+00
-2.292694e-06    -4.314622e-06    0.000000e+00
-1.138371e-06    -4.193007e-06    0.000000e+00
-2.596421e-19    -4.152282e-06    0.000000e+00
1.138371e-06    -4.193007e-06    0.000000e+00
2.292694e-06    -4.314622e-06    0.000000e+00
3.477392e-06    -4.515550e-06    0.000000e+00
4.704040e-06    -4.793948e-06    0.000000e+00
5.981268e-06    -5.149187e-06    0.000000e+00
-6.887866e-06    -6.545677e-06    0.000000e+00
-5.430711e-06    -6.200488e-06    0.000000e+00
-4.024894e-06    -5.930949e-06    0.000000e+00
-2.659506e-06    -5.737207e-06    0.000000e+00
-1.322431e-06    -5.620275e-06    0.000000e+00
-3.046672e-19    -5.581162e-06    0.000000e+00
1.322431e-06    -5.620275e-06    0.000000e+00
2.659506e-06    -5.737207e-06    0.000000e+00
4.024894e-06    -5.930949e-06    0.000000e+00
5.430711e-06    -6.200488e-06    0.000000e+00
6.887866e-06    -6.545677e-06    0.000000e+00
-7.768901e-06    -8.121278e-06    0.000000e+00
-6.136000e-06    -7.786375e-06    0.000000e+00
-4.555059e-06    -7.525405e-06    0.000000e+00
-3.013929e-06    -7.338369e-06    0.000000e+00
-1.500026e-06    -7.225766e-06    0.000000e+00
-3.487393e-19    -7.188154e-06    0.000000e+00
1.500026e-06    -7.225766e-06    0.000000e+00
3.013929e-06    -7.338369e-06    0.000000e+00
4.555059e-06    -7.525405e-06    0.000000e+00
6.136000e-06    -7.786375e-06    0.000000e+00
7.768901e-06    -8.121278e-06    0.000000e+00
-8.623483e-06    -9.870798e-06    0.000000e+00
-6.819776e-06    -9.546291e-06    0.000000e+00
-5.068414e-06    -9.293690e-06    0.000000e+00
-3.356644e-06    -9.112965e-06    0.000000e+00
-1.671581e-06    -9.004341e-06    0.000000e+00
-3.951409e-19    -8.968093e-06    0.000000e+00
1.671581e-06    -9.004341e-06    0.000000e+00
3.356644e-06    -9.112965e-06    0.000000e+00
5.068414e-06    -9.293690e-06    0.000000e+00
6.819776e-06    -9.546291e-06    0.000000e+00
8.623483e-06    -9.870798e-06    0.000000e+00
-9.451197e-06    -1.178879e-05    0.000000e+00
-7.481944e-06    -1.147473e-05    0.000000e+00
-5.565246e-06    -1.123038e-05    0.000000e+00
-3.688077e-06    -1.105572e-05    0.000000e+00
-1.837390e-06    -1.095084e-05    0.000000e+00
-4.414100e-19    -1.091586e-05    0.000000e+00
1.837390e-06    -1.095084e-05    0.000000e+00
3.688077e-06    -1.105572e-05    0.000000e+00
5.565246e-06    -1.123038e-05    0.000000e+00
7.481944e-06    -1.147473e-05    0.000000e+00
9.451197e-06    -1.178879e-05    0.000000e+00
-1.025186e-05    -1.386976e-05    0.000000e+00
-8.122450e-06    -1.356616e-05    0.000000e+00
-6.045695e-06    -1.333000e-05    0.000000e+00
-4.008461e-06    -1.316127e-05    0.000000e+00
-1.997620e-06    -1.306000e-05    0.000000e+00
-4.815912e-19    -1.302623e-05    0.000000e+00
1.997620e-06    -1.306000e-05    0.000000e+00
4.008461e-06    -1.316127e-05    0.000000e+00
6.045695e-06    -1.333000e-05    0.000000e+00
8.122450e-06    -1.356616e-05    0.000000e+00
1.025186e-05    -1.386976e-05    0.000000e+00
-1.102541e-05    -1.610822e-05    0.000000e+00
-8.741266e-06    -1.581509e-05    0.000000e+00
-6.509823e-06    -1.558710e-05    0.000000e+00
-4.317909e-06    -1.542423e-05    0.000000e+00
-2.152359e-06    -1.532649e-05    0.000000e+00
-5.225664e-19    -1.529391e-05    0.000000e+00
2.152359e-06    -1.532649e-05    0.000000e+00
4.317909e-06    -1.542423e-05    0.000000e+00
6.509823e-06    -1.558710e-05    0.000000e+00
8.741266e-06    -1.581509e-05    0.000000e+00
1.102541e-05    -1.610822e-05    0.000000e+00
-1.177182e-05    -1.849872e-05    0.000000e+00
-9.338378e-06    -1.821605e-05    0.000000e+00
-6.957657e-06    -1.799621e-05    0.000000e+00
-4.616471e-06    -1.783917e-05    0.000000e+00
-2.301645e-06    -1.774494e-05    0.000000e+00
-5.694179e-19    -1.771353e-05    0.000000e+00
2.301645e-06    -1.774494e-05    0.000000e+00
4.616471e-06    -1.783917e-05    0.000000e+00
6.957657e-06    -1.799621e-05    0.000000e+00
9.338378e-06    -1.821605e-05    0.000000e+00
1.177182e-05    -1.849872e-05    0.000000e+00
-1.249108e-05    -2.103579e-05    0.000000e+00
-9.913780e-06    -2.076360e-05    0.000000e+00
-7.389204e-06    -2.055189e-05    0.000000e+00
-4.904170e-06    -2.040068e-05    0.000000e+00
-2.445495e-06    -2.030995e-05    0.000000e+00
-6.017110e-19    -2.027970e-05    0.000000e+00
2.445495e-06    -2.030995e-05    0.000000e+00
4.904170e-06    -2.040068e-05    0.000000e+00
7.389204e-06    -2.055189e-05    0.000000e+00
9.913780e-06    -2.076360e-05    0.000000e+00
1.249108e-05    -2.103579e-05    0.000000e+00
-1.318320e-05    -2.371401e-05    0.000000e+00
-1.046747e-05    -2.345229e-05    0.000000e+00
-7.804469e-06    -2.324872e-05    0.000000e+00
-5.181011e-06    -2.310332e-05    0.000000e+00
-2.583916e-06    -2.301608e-05    0.000000e+00
-6.308278e-19    -2.298700e-05    0.000000e+00
2.583916e-06    -2.301608e-05    0.000000e+00
5.181011e-06    -2.310332e-05    0.000000e+00
7.804469e-06    -2.324872e-05    0.000000e+00
1.046747e-05    -2.345229e-05    0.000000e+00
1.318320e-05    -2.371401e-05    0.000000e+00
-1.384818e-05    -2.652794e-05    0.000000e+00
-1.099945e-05    -2.627668e-05    0.000000e+00
-8.203450e-06    -2.608126e-05    0.000000e+00
-5.446998e-06    -2.594168e-05    0.000000e+00
-2.716908e-06    -2.585793e-05    0.000000e+00
-6.550741e-19    -2.583001e-05    0.000000e+00
2.716908e-06    -2.585793e-05    0.000000e+00
5.446998e-06    -2.594168e-05    0.000000e+00
8.203450e-06    -2.608126e-05    0.000000e+00
1.099945e-05    -2.627668e-05    0.000000e+00
1.384818e-05    -2.652794e-05    0.000000e+00
-1.448601e-05    -2.947215e-05    0.000000e+00
-1.150971e-05    -2.923136e-05    0.000000e+00
-8.586148e-06    -2.904409e-05    0.000000e+00
-5.702129e-06    -2.891032e-05    0.000000e+00
-2.844473e-06    -2.883005e-05    0.000000e+00
-6.622739e-19    -2.880330e-05    0.000000e+00
2.844473e-06    -2.883005e-05    0.000000e+00
5.702129e-06    -2.891032e-05    0.000000e+00
8.586148e-06    -2.904409e-05    0.000000e+00
1.150971e-05    -2.923136e-05    0.000000e+00
1.448601e-05    -2.947215e-05    0.000000e+00
-1.509670e-05    -3.254121e-05    0.000000e+00
-1.199827e-05    -3.231090e-05    0.000000e+00
-8.952562e-06    -3.213176e-05    0.000000e+00
-5.946404e-06    -3.200381e-05    0.000000e+00
-2.966611e-06    -3.192703e-05    0.000000e+00
-6.792145e-19    -3.190144e-05    0.000000e+00
2.966611e-06    -3.192703e-05    0.000000e+00
5.946404e-06    -3.200381e-05    0.000000e+00
8.952562e-06    -3.213176e-05    0.000000e+00
1.199827e-05    -3.231090e-05    0.000000e+00
1.509670e-05    -3.254121e-05    0.000000e+00
-1.568025e-05    -3.572970e-05    0.000000e+00
-1.246511e-05    -3.550985e-05    0.000000e+00
-9.302692e-06    -3.533886e-05    0.000000e+00
-6.179824e-06    -3.521672e-05    0.000000e+00
-3.083321e-06    -3.514344e-05    0.000000e+00
-7.052608e-19    -3.511901e-05    0.000000e+00
3.083321e-06    -3.514344e-05    0.000000e+00
6.179824e-06    -3.521672e-05    0.000000e+00
9.302692e-06    -3.533886e-05    0.000000e+00
1.246511e-05    -3.550985e-05    0.000000e+00
1.568025e-05    -3.572970e-05    0.000000e+00
-1.623667e-05    -3.903219e-05    0.000000e+00
-1.291024e-05    -3.882280e-05    0.000000e+00
-9.636538e-06    -3.865995e-05    0.000000e+00
-6.402388e-06    -3.854363e-05    0.000000e+00
-3.194603e-06    -3.847384e-05    0.000000e+00
-7.532240e-19    -3.845057e-05    0.000000e+00
3.194603e-06    -3.847384e-05    0.000000e+00
6.402388e-06    -3.854363e-05    0.000000e+00
9.636538e-06    -3.865995e-05    0.000000e+00
1.291024e-05    -3.882280e-05    0.000000e+00
1.623667e-05    -3.903219e-05    0.000000e+00
-1.676594e-05    -4.244324e-05    0.000000e+00
-1.333365e-05    -4.224433e-05    0.000000e+00
-9.954100e-06    -4.208962e-05    0.000000e+00
-6.614095e-06    -4.197911e-05    0.000000e+00
-3.300456e-06    -4.191281e-05    0.000000e+00
-8.148457e-19    -4.189070e-05    0.000000e+00
3.300456e-06    -4.191281e-05    0.000000e+00
6.614095e-06    -4.197911e-05    0.000000e+00
9.954100e-06    -4.208962e-05    0.000000e+00
1.333365e-05    -4.224433e-05    0.000000e+00
1.676594e-05    -4.244324e-05    0.000000e+00
-1.726806e-05    -4.595743e-05    0.000000e+00
-1.373536e-05    -4.576899e-05    0.000000e+00
-1.025538e-05    -4.562242e-05    0.000000e+00
-6.814947e-06    -4.551773e-05    0.000000e+00
-3.400882e-06    -4.545491e-05    0.000000e+00
-8.597384e-19    -4.543398e-05    0.000000e+00
3.400882e-06    -4.545491e-05    0.000000e+00
6.814947e-06    -4.551773e-05    0.000000e+00
1.025538e-05    -4.562242e-05    0.000000e+00
1.373536e-05    -4.576899e-05    0.000000e+00
1.726806e-05    -4.595743e-05    0.000000e+00
-1.774305e-05    -4.956934e-05    0.000000e+00
-1.411535e-05    -4.939136e-05    0.000000e+00
-1.054037e-05    -4.925294e-05    0.000000e+00
-7.004942e-06    -4.915406e-05    0.000000e+00
-3.495880e-06    -4.909474e-05    0.000000e+00
-8.849377e-19    -4.907496e-05    0.000000e+00
3.495880e-06    -4.909474e-05    0.000000e+00
7.004942e-06    -4.915406e-05    0.000000e+00
1.054037e-05    -4.925294e-05    0.000000e+00
1.411535e-05    -4.939136e-05    0.000000e+00
1.774305e-05    -4.956934e-05    0.000000e+00
-1.819090e-05    -5.327353e-05    0.000000e+00
-1.447362e-05    -5.310602e-05    0.000000e+00
-1.080908e-05    -5.297574e-05    0.000000e+00
-7.184081e-06    -5.288268e-05    0.000000e+00
-3.585449e-06    -5.282684e-05    0.000000e+00
-9.296187e-19    -5.280823e-05    0.000000e+00
3.585449e-06    -5.282684e-05    0.000000e+00
7.184081e-06    -5.288268e-05    0.000000e+00
1.080908e-05    -5.297574e-05    0.000000e+00
1.447362e-05    -5.310602e-05    0.000000e+00
1.819090e-05    -5.327353e-05    0.000000e+00
-1.861161e-05    -5.706457e-05    0.000000e+00
-1.481019e-05    -5.690753e-05    0.000000e+00
-1.106150e-05    -5.678539e-05    0.000000e+00
-7.352364e-06    -5.669815e-05    0.000000e+00
-3.669591e-06    -5.664580e-05    0.000000e+00
-9.499475e-19    -5.662835e-05    0.000000e+00
3.669591e-06    -5.664580e-05    0.000000e+00
7.352364e-06    -5.669815e-05    0.000000e+00
1.106150e-05    -5.678539e-05    0.000000e+00
1.481019e-05    -5.690753e-05    0.000000e+00
1.861161e-05    -5.706457e-05    0.000000e+00
-1.900517e-05    -6.093704e-05    0.000000e+00
-1.512504e-05    -6.079047e-05    0.000000e+00
-1.129764e-05    -6.067648e-05    0.000000e+00
-7.509792e-06    -6.059505e-05    0.000000e+00
-3.748305e-06    -6.054619e-05    0.000000e+00
-9.719703e-19    -6.052990e-05    0.000000e+00
3.748305e-06    -6.054619e-05    0.000000e+00
7.509792e-06    -6.059505e-05    0.000000e+00
1.129764e-05    -6.067648e-05    0.000000e+00
1.512504e-05    -6.079047e-05    0.000000e+00
1.900517e-05    -6.093704e-05    0.000000e+00
-1.937159e-05    -6.488551e-05    0.000000e+00
-1.541818e-05    -6.474941e-05    0.000000e+00
-1.151750e-05    -6.464356e-05    0.000000e+00
-7.656363e-06    -6.456794e-05    0.000000e+00
-3.821591e-06    -6.452258e-05    0.000000e+00
-9.836170e-19    -6.450746e-05    0.000000e+00
3.821591e-06    -6.452258e-05    0.000000e+00
7.656363e-06    -6.456794e-05    0.000000e+00
1.151750e-05    -6.464356e-05    0.000000e+00
1.541818e-05    -6.474941e-05    0.000000e+00
1.937159e-05    -6.488551e-05    0.000000e+00
-1.971086e-05    -6.890455e-05    0.000000e+00
-1.568960e-05    -6.877892e-05    0.000000e+00
-1.172107e-05    -6.868121e-05    0.000000e+00
-7.792078e-06    -6.861141e-05    0.000000e+00
-3.889448e-06    -6.856954e-05    0.000000e+00
-9.745114e-19    -6.855558e-05    0.000000e+00
3.889448e-06    -6.856954e-05    0.000000e+00
7.792078e-06    -6.861141e-05    0.000000e+00
1.172107e-05    -6.868121e-05    0.000000e+00
1.568960e-05    -6.877892e-05    0.000000e+00
1.971086e-05    -6.890455e-05    0.000000e+00
-2.002299e-05    -7.298872e-05    0.000000e+00
-1.593932e-05    -7.287356e-05    0.000000e+00
-1.190836e-05    -7.278399e-05    0.000000e+00
-7.916933e-06    -7.272003e-05    0.000000e+00
-3.951874e-06    -7.268165e-05    0.000000e+00
-9.715468e-19    -7.266886e-05    0.000000e+00
3.951874e-06    -7.268165e-05    0.000000e+00
7.916933e-06    -7.272003e-05    0.000000e+00
1.190836e-05    -7.278399e-05    0.000000e+00
1.593932e-05    -7.287356e-05    0.000000e+00
2.002299e-05    -7.298872e-05    0.000000e+00
-2.030798e-05    -7.713259e-05    0.000000e+00
-1.616732e-05    -7.702790e-05    0.000000e+00
-1.207935e-05    -7.694648e-05    0.000000e+00
-8.030916e-06    -7.688835e-05    0.000000e+00
-4.008857e-06    -7.685350e-05    0.000000e+00
-1.007122e-18    -7.684188e-05    0.000000e+00
4.008857e-06    -7.685350e-05    0.000000e+00
8.030916e-06    -7.688835e-05    0.000000e+00
1.207935e-05    -7.694648e-05    0.000000e+00
1.616732e-05    -7.702790e-05    0.000000e+00
2.030798e-05    -7.713259e-05    0.000000e+00
-2.056583e-05    -8.133069e-05    0.000000e+00
-1.637362e-05    -8.123647e-05    0.000000e+00
-1.223405e-05    -8.116322e-05    0.000000e+00
-8.133998e-06    -8.111098e-05    0.000000e+00
-4.060376e-06    -8.107968e-05    0.000000e+00
-1.046509e-18    -8.106926e-05    0.000000e+00
4.060376e-06    -8.107968e-05    0.000000e+00
8.133998e-06    -8.111098e-05    0.000000e+00
1.223405e-05    -8.116322e-05    0.000000e+00
1.637362e-05    -8.123647e-05    0.000000e+00
2.056583e-05    -8.133069e-05    0.000000e+00
-2.079659e-05    -8.557757e-05    0.000000e+00
-1.655824e-05    -8.549380e-05    0.000000e+00
-1.237240e-05    -8.542877e-05    0.000000e+00
-8.226111e-06    -8.538249e-05    0.000000e+00
-4.106379e-06    -8.535483e-05    0.000000e+00
-1.118507e-18    -8.534564e-05    0.000000e+00
4.106379e-06    -8.535483e-05    0.000000e+00
8.226111e-06    -8.538249e-05    0.000000e+00
1.237240e-05    -8.542877e-05    0.000000e+00
1.655824e-05    -8.549380e-05    0.000000e+00
2.079659e-05    -8.557757e-05    0.000000e+00
-2.100036e-05    -8.986775e-05    0.000000e+00
-1.672121e-05    -8.979441e-05    0.000000e+00
-1.249432e-05    -8.973765e-05    0.000000e+00
-8.307113e-06    -8.969750e-05    0.000000e+00
-4.146761e-06    -8.967364e-05    0.000000e+00
-1.182882e-18    -8.966573e-05    0.000000e+00
4.146761e-06    -8.967364e-05    0.000000e+00
8.307113e-06    -8.969750e-05    0.000000e+00
1.249432e-05    -8.973765e-05    0.000000e+00
1.672121e-05    -8.979441e-05    0.000000e+00
2.100036e-05    -8.986775e-05    0.000000e+00
-2.117737e-05    -9.419575e-05    0.000000e+00
-1.686259e-05    -9.413278e-05    0.000000e+00
-1.259965e-05    -9.408444e-05    0.000000e+00
-8.376731e-06    -9.405067e-05    0.000000e+00
-4.181331e-06    -9.403085e-05    0.000000e+00
-1.219304e-18    -9.402433e-05    0.000000e+00
4.181331e-06    -9.403085e-05    0.000000e+00
8.376731e-06    -9.405067e-05    0.000000e+00
1.259965e-05    -9.408444e-05    0.000000e+00
1.686259e-05    -9.413278e-05    0.000000e+00
2.117737e-05    -9.419575e-05    0.000000e+00
-2.132818e-05    -9.855623e-05    0.000000e+00
-1.698247e-05    -9.850349e-05    0.000000e+00
-1.268804e-05    -9.846377e-05    0.000000e+00
-8.434507e-06    -9.843675e-05    0.000000e+00
-4.209792e-06    -9.842127e-05    0.000000e+00
-1.270549e-18    -9.841624e-05    0.000000e+00
4.209792e-06    -9.842127e-05    0.000000e+00
8.434507e-06    -9.843675e-05    0.000000e+00
1.268804e-05    -9.846377e-05    0.000000e+00
1.698247e-05    -9.850349e-05    0.000000e+00
2.132818e-05    -9.855623e-05    0.000000e+00
-2.145387e-05    -1.029443e-04    0.000000e+00
-1.708095e-05    -1.029015e-04    0.000000e+00
-1.275892e-05    -1.028706e-04    0.000000e+00
-8.479818e-06    -1.028506e-04    0.000000e+00
-4.231793e-06    -1.028396e-04    0.000000e+00
-1.328571e-18    -1.028360e-04    0.000000e+00
4.231793e-06    -1.028396e-04    0.000000e+00
8.479818e-06    -1.028506e-04    0.000000e+00
1.275892e-05    -1.028706e-04    0.000000e+00
1.708095e-05    -1.029015e-04    0.000000e+00
2.145387e-05    -1.029443e-04    0.000000e+00
-2.155641e-05    -1.073563e-04    0.000000e+00
-1.715794e-05    -1.073230e-04    0.000000e+00
-1.281153e-05    -1.073008e-04    0.000000e+00
-8.512203e-06    -1.072873e-04    0.000000e+00
-4.247229e-06    -1.072798e-04    0.000000e+00
-1.273938e-18    -1.072773e-04    0.000000e+00
4.247229e-06    -1.072798e-04    0.000000e+00
8.512203e-06    -1.072873e-04    0.000000e+00
1.281153e-05    -1.073008e-04    0.000000e+00
1.715794e-05    -1.073230e-04    0.000000e+00
2.155641e-05    -1.073563e-04    0.000000e+00
-2.163891e-05    -1.117922e-04    0.000000e+00
-1.721289e-05    -1.117672e-04    0.000000e+00
-1.284565e-05    -1.117520e-04    0.000000e+00
-8.532569e-06    -1.117410e-04    0.000000e+00
-4.256930e-06    -1.117335e-04    0.000000e+00
-1.185423e-18    -1.117308e-04    0.000000e+00
4.256930e-06    -1.117335e-04    0.000000e+00
8.532569e-06    -1.117410e-04    0.000000e+00
1.284565e-05    -1.117520e-04    0.000000e+00
1.721289e-05    -1.117672e-04    0.000000e+00
2.163891e-05    -1.117922e-04    0.000000e+00
-2.170337e-05    -1.162599e-04    0.000000e+00
-1.724475e-05    -1.162419e-04    0.000000e+00
-1.286520e-05    -1.162234e-04    0.000000e+00
-8.545505e-06    -1.162028e-04    0.000000e+00
-4.263514e-06    -1.161874e-04    0.000000e+00
-1.168482e-18    -1.161818e-04    0.000000e+00
4.263514e-06    -1.161874e-04    0.000000e+00
8.545505e-06    -1.162028e-04    0.000000e+00
1.286520e-05    -1.162234e-04    0.000000e+00
1.724475e-05    -1.162419e-04    0.000000e+00
2.170337e-05    -1.162599e-04    0.000000e+00
-2.173748e-05    -1.207998e-04    0.000000e+00
-1.726493e-05    -1.207651e-04    0.000000e+00
-1.288502e-05    -1.207065e-04    0.000000e+00
-8.560619e-06    -1.206537e-04    0.000000e+00
-4.271689e-06    -1.206185e-04    0.000000e+00
-1.155988e-18    -1.206063e-04    0.000000e+00
4.271689e-06    -1.206185e-04    0.000000e+00
8.560619e-06    -1.206537e-04    0.000000e+00
1.288502e-05    -1.207065e-04    0.000000e+00
1.726493e-05    -1.207651e-04    0.000000e+00
2.173748e-05    -1.207998e-04    0.000000e+00

CELL_DATA      400
TENSORS Element_Stress3.600000e-01 double
1.820408e+06 2.551529e+05        0
2.551529e+05 4.163051e+05        0
       0        0        0

1.243593e+06 1.308376e+05        0
1.308376e+05 3.565809e+05        0
       0        0        0

8.650306e+05 4.300264e+04        0
4.300264e+04 2.749675e+05        0
       0        0        0

5.099547e+05 -3.581612e+03        0
-3.581612e+03 1.689920e+05        0
       0        0        0

1.688371e+05 -2.488447e+04        0
-2.488447e+04 5.694385e+04        0
       0        0        0

-1.688013e+05 -2.487835e+04        0
-2.487835e+04 -5.695191e+04        0
       0        0        0

-5.094791e+05 -3.582357e+03        0
-3.582357e+03 -1.688274e+05        0
       0        0        0

-8.636200e+05 4.293085e+04        0
4.293085e+04 -2.744389e+05        0
       0        0        0

-1.240607e+06 1.305490e+05        0
1.305490e+05 -3.554372e+05        0
       0        0        0

-1.814186e+06 2.543426e+05        0
2.543426e+05 -4.141537e+05        0
       0        0        0

1.641901e+06 4.159181e+04        0
4.159181e+04 4.234224e+03        0
       0        0        0

1.322219e+06 1.206301e+05        0
1.206301e+05 1.286705e+05        0
       0        0        0

9.081602e+05 9.899391e+04        0
9.899391e+04 1.315052e+05        0
       0        0        0

5.363485e+05 7.579522e+04        0
7.579522e+04 9.192344e+04        0
       0        0        0

1.767995e+05 6.320667e+04        0
6.320667e+04 3.207424e+04        0
       0        0        0

-1.778370e+05 6.318833e+04        0
6.318833e+04 -3.316539e+04        0
       0        0        0

-5.368822e+05 7.572979e+04        0
7.572979e+04 -9.283502e+04        0
       0        0        0

-9.076143e+05 9.885377e+04        0
9.885377e+04 -1.320239e+05        0
       0        0        0

-1.319696e+06 1.203926e+05        0
1.203926e+05 -1.284186e+05        0
       0        0        0

-1.637298e+06 4.150518e+04        0
4.150518e+04 -3.136153e+03        0
       0        0        0

1.584792e+06 1.541369e+04        0
1.541369e+04 6.614655e+03        0
       0        0        0

1.271463e+06 6.832137e+04        0
6.832137e+04 1.757533e+04        0
       0        0        0

9.145494e+05 1.015499e+05        0
1.015499e+05 4.237228e+04        0
       0        0        0

5.430283e+05 1.074615e+05        0
1.074615e+05 3.591965e+04        0
       0        0        0

1.791281e+05 1.073903e+05        0
1.073903e+05 1.271914e+04        0
       0        0        0

-1.824606e+05 1.073624e+05        0
1.073624e+05 -1.610996e+04        0
       0        0        0

-5.458288e+05 1.073783e+05        0
1.073783e+05 -3.912054e+04        0
       0        0        0

-9.162194e+05 1.014208e+05        0
1.014208e+05 -4.514773e+04        0
       0        0        0

-1.271436e+06 6.820653e+04        0
6.820653e+04 -1.966650e+04        0
       0        0        0

-1.582817e+06 1.538179e+04        0
1.538179e+04 -7.910798e+03        0
       0        0        0

1.545975e+06 1.427125e+04        0
1.427125e+04 -3.975089e+03        0
       0        0        0

1.226560e+06 5.547385e+04        0
5.547385e+04 -1.952984e+03        0
       0        0        0

8.864656e+05 9.243723e+04        0
9.243723e+04 2.932986e+03        0
       0        0        0

5.330787e+05 1.145871e+05        0
1.145871e+05 5.877324e+03        0
       0        0        0

1.753569e+05 1.233409e+05        0
1.233409e+05 6.882743e+02        0
       0        0        0

-1.820253e+05 1.233114e+05        0
1.233114e+05 -7.414739e+03        0
       0        0        0

-5.392211e+05 1.145055e+05        0
1.145055e+05 -1.241024e+04        0
       0        0        0

-8.915457e+05 9.232964e+04        0
9.232964e+04 -9.056878e+03        0
       0        0        0

-1.230065e+06 5.538567e+04        0
5.538567e+04 -3.528111e+03        0
       0        0        0

-1.547377e+06 1.424324e+04        0
1.424324e+04 -5.500712e+02        0
       0        0        0

1.509279e+06 1.712796e+04        0
1.712796e+04 -5.566176e+03        0
       0        0        0

1.185223e+06 5.447931e+04        0
5.447931e+04 -8.576285e+03        0
       0        0        0

8.540723e+05 8.904207e+04        0
8.904207e+04 -8.327995e+03        0
       0        0        0

5.136838e+05 1.136251e+05        0
1.136251e+05 -6.744119e+03        0
       0        0        0

1.680896e+05 1.258276e+05        0
1.258276e+05 -5.637935e+03        0
       0        0        0

-1.789720e+05 1.257993e+05        0
1.257993e+05 -5.299665e+03        0
       0        0        0

-5.240714e+05 1.135488e+05        0
1.135488e+05 -4.009213e+03        0
       0        0        0

-8.634684e+05 8.894353e+04        0
8.894353e+04 -2.041946e+03        0
       0        0        0

-1.193126e+06 5.439609e+04        0
5.439609e+04 -1.178831e+03        0
       0        0        0

-1.515123e+06 1.709499e+04        0
1.709499e+04 -3.263974e+03        0
       0        0        0

1.469529e+06 1.958674e+04        0
1.958674e+04 -7.909937e+03        0
       0        0        0

1.146966e+06 5.643744e+04        0
5.643744e+04 -1.054611e+04        0
       0        0        0

8.223356e+05 8.837344e+04        0
8.837344e+04 -1.192574e+04        0
       0        0        0

4.928147e+05 1.117566e+05        0
1.117566e+05 -1.113706e+04        0
       0        0        0

1.593918e+05 1.239442e+05        0
1.239442e+05 -9.156107e+03        0
       0        0        0

-1.752524e+05 1.239176e+05        0
1.239176e+05 -6.755818e+03        0
       0        0        0

-5.082212e+05 1.116847e+05        0
1.116847e+05 -4.609702e+03        0
       0        0        0

-8.368314e+05 8.827923e+04        0
8.827923e+04 -3.478765e+03        0
       0        0        0

-1.160080e+06 5.635377e+04        0
5.635377e+04 -4.311123e+03        0
       0        0        0

-1.480734e+06 1.954996e+04        0
1.954996e+04 -6.138156e+03        0
       0        0        0

1.426932e+06 2.114125e+04        0
2.114125e+04 -1.052747e+04        0
       0        0        0

1.109748e+06 5.834127e+04        0
5.834127e+04 -1.236424e+04        0
       0        0        0

7.923299e+05 8.862880e+04        0
8.862880e+04 -1.361858e+04        0
       0        0        0

4.725833e+05 1.103274e+05        0
1.103274e+05 -1.336804e+04        0
       0        0        0

1.506066e+05 1.216566e+05        0
1.216566e+05 -1.181466e+04        0
       0        0        0

-1.721291e+05 1.216314e+05        0
1.216314e+05 -9.755649e+03        0
       0        0        0

-4.936996e+05 1.102588e+05        0
1.102588e+05 -8.065345e+03        0
       0        0        0

-8.126300e+05 8.853727e+04        0
8.853727e+04 -7.532063e+03        0
       0        0        0

-1.128808e+06 5.825725e+04        0
5.825725e+04 -8.337821e+03        0
       0        0        0

-1.444294e+06 2.110258e+04        0
2.110258e+04 -9.526574e+03        0
       0        0        0

1.382341e+06 2.199870e+04        0
2.199870e+04 -1.363441e+04        0
       0        0        0

1.072790e+06 5.960559e+04        0
5.960559e+04 -1.471889e+04        0
       0        0        0

7.635075e+05 8.899761e+04        0
8.899761e+04 -1.557112e+04        0
       0        0        0

4.532709e+05 1.094705e+05        0
1.094705e+05 -1.552111e+04        0
       0        0        0

1.419402e+05 1.200191e+05        0
1.200191e+05 -1.458495e+04        0
       0        0        0

-1.697427e+05 1.199950e+05        0
1.199950e+05 -1.326205e+04        0
       0        0        0

-4.807195e+05 1.094046e+05        0
1.094046e+05 -1.222380e+04        0
       0        0        0

-7.902447e+05 8.890846e+04        0
8.890846e+04 -1.196335e+04        0
       0        0        0

-1.098448e+06 5.952222e+04        0
5.952222e+04 -1.248372e+04        0
       0        0        0

-1.406531e+06 2.195960e+04        0
2.195960e+04 -1.309574e+04        0
       0        0        0

1.336527e+06 2.242789e+04        0
2.242789e+04 -1.712623e+04        0
       0        0        0

1.035751e+06 6.031666e+04        0
6.031666e+04 -1.770374e+04        0
       0        0        0

7.353021e+05 8.926758e+04        0
8.926758e+04 -1.818993e+04        0
       0        0        0

4.345454e+05 1.090163e+05        0
1.090163e+05 -1.820212e+04        0
       0        0        0

1.333404e+05 1.190586e+05        0
1.190586e+05 -1.770366e+04        0
       0        0        0

-1.679772e+05 1.190354e+05        0
1.190354e+05 -1.697475e+04        0
       0        0        0

-4.688829e+05 1.089527e+05        0
1.089527e+05 -1.641270e+04        0
       0        0        0

-7.690379e+05 8.918088e+04        0
8.918088e+04 -1.629334e+04        0
       0        0        0

-1.068575e+06 6.023484e+04        0
6.023484e+04 -1.657143e+04        0
       0        0        0

-1.368117e+06 2.238923e+04        0
2.238923e+04 -1.685273e+04        0
       0        0        0

1.289992e+06 2.262455e+04        0
2.262455e+04 -2.092942e+04        0
       0        0        0

9.985249e+05 6.067479e+04        0
6.067479e+04 -2.118810e+04        0
       0        0        0

7.073211e+05 8.942610e+04        0
8.942610e+04 -2.141976e+04        0
       0        0        0

4.160793e+05 1.087971e+05        0
1.087971e+05 -2.142850e+04        0
       0        0        0

1.247044e+05 1.185595e+05        0
1.185595e+05 -2.118171e+04        0
       0        0        0

-1.666659e+05 1.185372e+05        0
1.185372e+05 -2.081859e+04        0
       0        0        0

-4.577965e+05 1.087357e+05        0
1.087357e+05 -2.054809e+04        0
       0        0        0

-7.485470e+05 8.934197e+04        0
8.934197e+04 -2.050620e+04        0
       0        0        0

-1.039007e+06 6.059506e+04        0
6.059506e+04 -2.065413e+04        0
       0        0        0

-1.329468e+06 2.258677e+04        0
2.258677e+04 -2.078787e+04        0
       0        0        0

1.243028e+06 2.270630e+04        0
2.270630e+04 -2.497704e+04        0
       0        0        0

9.610987e+05 6.083870e+04        0
6.083870e+04 -2.503680e+04        0
       0        0        0

6.793532e+05 8.950777e+04        0
8.950777e+04 -2.510170e+04        0
       0        0        0

3.976609e+05 1.087002e+05        0
1.087002e+05 -2.508203e+04        0
       0        0        0

1.159672e+05 1.183240e+05        0
1.183240e+05 -2.495718e+04        0
       0        0        0

-1.656790e+05 1.183025e+05        0
1.183025e+05 -2.479087e+04        0
       0        0        0

-4.471826e+05 1.086408e+05        0
1.086408e+05 -2.468214e+04        0
       0        0        0

-7.284923e+05 8.942631e+04        0
8.942631e+04 -2.469209e+04        0
       0        0        0

-1.009658e+06 6.076136e+04        0
6.076136e+04 -2.479511e+04        0
       0        0        0

-1.290803e+06 2.266962e+04        0
2.266962e+04 -2.489464e+04        0
       0        0        0

1.195799e+06 2.273608e+04        0
2.273608e+04 -2.921737e+04        0
       0        0        0

9.234920e+05 6.090627e+04        0
6.090627e+04 -2.914461e+04        0
       0        0        0

6.513043e+05 8.954547e+04        0
8.954547e+04 -2.909804e+04        0
       0        0        0

3.791842e+05 1.086611e+05        0
1.086611e+05 -2.904141e+04        0
       0        0        0

1.071028e+05 1.182228e+05        0
1.182228e+05 -2.896428e+04        0
       0        0        0

-1.649266e+05 1.182020e+05        0
1.182020e+05 -2.889335e+04        0
       0        0        0

-4.368706e+05 1.086038e+05        0
1.086038e+05 -2.887134e+04        0
       0        0        0

-7.087140e+05 8.946673e+04        0
8.946673e+04 -2.892262e+04        0
       0        0        0

-9.804808e+05 6.083146e+04        0
6.083146e+04 -2.903217e+04        0
       0        0        0

-1.252216e+06 2.270059e+04        0
2.270059e+04 -2.915725e+04        0
       0        0        0

1.148395e+06 2.274455e+04        0
2.274455e+04 -3.360858e+04        0
       0        0        0

8.857353e+05 6.093028e+04        0
6.093028e+04 -3.343747e+04        0
       0        0        0

6.231468e+05 8.956076e+04        0
8.956076e+04 -3.331012e+04        0
       0        0        0

3.606106e+05 1.086471e+05        0
1.086471e+05 -3.321489e+04        0
       0        0        0

9.811237e+04 1.181838e+05        0
1.181838e+05 -3.314767e+04        0
       0        0        0

-1.643472e+05 1.181637e+05        0
1.181637e+05 -3.311870e+04        0
       0        0        0

-4.267592e+05 1.085918e+05        0
1.085918e+05 -3.314442e+04        0
       0        0        0

-6.891209e+05 8.948476e+04        0
8.948476e+04 -3.323282e+04        0
       0        0        0

-9.514421e+05 6.085806e+04        0
6.085806e+04 -3.337536e+04        0
       0        0        0

-1.213735e+06 2.271029e+04        0
2.271029e+04 -3.355391e+04        0
       0        0        0

1.100871e+06 2.274537e+04        0
2.274537e+04 -3.811526e+04        0
       0        0        0

8.478609e+05 6.093645e+04        0
6.093645e+04 -3.786269e+04        0
       0        0        0

5.948856e+05 8.956568e+04        0
8.956568e+04 -3.767059e+04        0
       0        0        0

3.419384e+05 1.086428e+05        0
1.086428e+05 -3.753757e+04        0
       0        0        0

8.901204e+04 1.181710e+05        0
1.181710e+05 -3.746299e+04        0
       0        0        0

-1.638962e+05 1.181516e+05        0
1.181516e+05 -3.745046e+04        0
       0        0        0

-4.167857e+05 1.085894e+05        0
1.085894e+05 -3.750529e+04        0
       0        0        0

-6.696569e+05 8.949243e+04        0
8.949243e+04 -3.762889e+04        0
       0        0        0

-9.225126e+05 6.086685e+04        0
6.086685e+04 -3.781617e+04        0
       0        0        0

-1.175353e+06 2.271236e+04        0
2.271236e+04 -3.805917e+04        0
       0        0        0

1.053264e+06 2.274402e+04        0
2.274402e+04 -4.270584e+04        0
       0        0        0

8.098999e+05 6.093625e+04        0
6.093625e+04 -4.238033e+04        0
       0        0        0

5.665406e+05 8.956624e+04        0
8.956624e+04 -4.213174e+04        0
       0        0        0

3.231837e+05 1.086417e+05        0
1.086417e+05 -4.196250e+04        0
       0        0        0

7.982509e+04 1.181680e+05        0
1.181680e+05 -4.187363e+04        0
       0        0        0

-1.635381e+05 1.181493e+05        0
1.181493e+05 -4.186646e+04        0
       0        0        0

-4.069072e+05 1.085903e+05        0
1.085903e+05 -4.194211e+04        0
       0        0        0

-6.502829e+05 8.949575e+04        0
8.949575e+04 -4.209969e+04        0
       0        0        0

-8.936649e+05 6.086928e+04        0
6.086928e+04 -4.233576e+04        0
       0        0        0

-1.137049e+06 2.271226e+04        0
2.271226e+04 -4.264606e+04        0
       0        0        0

1.005607e+06 2.274243e+04        0
2.274243e+04 -4.735119e+04        0
       0        0        0

7.718819e+05 6.093427e+04        0
6.093427e+04 -4.695751e+04        0
       0        0        0

5.381369e+05 8.956518e+04        0
8.956518e+04 -4.665700e+04        0
       0        0        0

3.043697e+05 1.086412e+05        0
1.086412e+05 -4.645320e+04        0
       0        0        0

7.057747e+04 1.181679e+05        0
1.181679e+05 -4.634788e+04        0
       0        0        0

-1.632421e+05 1.181500e+05        0
1.181500e+05 -4.634179e+04        0
       0        0        0

-3.970904e+05 1.085919e+05        0
1.085919e+05 -4.643471e+04        0
       0        0        0

-6.309676e+05 8.949746e+04        0
8.949746e+04 -4.662517e+04        0
       0        0        0

-8.648719e+05 6.086992e+04        0
6.086992e+04 -4.691044e+04        0
       0        0        0

-1.098799e+06 2.271191e+04        0
2.271191e+04 -4.728733e+04        0
       0        0        0

9.579258e+05 2.274109e+04        0
2.274109e+04 -5.202379e+04        0
       0        0        0

7.338349e+05 6.093210e+04        0
6.093210e+04 -5.156527e+04        0
       0        0        0

5.097013e+05 8.956366e+04        0
8.956366e+04 -5.121577e+04        0
       0        0        0

2.855223e+05 1.086408e+05        0
1.086408e+05 -5.097902e+04        0
       0        0        0

6.129566e+04 1.181684e+05        0
1.181684e+05 -5.085708e+04        0
       0        0        0

-1.629804e+05 1.181512e+05        0
1.181512e+05 -5.085067e+04        0
       0        0        0

-3.873068e+05 1.085934e+05        0
1.085934e+05 -5.095934e+04        0
       0        0        0

-6.116832e+05 8.949870e+04        0
8.949870e+04 -5.118154e+04        0
       0        0        0

-8.361073e+05 6.087038e+04        0
6.087038e+04 -5.151484e+04        0
       0        0        0

-1.060575e+06 2.271182e+04        0
2.271182e+04 -5.195620e+04        0
       0        0        0

9.102468e+05 2.274004e+04        0
2.274004e+04 -5.669747e+04        0
       0        0        0

6.957854e+05 6.093016e+04        0
6.093016e+04 -5.617690e+04        0
       0        0        0

4.812598e+05 8.956206e+04        0
8.956206e+04 -5.578072e+04        0
       0        0        0

2.666673e+05 1.086401e+05        0
1.086401e+05 -5.551255e+04        0
       0        0        0

5.200563e+04 1.181687e+05        0
1.181687e+05 -5.537455e+04        0
       0        0        0

-1.627266e+05 1.181523e+05        0
1.181523e+05 -5.536755e+04        0
       0        0        0

-3.775300e+05 1.085948e+05        0
1.085948e+05 -5.549115e+04        0
       0        0        0

-5.924037e+05 8.949987e+04        0
8.949987e+04 -5.574391e+04        0
       0        0        0

-8.073453e+05 6.087106e+04        0
6.087106e+04 -5.612348e+04        0
       0        0        0

-1.022351e+06 2.271201e+04        0
2.271201e+04 -5.662671e+04        0
       0        0        0

8.625948e+05 2.273918e+04        0
2.273918e+04 -6.134717e+04        0
       0        0        0

6.577585e+05 6.092848e+04        0
6.092848e+04 -6.076725e+04        0
       0        0        0

4.528379e+05 8.956052e+04        0
8.956052e+04 -6.032649e+04        0
       0        0        0

2.478299e+05 1.086393e+05        0
1.086393e+05 -6.002837e+04        0
       0        0        0

4.273242e+04 1.181688e+05        0
1.181688e+05 -5.987509e+04        0
       0        0        0

-1.624558e+05 1.181531e+05        0
1.181531e+05 -5.986757e+04        0
       0        0        0

-3.677350e+05 1.085960e+05        0
1.085960e+05 -6.000553e+04        0
       0        0        0

-5.731043e+05 8.950110e+04        0
8.950110e+04 -6.028761e+04        0
       0        0        0

-7.785611e+05 6.087201e+04        0
6.087201e+04 -6.071149e+04        0
       0        0        0

-9.841019e+05 2.271241e+04        0
2.271241e+04 -6.127388e+04        0
       0        0        0

8.149936e+05 2.273845e+04        0
2.273845e+04 -6.594899e+04        0
       0        0        0

6.197782e+05 6.092698e+04        0
6.092698e+04 -6.531240e+04        0
       0        0        0

4.244595e+05 8.955906e+04        0
8.955906e+04 -6.482909e+04        0
       0        0        0

2.290342e+05 1.086384e+05        0
1.086384e+05 -6.450247e+04        0
       0        0        0

3.350004e+04 1.181687e+05        0
1.181687e+05 -6.433472e+04        0
       0        0        0

-1.621441e+05 1.181537e+05        0
1.181537e+05 -6.432682e+04        0
       0        0        0

-3.578982e+05 1.085971e+05        0
1.085971e+05 -6.447859e+04        0
       0        0        0

-5.537613e+05 8.950240e+04        0
8.950240e+04 -6.478875e+04        0
       0        0        0

-7.497309e+05 6.087314e+04        0
6.087314e+04 -6.525495e+04        0
       0        0        0

-9.458036e+05 2.271292e+04        0
2.271292e+04 -6.587380e+04        0
       0        0        0

7.674657e+05 2.273780e+04        0
2.273780e+04 -7.048008e+04        0
       0        0        0

5.818675e+05 6.092561e+04        0
6.092561e+04 -6.978953e+04        0
       0        0        0

3.961478e+05 8.955767e+04        0
8.955767e+04 -6.926574e+04        0
       0        0        0

2.103031e+05 1.086374e+05        0
1.086374e+05 -6.891204e+04        0
       0        0        0

2.433139e+04 1.181684e+05        0
1.181684e+05 -6.873060e+04        0
       0        0        0

-1.617686e+05 1.181542e+05        0
1.181542e+05 -6.872245e+04        0
       0        0        0

-3.479968e+05 1.085982e+05        0
1.085982e+05 -6.888748e+04        0
       0        0        0

-5.343520e+05 8.950377e+04        0
8.950377e+04 -6.922443e+04        0
       0        0        0

-7.208319e+05 6.087439e+04        0
6.087439e+04 -6.973096e+04        0
       0        0        0

-9.074330e+05 2.271351e+04        0
2.271351e+04 -7.040360e+04        0
       0        0        0

7.200329e+05 2.273719e+04        0
2.273719e+04 -7.491869e+04        0
       0        0        0

5.440481e+05 6.092434e+04        0
6.092434e+04 -7.417693e+04        0
       0        0        0

3.679245e+05 8.955634e+04        0
8.955634e+04 -7.361474e+04        0
       0        0        0

1.916586e+05 1.086365e+05        0
1.086365e+05 -7.323538e+04        0
       0        0        0

1.524825e+04 1.181681e+05        0
1.181681e+05 -7.304101e+04        0
       0        0        0

-1.613077e+05 1.181546e+05        0
1.181546e+05 -7.303269e+04        0
       0        0        0

-3.380091e+05 1.085992e+05        0
1.085992e+05 -7.321037e+04        0
       0        0        0

-5.148547e+05 8.950521e+04        0
8.950521e+04 -7.357284e+04        0
       0        0        0

-6.918422e+05 6.087575e+04        0
6.087575e+04 -7.411774e+04        0
       0        0        0

-8.689683e+05 2.271415e+04        0
2.271415e+04 -7.484154e+04        0
       0        0        0

6.727157e+05 2.273664e+04        0
2.273664e+04 -7.924416e+04        0
       0        0        0

5.063407e+05 6.092317e+04        0
6.092317e+04 -7.845398e+04        0
       0        0        0

3.398104e+05 8.955508e+04        0
8.955508e+04 -7.785549e+04        0
       0        0        0

1.731214e+05 1.086355e+05        0
1.086355e+05 -7.745187e+04        0
       0        0        0

6.271330e+03 1.181677e+05        0
1.181677e+05 -7.724529e+04        0
       0        0        0

-1.607407e+05 1.181549e+05        0
1.181549e+05 -7.723684e+04        0
       0        0        0

-3.279145e+05 1.086003e+05        0
1.086003e+05 -7.742654e+04        0
       0        0        0

-4.952488e+05 8.950671e+04        0
8.950671e+04 -7.781324e+04        0
       0        0        0

-6.627413e+05 6.087721e+04        0
6.087721e+04 -7.839458e+04        0
       0        0        0

-8.303888e+05 2.271485e+04        0
2.271485e+04 -7.916693e+04        0
       0        0        0

6.255338e+05 2.273618e+04        0
2.273618e+04 -8.343692e+04        0
       0        0        0

4.687648e+05 6.092215e+04        0
6.092215e+04 -8.260113e+04        0
       0        0        0

3.118251e+05 8.955389e+04        0
8.955389e+04 -8.196845e+04        0
       0        0        0

1.547110e+05 1.086345e+05        0
1.086345e+05 -8.154198e+04        0
       0        0        0

-2.579750e+03 1.181672e+05        0
1.181672e+05 -8.132387e+04        0
       0        0        0

-1.600481e+05 1.181552e+05        0
1.181552e+05 -8.131530e+04        0
       0        0        0

-3.176936e+05 1.086013e+05        0
1.086013e+05 -8.151637e+04        0
       0        0        0

-4.755148e+05 8.950828e+04        0
8.950828e+04 -8.192600e+04        0
       0        0        0

-6.335096e+05 6.087881e+04        0
6.087881e+04 -8.254184e+04        0
       0        0        0

-7.916748e+05 2.271563e+04        0
2.271563e+04 -8.336018e+04        0
       0        0        0

5.785052e+05 2.273585e+04        0
2.273585e+04 -8.747848e+04        0
       0        0        0

4.313390e+05 6.092132e+04        0
6.092132e+04 -8.659990e+04        0
       0        0        0

2.839873e+05 8.955277e+04        0
8.955277e+04 -8.593515e+04        0
       0        0        0

1.364462e+05 1.086334e+05        0
1.086334e+05 -8.548720e+04        0
       0        0        0

-1.128646e+04 1.181665e+05        0
1.181665e+05 -8.525827e+04        0
       0        0        0

-1.592114e+05 1.181552e+05        0
1.181552e+05 -8.524959e+04        0
       0        0        0

-3.073279e+05 1.086022e+05        0
1.086022e+05 -8.546137e+04        0
       0        0        0

-4.556344e+05 8.950992e+04        0
8.950992e+04 -8.589262e+04        0
       0        0        0

-6.041285e+05 6.088061e+04        0
6.088061e+04 -8.654102e+04        0
       0        0        0

-7.528075e+05 2.271655e+04        0
2.271655e+04 -8.740278e+04        0
       0        0        0

5.316474e+05 2.273573e+04        0
2.273573e+04 -9.135144e+04        0
       0        0        0

3.940808e+05 6.092071e+04        0
6.092071e+04 -9.043285e+04        0
       0        0        0

2.563145e+05 8.955166e+04        0
8.955166e+04 -8.973803e+04        0
       0        0        0

1.183445e+05 1.086322e+05        0
1.086322e+05 -8.926996e+04        0
       0        0        0

-1.983136e+04 1.181657e+05        0
1.181657e+05 -8.903099e+04        0
       0        0        0

-1.582133e+05 1.181551e+05        0
1.181551e+05 -8.902241e+04        0
       0        0        0

-2.968002e+05 1.086030e+05        0
1.086030e+05 -8.924433e+04        0
       0        0        0

-4.355903e+05 8.951158e+04        0
8.951158e+04 -8.969581e+04        0
       0        0        0

-5.745808e+05 6.088262e+04        0
6.088262e+04 -9.037472e+04        0
       0        0        0

-7.137695e+05 2.271767e+04        0
2.271767e+04 -9.127730e+04        0
       0        0        0

4.849763e+05 2.273585e+04        0
2.273585e+04 -9.503940e+04        0
       0        0        0

3.570067e+05 6.092014e+04        0
6.092014e+04 -9.408335e+04        0
       0        0        0

2.288233e+05 8.955036e+04        0
8.955036e+04 -9.336015e+04        0
       0        0        0

1.004221e+05 1.086309e+05        0
1.086309e+05 -9.287327e+04        0
       0        0        0

-2.819822e+04 1.181650e+05        0
1.181650e+05 -9.262545e+04        0
       0        0        0

-1.570374e+05 1.181551e+05        0
1.181551e+05 -9.261773e+04        0
       0        0        0

-2.860942e+05 1.086037e+05        0
1.086037e+05 -9.284961e+04        0
       0        0        0

-4.153663e+05 8.951304e+04        0
8.951304e+04 -9.331990e+04        0
       0        0        0

-5.448504e+05 6.088468e+04        0
6.088468e+04 -9.402691e+04        0
       0        0        0

-6.745439e+05 2.271903e+04        0
2.271903e+04 -9.496744e+04        0
       0        0        0

4.385072e+05 2.273599e+04        0
2.273599e+04 -9.852690e+04        0
       0        0        0

3.201324e+05 6.091880e+04        0
6.091880e+04 -9.753518e+04        0
       0        0        0

2.015286e+05 8.954823e+04        0
8.954823e+04 -9.678441e+04        0
       0        0        0

8.269347e+04 1.086299e+05        0
1.086299e+05 -9.627999e+04        0
       0        0        0

-3.637219e+04 1.181658e+05        0
1.181658e+05 -9.602562e+04        0
       0        0        0

-1.556681e+05 1.181566e+05        0
1.181566e+05 -9.602118e+04        0
       0        0        0

-2.751939e+05 1.086047e+05        0
1.086047e+05 -9.626393e+04        0
       0        0        0

-3.949470e+05 8.951368e+04        0
8.951368e+04 -9.675152e+04        0
       0        0        0

-5.149223e+05 6.088597e+04        0
6.088597e+04 -9.748328e+04        0
       0        0        0

-6.351157e+05 2.272042e+04        0
2.272042e+04 -9.845804e+04        0
       0        0        0

3.922557e+05 2.273517e+04        0
2.273517e+04 -1.017992e+05        0
       0        0        0

2.834729e+05 6.091417e+04        0
6.091417e+04 -1.007716e+05        0
       0        0        0

1.744429e+05 8.954369e+04        0
8.954369e+04 -9.999193e+04        0
       0        0        0

6.517019e+04 1.086305e+05        0
1.086305e+05 -9.947128e+04        0
       0        0        0

-4.434045e+04 1.181718e+05        0
1.181718e+05 -9.921543e+04        0
       0        0        0

-1.540901e+05 1.181634e+05        0
1.181634e+05 -9.922064e+04        0
       0        0        0

-2.640826e+05 1.086073e+05        0
1.086073e+05 -9.947794e+04        0
       0        0        0

-3.743167e+05 8.951190e+04        0
8.951190e+04 -9.998132e+04        0
       0        0        0

-4.847833e+05 6.088396e+04        0
6.088396e+04 -1.007322e+05        0
       0        0        0

-5.954715e+05 2.272084e+04        0
2.272084e+04 -1.017354e+05        0
       0        0        0

3.462395e+05 2.273038e+04        0
2.273038e+04 -1.048416e+05        0
       0        0        0

2.470425e+05 6.089968e+04        0
6.089968e+04 -1.037732e+05        0
       0        0        0

1.475742e+05 8.953314e+04        0
8.953314e+04 -1.029588e+05        0
       0        0        0

4.785764e+04 1.086364e+05        0
1.086364e+05 -1.024236e+05        0
       0        0        0

-5.209349e+04 1.181925e+05        0
1.181925e+05 -1.021775e+05        0
       0        0        0

-1.522869e+05 1.181848e+05        0
1.181848e+05 -1.022075e+05        0
       0        0        0

-2.527398e+05 1.086152e+05        0
1.086152e+05 -1.024893e+05        0
       0        0        0

-3.534573e+05 8.950412e+04        0
8.950412e+04 -1.030072e+05        0
       0        0        0

-4.544214e+05 6.087211e+04        0
6.087211e+04 -1.037669e+05        0
       0        0        0

-5.556028e+05 2.271730e+04        0
2.271730e+04 -1.047874e+05        0
       0        0        0

3.004845e+05 2.271378e+04        0
2.271378e+04 -1.076390e+05        0
       0        0        0

2.108544e+05 6.086006e+04        0
6.086006e+04 -1.065149e+05        0
       0        0        0

1.209195e+05 8.950916e+04        0
8.950916e+04 -1.056508e+05        0
       0        0        0

3.074890e+04 1.086565e+05        0
1.086565e+05 -1.051038e+05        0
       0        0        0

-5.962777e+04 1.182495e+05        0
1.182495e+05 -1.048912e+05        0
       0        0        0

-1.502383e+05 1.182426e+05        0
1.182426e+05 -1.049786e+05        0
       0        0        0

-2.411351e+05 1.086373e+05        0
1.086373e+05 -1.053075e+05        0
       0        0        0

-3.323427e+05 8.948290e+04        0
8.948290e+04 -1.058403e+05        0
       0        0        0

-4.238262e+05 6.083512e+04        0
6.083512e+04 -1.065889e+05        0
       0        0        0

-5.155109e+05 2.270195e+04        0
2.270195e+04 -1.076048e+05        0
       0        0        0

2.550358e+05 2.266713e+04        0
2.266713e+04 -1.101742e+05        0
       0        0        0

1.749189e+05 6.076296e+04        0
6.076296e+04 -1.089599e+05        0
       0        0        0

9.445427e+04 8.945787e+04        0
8.945787e+04 -1.080147e+05        0
       0        0        0

1.381254e+04 1.087107e+05        0
1.087107e+05 -1.074620e+05        0
       0        0        0

-6.695060e+04 1.183874e+05        0
1.183874e+05 -1.073299e+05        0
       0        0        0

-1.479149e+05 1.183812e+05        0
1.183812e+05 -1.075386e+05        0
       0        0        0

-2.292157e+05 1.086936e+05        0
1.086936e+05 -1.079612e+05        0
       0        0        0

-3.109277e+05 8.943438e+04        0
8.943438e+04 -1.085130e+05        0
       0        0        0

-3.929876e+05 6.074067e+04        0
6.074067e+04 -1.092145e+05        0
       0        0        0

-4.752186e+05 2.265657e+04        0
2.265657e+04 -1.101827e+05        0
       0        0        0

2.099793e+05 2.255179e+04        0
2.255179e+04 -1.124263e+05        0
       0        0        0

1.392377e+05 6.054613e+04        0
6.054613e+04 -1.110531e+05        0
       0        0        0

6.810989e+04 8.935684e+04        0
8.935684e+04 -1.099708e+05        0
       0        0        0

-3.027815e+03 1.088393e+05        0
1.088393e+05 -1.094269e+05        0
       0        0        0

-7.408782e+04 1.186893e+05        0
1.186893e+05 -1.094592e+05        0
       0        0        0

-1.452701e+05 1.186838e+05        0
1.186838e+05 -1.099011e+05        0
       0        0        0

-2.168863e+05 1.088241e+05        0
1.088241e+05 -1.105028e+05        0
       0        0        0

-2.891271e+05 8.933613e+04        0
8.933613e+04 -1.110886e+05        0
       0        0        0

-3.618913e+05 6.052652e+04        0
6.052652e+04 -1.116828e+05        0
       0        0        0

-4.347935e+05 2.254251e+04        0
2.254251e+04 -1.125237e+05        0
       0        0        0

1.654788e+05 2.229272e+04        0
2.229272e+04 -1.143703e+05        0
       0        0        0

1.037879e+05 6.010322e+04        0
6.010322e+04 -1.127187e+05        0
       0        0        0

4.173795e+04 8.917828e+04        0
8.917828e+04 -1.114179e+05        0
       0        0        0

-1.992135e+04 1.091156e+05        0
1.091156e+05 -1.109163e+05        0
       0        0        0

-8.109288e+04 1.192909e+05        0
1.192909e+05 -1.112418e+05        0
       0        0        0

-1.422290e+05 1.192861e+05        0
1.192861e+05 -1.120818e+05        0
       0        0        0

-2.039803e+05 1.091025e+05        0
1.091025e+05 -1.129969e+05        0
       0        0        0

-2.667812e+05 8.916036e+04        0
8.916036e+04 -1.136568e+05        0
       0        0        0

-3.305071e+05 6.008632e+04        0
6.008632e+04 -1.140624e+05        0
       0        0        0

-3.943889e+05 2.228475e+04        0
2.228475e+04 -1.146421e+05        0
       0        0        0

1.218279e+05 2.175887e+04        0
2.175887e+04 -1.159809e+05        0
       0        0        0

6.848390e+04 5.928507e+04        0
5.928507e+04 -1.138822e+05        0
       0        0        0

1.506272e+04 8.891260e+04        0
8.891260e+04 -1.122891e+05        0
       0        0        0

-3.711031e+04 1.096563e+05        0
1.096563e+05 -1.119047e+05        0
       0        0        0

-8.804795e+04 1.203654e+05        0
1.203654e+05 -1.126663e+05        0
       0        0        0

-1.386825e+05 1.203614e+05        0
1.203614e+05 -1.140654e+05        0
       0        0        0

-1.902372e+05 1.096452e+05        0
1.096452e+05 -1.154508e+05        0
       0        0        0

-2.436099e+05 8.889751e+04        0
8.889751e+04 -1.162802e+05        0
       0        0        0

-2.987573e+05 5.927093e+04        0
5.927093e+04 -1.164354e+05        0
       0        0        0

-3.543054e+05 2.175226e+04        0
2.175226e+04 -1.165707e+05        0
       0        0        0

7.949065e+04 2.075596e+04        0
2.075596e+04 -1.172628e+05        0
       0        0        0

3.309419e+04 5.797227e+04        0
5.797227e+04 -1.145704e+05        0
       0        0        0

-1.234782e+04 8.864733e+04        0
8.864733e+04 -1.127692e+05        0
       0        0        0

-5.488360e+04 1.105973e+05        0
1.105973e+05 -1.126385e+05        0
       0        0        0

-9.503132e+04 1.220030e+05        0
1.220030e+05 -1.138363e+05        0
       0        0        0

-1.345123e+05 1.219997e+05        0
1.219997e+05 -1.157081e+05        0
       0        0        0

-1.753434e+05 1.105883e+05        0
1.105883e+05 -1.175934e+05        0
       0        0        0

-2.191850e+05 8.863513e+04        0
8.863513e+04 -1.187778e+05        0
       0        0        0

-2.664459e+05 5.796092e+04        0
5.796092e+04 -1.188108e+05        0
       0        0        0

-3.150555e+05 2.075074e+04        0
2.075074e+04 -1.183530e+05        0
       0        0        0

3.903309e+04 1.910188e+04        0
1.910188e+04 -1.183116e+05        0
       0        0        0

-2.928987e+03 5.637894e+04        0
5.637894e+04 -1.153190e+05        0
       0        0        0

-4.095453e+04 8.873937e+04        0
8.873937e+04 -1.138969e+05        0
       0        0        0

-7.332550e+04 1.119396e+05        0
1.119396e+05 -1.141801e+05        0
       0        0        0

-1.019860e+05 1.238135e+05        0
1.238135e+05 -1.151657e+05        0
       0        0        0

-1.297064e+05 1.238111e+05        0
1.238111e+05 -1.165271e+05        0
       0        0        0

-1.591695e+05 1.119331e+05        0
1.119331e+05 -1.183173e+05        0
       0        0        0

-1.930524e+05 8.873029e+04        0
8.873029e+04 -1.201177e+05        0
       0        0        0

-2.331065e+05 5.637040e+04        0
5.637040e+04 -1.207339e+05        0
       0        0        0

-2.773451e+05 1.909803e+04        0
1.909803e+04 -1.200331e+05        0
       0        0        0

5.414022e+02 1.710232e+04        0
1.710232e+04 -1.199488e+05        0
       0        0        0

-4.054117e+04 5.592149e+04        0
5.592149e+04 -1.183027e+05        0
       0        0        0

-7.062435e+04 9.001121e+04        0
9.001121e+04 -1.192413e+05        0
       0        0        0

-9.158406e+04 1.128974e+05        0
1.128974e+05 -1.193258e+05        0
       0        0        0

-1.084607e+05 1.240377e+05        0
1.240377e+05 -1.176019e+05        0
       0        0        0

-1.245958e+05 1.240366e+05        0
1.240366e+05 -1.154547e+05        0
       0        0        0

-1.424757e+05 1.128940e+05        0
1.128940e+05 -1.147348e+05        0
       0        0        0

-1.653296e+05 9.000583e+04        0
9.000583e+04 -1.167156e+05        0
       0        0        0

-1.979179e+05 5.591576e+04        0
5.591576e+04 -1.201647e+05        0
       0        0        0

-2.415929e+05 1.709971e+04        0
1.709971e+04 -1.211220e+05        0
       0        0        0

-3.836858e+04 1.780075e+04        0
1.780075e+04 -1.241350e+05        0
       0        0        0

-8.054570e+04 6.133400e+04        0
6.133400e+04 -1.328982e+05        0
       0        0        0

-9.821524e+04 9.241326e+04        0
9.241326e+04 -1.376296e+05        0
       0        0        0

-1.069113e+05 1.101503e+05        0
1.101503e+05 -1.330053e+05        0
       0        0        0

-1.134715e+05 1.182674e+05        0
1.182674e+05 -1.226467e+05        0
       0        0        0

-1.199667e+05 1.182678e+05        0
1.182678e+05 -1.107915e+05        0
       0        0        0

-1.278287e+05 1.101510e+05        0
1.101510e+05 -1.017346e+05        0
       0        0        0

-1.390491e+05 9.241306e+04        0
9.241306e+04 -9.963480e+04        0
       0        0        0

-1.601972e+05 6.133180e+04        0
6.133180e+04 -1.078466e+05        0
       0        0        0

-2.060542e+05 1.779895e+04        0
1.779895e+04 -1.202973e+05        0
       0        0        0

-9.039285e+04 4.054634e+04        0
4.054634e+04 -1.562635e+05        0
       0        0        0

-1.138229e+05 7.593470e+04        0
7.593470e+04 -1.858338e+05        0
       0        0        0

-1.150529e+05 8.920297e+04        0
8.920297e+04 -1.817139e+05        0
       0        0        0

-1.153686e+05 9.571197e+04        0
9.571197e+04 -1.608201e+05        0
       0        0        0

-1.157302e+05 9.856173e+04        0
9.856173e+04 -1.317724e+05        0
       0        0        0

-1.168178e+05 9.856362e+04        0
9.856362e+04 -1.007752e+05        0
       0        0        0

-1.188469e+05 9.571714e+04        0
9.571714e+04 -7.339287e+04        0
       0        0        0

-1.225417e+05 8.920977e+04        0
8.920977e+04 -5.587523e+04        0
       0        0        0

-1.288871e+05 7.594032e+04        0
7.594032e+04 -5.687023e+04        0
       0        0        0

-1.586326e+05 4.054612e+04        0
4.054612e+04 -9.276220e+04        0
       0        0        0

POINT_DATA     451
VECTORS DISPLACEMENT_3.800000e-01 double
0.000000e+00    0.000000e+00    0.000000e+00
0.000000e+00    0.000000e+00    0.000000e+00
0.000000e+00    0.000000e+00    0.000000e+00
0.000000e+00    0.000000e+00    0.000000e+00
0.000000e+00    0.000000e+00    0.000000e+00
0.000000e+00    0.000000e+00    0.000000e+00
0.000000e+00    0.000000e+00    0.000000e+00
0.000000e+00    0.000000e+00    0.000000e+00
0.000000e+00    0.000000e+00    0.000000e+00
0.000000e+00    0.000000e+00    0.000000e+00
0.000000e+00    0.000000e+00    0.000000e+00
-1.141566e-06    -8.299386e-07    0.000000e+00
-7.233267e-07    -4.162979e-07    0.000000e+00
-5.161017e-07    -2.157195e-07    0.000000e+00
-3.332151e-07    -1.068278e-07    0.000000e+00
-1.642822e-07    -5.047155e-08    0.000000e+00
-3.222395e-20    -3.294915e-08    0.000000e+00
1.642822e-07    -5.047155e-08    0.000000e+00
3.332151e-07    -1.068278e-07    0.000000e+00
5.161017e-07    -2.157195e-07    0.000000e+00
7.233267e-07    -4.162979e-07    0.000000e+00
1.141566e-06    -8.299386e-07    0.000000e+00
-2.153886e-06    -1.380273e-06    0.000000e+00
-1.574396e-06    -9.987394e-07    0.000000e+00
-1.105065e-06    -7.015331e-07    0.000000e+00
-7.128117e-07    -5.176902e-07    0.000000e+00
-3.500938e-07    -4.175165e-07    0.000000e+00
-6.816961e-20    -3.856977e-07    0.000000e+00
3.500938e-07    -4.175165e-07    0.000000e+00
7.128117e-07    -5.176902e-07    0.000000e+00
1.105065e-06    -7.015331e-07    0.000000e+00
1.574396e-06    -9.987394e-07    0.000000e+00
2.153886e-06    -1.380273e-06    0.000000e+00
-3.132348e-06    -2.064579e-06    0.000000e+00
-2.394109e-06    -1.682212e-06    0.000000e+00
-1.722660e-06    -1.380723e-06    0.000000e+00
-1.115213e-06    -1.168063e-06    0.000000e+00
-5.487356e-07    -1.045491e-06    0.000000e+00
-1.074475e-19    -1.005563e-06    0.000000e+00
5.487356e-07    -1.045491e-06    0.000000e+00
1.115213e-06    -1.168063e-06    0.000000e+00
1.722660e-06    -1.380723e-06    0.000000e+00
2.394109e-06    -1.682212e-06    0.000000e+00
3.132348e-06    -2.064579e-06    0.000000e+00
-4.099974e-06    -2.909095e-06    0.000000e+00
-3.186797e-06    -2.535454e-06    0.000000e+00
-2.326901e-06    -2.238992e-06    0.000000e+00
-1.519371e-06    -2.025049e-06    0.000000e+00
-7.500374e-07    -1.896631e-06    0.000000e+00
-1.483300e-19    -1.854049e-06    0.000000e+00
7.500374e-07    -1.896631e-06    0.000000e+00
1.519371e-06    -2.025049e-06    0.000000e+00
2.326901e-06    -2.238992e-06    0.000000e+00
3.186797e-06    -2.535454e-06    0.000000e+00
4.099974e-06    -2.909095e-06    0.000000e+00
-5.051215e-06    -3.936550e-06    0.000000e+00
-3.956380e-06    -3.571630e-06    0.000000e+00
-2.911915e-06    -3.284120e-06    0.000000e+00
-1.912819e-06    -3.075806e-06    0.000000e+00
-9.475270e-07    -2.949697e-06    0.000000e+00
-1.903971e-19    -2.907485e-06    0.000000e+00
9.475270e-07    -2.949697e-06    0.000000e+00
1.912819e-06    -3.075806e-06    0.000000e+00
2.911915e-06    -3.284120e-06    0.000000e+00
3.956380e-06    -3.571630e-06    0.000000e+00
5.051215e-06    -3.936550e-06    0.000000e+00
-5.981725e-06    -5.149607e-06    0.000000e+00
-4.704398e-06    -4.794341e-06    0.000000e+00
-3.477655e-06    -4.515923e-06    0.000000e+00
-2.292866e-06    -4.314980e-06    0.000000e+00
-1.138457e-06    -4.193357e-06    0.000000e+00
-2.332252e-19    -4.152629e-06    0.000000e+00
1.138457e-06    -4.193357e-06    0.000000e+00
2.292866e-06    -4.314980e-06    0.000000e+00
3.477655e-06    -4.515923e-06    0.000000e+00
4.704398e-06    -4.794341e-06    0.000000e+00
5.981725e-06    -5.149607e-06    0.000000e+00
-6.888390e-06    -6.546206e-06    0.000000e+00
-5.431122e-06    -6.200992e-06    0.000000e+00
-4.025197e-06    -5.931434e-06    0.000000e+00
-2.659705e-06    -5.737677e-06    0.000000e+00
-1.322530e-06    -5.620737e-06    0.000000e+00
-2.738034e-19    -5.581622e-06    0.000000e+00
1.322530e-06    -5.620737e-06    0.000000e+00
2.659705e-06    -5.737677e-06    0.000000e+00
4.025197e-06    -5.931434e-06    0.000000e+00
5.431122e-06    -6.200992e-06    0.000000e+00
6.888390e-06    -6.546206e-06    0.000000e+00
-7.769487e-06    -8.121929e-06    0.000000e+00
-6.136461e-06    -7.787003e-06    0.000000e+00
-4.555399e-06    -7.526014e-06    0.000000e+00
-3.014154e-06    -7.338965e-06    0.000000e+00
-1.500137e-06    -7.226354e-06    0.000000e+00
-3.135610e-19    -7.188739e-06    0.000000e+00
1.500137e-06    -7.226354e-06    0.000000e+00
3.014154e-06    -7.338965e-06    0.000000e+00
4.555399e-06    -7.526014e-06    0.000000e+00
6.136461e-06    -7.787003e-06    0.000000e+00
7.769487e-06    -8.121929e-06    0.000000e+00
-8.624130e-06    -9.871585e-06    0.000000e+00
-6.820285e-06    -9.547055e-06    0.000000e+00
-5.068791e-06    -9.294436e-06    0.000000e+00
-3.356893e-06    -9.113699e-06    0.000000e+00
-1.671704e-06    -9.005067e-06    0.000000e+00
-3.549068e-19    -8.968816e-06    0.000000e+00
1.671704e-06    -9.005067e-06    0.000000e+00
3.356893e-06    -9.113699e-06    0.000000e+00
5.068791e-06    -9.294436e-06    0.000000e+00
6.820285e-06    -9.547055e-06    0.000000e+00
8.624130e-06    -9.871585e-06    0.000000e+00
-9.451902e-06    -1.178972e-05    0.000000e+00
-7.482500e-06    -1.147564e-05    0.000000e+00
-5.565658e-06    -1.123127e-05    0.000000e+00
-3.688349e-06    -1.105660e-05    0.000000e+00
-1.837525e-06    -1.095171e-05    0.000000e+00
-3.968879e-19    -1.091673e-05    0.000000e+00
1.837525e-06    -1.095171e-05    0.000000e+00
3.688349e-06    -1.105660e-05    0.000000e+00
5.565658e-06    -1.123127e-05    0.000000e+00
7.482500e-06    -1.147564e-05    0.000000e+00
9.451902e-06    -1.178972e-05    0.000000e+00
-1.025262e-05    -1.387085e-05    0.000000e+00
-8.123049e-06    -1.356723e-05    0.000000e+00
-6.046140e-06    -1.333106e-05    0.000000e+00
-4.008755e-06    -1.316231e-05    0.000000e+00
-1.997767e-06    -1.306103e-05    0.000000e+00
-4.326750e-19    -1.302726e-05    0.000000e+00
1.997767e-06    -1.306103e-05    0.000000e+00
4.008755e-06    -1.316231e-05    0.000000e+00
6.046140e-06    -1.333106e-05    0.000000e+00
8.123049e-06    -1.356723e-05    0.000000e+00
1.025262e-05    -1.387085e-05    0.000000e+00
-1.102622e-05    -1.610948e-05    0.000000e+00
-8.741906e-06    -1.581633e-05    0.000000e+00
-6.510299e-06    -1.558832e-05    0.000000e+00
-4.318223e-06    -1.542544e-05    0.000000e+00
-2.152516e-06    -1.532770e-05    0.000000e+00
-4.695739e-19    -1.529512e-05    0.000000e+00
2.152516e-06    -1.532770e-05    0.000000e+00
4.318223e-06    -1.542544e-05    0.000000e+00
6.510299e-06    -1.558832e-05    0.000000e+00
8.741906e-06    -1.581633e-05    0.000000e+00
1.102622e-05    -1.610948e-05    0.000000e+00
-1.177268e-05    -1.850016e-05    0.000000e+00
-9.339057e-06    -1.821747e-05    0.000000e+00
-6.958162e-06    -1.799761e-05    0.000000e+00
-4.616806e-06    -1.784056e-05    0.000000e+00
-2.301812e-06    -1.774633e-05    0.000000e+00
-5.106020e-19    -1.771492e-05    0.000000e+00
2.301812e-06    -1.774633e-05    0.000000e+00
4.616806e-06    -1.784056e-05    0.000000e+00
6.958162e-06    -1.799761e-05    0.000000e+00
9.339057e-06    -1.821747e-05    0.000000e+00
1.177268e-05    -1.850016e-05    0.000000e+00
-1.249199e-05    -2.103742e-05    0.000000e+00
-9.914497e-06    -2.076521e-05    0.000000e+00
-7.389737e-06    -2.055349e-05    0.000000e+00
-4.904523e-06    -2.040226e-05    0.000000e+00
-2.445671e-06    -2.031153e-05    0.000000e+00
-5.364895e-19    -2.028128e-05    0.000000e+00
2.445671e-06    -2.031153e-05    0.000000e+00
4.904523e-06    -2.040226e-05    0.000000e+00
7.389737e-06    -2.055349e-05    0.000000e+00
9.914497e-06    -2.076521e-05    0.000000e+00
1.249199e-05    -2.103742e-05    0.000000e+00
-1.318415e-05    -2.371583e-05    0.000000e+00
-1.046822e-05    -2.345409e-05    0.000000e+00
-7.805028e-06    -2.325052e-05    0.000000e+00
-5.181382e-06    -2.310511e-05    0.000000e+00
-2.584100e-06    -2.301786e-05    0.000000e+00
-5.607358e-19    -2.298878e-05    0.000000e+00
2.584100e-06    -2.301786e-05    0.000000e+00
5.181382e-06    -2.310511e-05    0.000000e+00
7.805028e-06    -2.325052e-05    0.000000e+00
1.046822e-05    -2.345409e-05    0.000000e+00
1.318415e-05    -2.371583e-05    0.000000e+00
-1.384917e-05    -2.652997e-05    0.000000e+00
-1.100023e-05    -2.627870e-05    0.000000e+00
-8.204034e-06    -2.608326e-05    0.000000e+00
-5.447385e-06    -2.594367e-05    0.000000e+00
-2.717101e-06    -2.585992e-05    0.000000e+00
-5.794764e-19    -2.583200e-05    0.000000e+00
2.717101e-06    -2.585992e-05    0.000000e+00
5.447385e-06    -2.594367e-05    0.000000e+00
8.204034e-06    -2.608326e-05    0.000000e+00
1.100023e-05    -2.627870e-05    0.000000e+00
1.384917e-05    -2.652997e-05    0.000000e+00
-1.448704e-05    -2.947439e-05    0.000000e+00
-1.151053e-05    -2.923359e-05    0.000000e+00
-8.586755e-06    -2.904630e-05    0.000000e+00
-5.702531e-06    -2.891252e-05    0.000000e+00
-2.844674e-06    -2.883226e-05    0.000000e+00
-5.822293e-19    -2.880550e-05    0.000000e+00
2.844674e-06    -2.883226e-05    0.000000e+00
5.702531e-06    -2.891252e-05    0.000000e+00
8.586755e-06    -2.904630e-05    0.000000e+00
1.151053e-05    -2.923359e-05    0.000000e+00
1.448704e-05    -2.947439e-05    0.000000e+00
-1.509777e-05    -3.254367e-05    0.000000e+00
-1.199911e-05    -3.231334e-05    0.000000e+00
-8.953190e-06    -3.213419e-05    0.000000e+00
-5.946821e-06    -3.200623e-05    0.000000e+00
-2.966819e-06    -3.192946e-05    0.000000e+00
-5.941936e-19    -3.190386e-05    0.000000e+00
2.966819e-06    -3.192946e-05    0.000000e+00
5.946821e-06    -3.200623e-05    0.000000e+00
8.953190e-06    -3.213419e-05    0.000000e+00
1.199911e-05    -3.231334e-05    0.000000e+00
1.509777e-05    -3.254367e-05    0.000000e+00
-1.568135e-05    -3.573239e-05    0.000000e+00
-1.246598e-05    -3.551252e-05    0.000000e+00
-9.303340e-06    -3.534152e-05    0.000000e+00
-6.180254e-06    -3.521938e-05    0.000000e+00
-3.083535e-06    -3.514609e-05    0.000000e+00
-6.198164e-19    -3.512166e-05    0.000000e+00
3.083535e-06    -3.514609e-05    0.000000e+00
6.180254e-06    -3.521938e-05    0.000000e+00
9.303340e-06    -3.534152e-05    0.000000e+00
1.246598e-05    -3.551252e-05    0.000000e+00
1.568135e-05    -3.573239e-05    0.000000e+00
-1.623779e-05    -3.903510e-05    0.000000e+00
-1.291113e-05    -3.882571e-05    0.000000e+00
-9.637204e-06    -3.866285e-05    0.000000e+00
-6.402830e-06    -3.854652e-05    0.000000e+00
-3.194823e-06    -3.847672e-05    0.000000e+00
-6.657679e-19    -3.845346e-05    0.000000e+00
3.194823e-06    -3.847672e-05    0.000000e+00
6.402830e-06    -3.854652e-05    0.000000e+00
9.637204e-06    -3.866285e-05    0.000000e+00
1.291113e-05    -3.882571e-05    0.000000e+00
1.623779e-05    -3.903510e-05    0.000000e+00
-1.676709e-05    -4.244639e-05    0.000000e+00
-1.333457e-05    -4.224747e-05    0.000000e+00
-9.954783e-06    -4.209275e-05    0.000000e+00
-6.614549e-06    -4.198224e-05    0.000000e+00
-3.300683e-06    -4.191593e-05    0.000000e+00
-7.307777e-19    -4.189383e-05    0.000000e+00
3.300683e-06    -4.191593e-05    0.000000e+00
6.614549e-06    -4.198224e-05    0.000000e+00
9.954783e-06    -4.209275e-05    0.000000e+00
1.333457e-05    -4.224747e-05    0.000000e+00
1.676709e-05    -4.244639e-05    0.000000e+00
-1.726924e-05    -4.596083e-05    0.000000e+00
-1.373629e-05    -4.577238e-05    0.000000e+00
-1.025608e-05    -4.562580e-05    0.000000e+00
-6.815411e-06    -4.552110e-05    0.000000e+00
-3.401113e-06    -4.545829e-05    0.000000e+00
-7.752469e-19    -4.543735e-05    0.000000e+00
3.401113e-06    -4.545829e-05    0.000000e+00
6.815411e-06    -4.552110e-05    0.000000e+00
1.025608e-05    -4.562580e-05    0.000000e+00
1.373629e-05    -4.577238e-05    0.000000e+00
1.726924e-05    -4.596083e-05    0.000000e+00
-1.774425e-05    -4.957298e-05    0.000000e+00
-1.411630e-05    -4.939500e-05    0.000000e+00
-1.054108e-05    -4.925657e-05    0.000000e+00
-7.005415e-06    -4.915769e-05    0.000000e+00
-3.496116e-06    -4.909836e-05    0.000000e+00
-8.103988e-19    -4.907858e-05    0.000000e+00
3.496116e-06    -4.909836e-05    0.000000e+00
7.005415e-06    -4.915769e-05    0.000000e+00
1.054108e-05    -4.925657e-05    0.000000e+00
1.411630e-05    -4.939500e-05    0.000000e+00
1.774425e-05    -4.957298e-05    0.000000e+00
-1.819212e-05    -5.327742e-05    0.000000e+00
-1.447459e-05    -5.310991e-05    0.000000e+00
-1.080980e-05    -5.297962e-05    0.000000e+00
-7.184563e-06    -5.288655e-05    0.000000e+00
-3.585690e-06    -5.283072e-05    0.000000e+00
-8.470329e-19    -5.281210e-05    0.000000e+00
3.585690e-06    -5.283072e-05    0.000000e+00
7.184563e-06    -5.288655e-05    0.000000e+00
1.080980e-05    -5.297962e-05    0.000000e+00
1.447459e-05    -5.310991e-05    0.000000e+00
1.819212e-05    -5.327742e-05    0.000000e+00
-1.861285e-05    -5.706872e-05    0.000000e+00
-1.481117e-05    -5.691168e-05    0.000000e+00
-1.106224e-05    -5.678953e-05    0.000000e+00
-7.352854e-06    -5.670228e-05    0.000000e+00
-3.669835e-06    -5.664993e-05    0.000000e+00
-8.531739e-19    -5.663248e-05    0.000000e+00
3.669835e-06    -5.664993e-05    0.000000e+00
7.352854e-06    -5.670228e-05    0.000000e+00
1.106224e-05    -5.678953e-05    0.000000e+00
1.481117e-05    -5.691168e-05    0.000000e+00
1.861285e-05    -5.706872e-05    0.000000e+00
-1.900643e-05    -6.094145e-05    0.000000e+00
-1.512604e-05    -6.079488e-05    0.000000e+00
-1.129839e-05    -6.068087e-05    0.000000e+00
-7.510288e-06    -6.059944e-05    0.000000e+00
-3.748553e-06    -6.055058e-05    0.000000e+00
-8.593149e-19    -6.053430e-05    0.000000e+00
3.748553e-06    -6.055058e-05    0.000000e+00
7.510288e-06    -6.059944e-05    0.000000e+00
1.129839e-05    -6.068087e-05    0.000000e+00
1.512604e-05    -6.079488e-05    0.000000e+00
1.900643e-05    -6.094145e-05    0.000000e+00
-1.937286e-05    -6.489018e-05    0.000000e+00
-1.541919e-05    -6.475408e-05    0.000000e+00
-1.151825e-05    -6.464822e-05    0.000000e+00
-7.656866e-06    -6.457260e-05    0.000000e+00
-3.821842e-06    -6.452723e-05    0.000000e+00
-8.652442e-19    -6.451211e-05    0.000000e+00
3.821842e-06    -6.452723e-05    0.000000e+00
7.656866e-06    -6.457260e-05    0.000000e+00
1.151825e-05    -6.464822e-05    0.000000e+00
1.541919e-05    -6.475408e-05    0.000000e+00
1.937286e-05    -6.489018e-05    0.000000e+00
-1.971215e-05    -6.890948e-05    0.000000e+00
-1.569063e-05    -6.878385e-05    0.000000e+00
-1.172183e-05    -6.868613e-05    0.000000e+00
-7.792586e-06    -6.861634e-05    0.000000e+00
-3.889702e-06    -6.857446e-05    0.000000e+00
-8.538092e-19    -6.856050e-05    0.000000e+00
3.889702e-06    -6.857446e-05    0.000000e+00
7.792586e-06    -6.861634e-05    0.000000e+00
1.172183e-05    -6.868613e-05    0.000000e+00
1.569063e-05    -6.878385e-05    0.000000e+00
1.971215e-05    -6.890948e-05    0.000000e+00
-2.002429e-05    -7.299392e-05    0.000000e+00
-1.594035e-05    -7.287876e-05    0.000000e+00
-1.190913e-05    -7.278919e-05    0.000000e+00
-7.917446e-06    -7.272521e-05    0.000000e+00
-3.952129e-06    -7.268684e-05    0.000000e+00
-8.480917e-19    -7.267405e-05    0.000000e+00
3.952129e-06    -7.268684e-05    0.000000e+00
7.917446e-06    -7.272521e-05    0.000000e+00
1.190913e-05    -7.278919e-05    0.000000e+00
1.594035e-05    -7.287876e-05    0.000000e+00
2.002429e-05    -7.299392e-05    0.000000e+00
-2.030929e-05    -7.713805e-05    0.000000e+00
-1.616836e-05    -7.703336e-05    0.000000e+00
-1.208013e-05    -7.695194e-05    0.000000e+00
-8.031433e-06    -7.689381e-05    0.000000e+00
-4.009115e-06    -7.685895e-05    0.000000e+00
-8.826083e-19    -7.684734e-05    0.000000e+00
4.009115e-06    -7.685895e-05    0.000000e+00
8.031433e-06    -7.689381e-05    0.000000e+00
1.208013e-05    -7.695194e-05    0.000000e+00
1.616836e-05    -7.703336e-05    0.000000e+00
2.030929e-05    -7.713805e-05    0.000000e+00
-2.056715e-05    -8.133642e-05    0.000000e+00
-1.637467e-05    -8.124220e-05    0.000000e+00
-1.223483e-05    -8.116895e-05    0.000000e+00
-8.134518e-06    -8.111670e-05    0.000000e+00
-4.060636e-06    -8.108540e-05    0.000000e+00
-9.300422e-19    -8.107498e-05    0.000000e+00
4.060636e-06    -8.108540e-05    0.000000e+00
8.134518e-06    -8.111670e-05    0.000000e+00
1.223483e-05    -8.116895e-05    0.000000e+00
1.637467e-05    -8.124220e-05    0.000000e+00
2.056715e-05    -8.133642e-05    0.000000e+00
-2.079791e-05    -8.558357e-05    0.000000e+00
-1.655929e-05    -8.549980e-05    0.000000e+00
-1.237318e-05    -8.543476e-05    0.000000e+00
-8.226634e-06    -8.538848e-05    0.000000e+00
-4.106640e-06    -8.536083e-05    0.000000e+00
-1.010087e-18    -8.535163e-05    0.000000e+00
4.106640e-06    -8.536083e-05    0.000000e+00
8.226634e-06    -8.538848e-05    0.000000e+00
1.237318e-05    -8.543476e-05    0.000000e+00
1.655929e-05    -8.549980e-05    0.000000e+00
2.079791e-05    -8.558357e-05    0.000000e+00
-2.100168e-05    -8.987401e-05    0.000000e+00
-1.672227e-05    -8.980067e-05    0.000000e+00
-1.249511e-05    -8.974392e-05    0.000000e+00
-8.307638e-06    -8.970376e-05    0.000000e+00
-4.147023e-06    -8.967990e-05    0.000000e+00
-1.075732e-18    -8.967199e-05    0.000000e+00
4.147023e-06    -8.967990e-05    0.000000e+00
8.307638e-06    -8.970376e-05    0.000000e+00
1.249511e-05    -8.974392e-05    0.000000e+00
1.672227e-05    -8.980067e-05    0.000000e+00
2.100168e-05    -8.987401e-05    0.000000e+00
-2.117870e-05    -9.420228e-05    0.000000e+00
-1.686365e-05    -9.413931e-05    0.000000e+00
-1.260044e-05    -9.409097e-05    0.000000e+00
-8.377258e-06    -9.405720e-05    0.000000e+00
-4.181594e-06    -9.403738e-05    0.000000e+00
-1.119354e-18    -9.403086e-05    0.000000e+00
4.181594e-06    -9.403738e-05    0.000000e+00
8.377258e-06    -9.405720e-05    0.000000e+00
1.260044e-05    -9.409097e-05    0.000000e+00
1.686365e-05    -9.413931e-05    0.000000e+00
2.117870e-05    -9.420228e-05    0.000000e+00
-2.132951e-05    -9.856304e-05    0.000000e+00
-1.698353e-05    -9.851029e-05    0.000000e+00
-1.268883e-05    -9.847057e-05    0.000000e+00
-8.435035e-06    -9.844356e-05    0.000000e+00
-4.210056e-06    -9.842807e-05    0.000000e+00
-1.177799e-18    -9.842304e-05    0.000000e+00
4.210056e-06    -9.842807e-05    0.000000e+00
8.435035e-06    -9.844356e-05    0.000000e+00
1.268883e-05    -9.847057e-05    0.000000e+00
1.698353e-05    -9.851029e-05    0.000000e+00
2.132951e-05    -9.856304e-05    0.000000e+00
-2.145520e-05    -1.029514e-04    0.000000e+00
-1.708201e-05    -1.029086e-04    0.000000e+00
-1.275971e-05    -1.028777e-04    0.000000e+00
-8.480347e-06    -1.028577e-04    0.000000e+00
-4.232057e-06    -1.028467e-04    0.000000e+00
-1.227774e-18    -1.028431e-04    0.000000e+00
4.232057e-06    -1.028467e-04    0.000000e+00
8.480347e-06    -1.028577e-04    0.000000e+00
1.275971e-05    -1.028777e-04    0.000000e+00
1.708201e-05    -1.029086e-04    0.000000e+00
2.145520e-05    -1.029514e-04    0.000000e+00
-2.155774e-05    -1.073636e-04    0.000000e+00
-1.715900e-05    -1.073303e-04    0.000000e+00
-1.281233e-05    -1.073082e-04    0.000000e+00
-8.512733e-06    -1.072946e-04    0.000000e+00
-4.247494e-06    -1.072871e-04    0.000000e+00
-1.162976e-18    -1.072847e-04    0.000000e+00
4.247494e-06    -1.072871e-04    0.000000e+00
8.512733e-06    -1.072946e-04    0.000000e+00
1.281233e-05    -1.073082e-04    0.000000e+00
1.715900e-05    -1.073303e-04    0.000000e+00
2.155774e-05    -1.073636e-04    0.000000e+00
-2.164024e-05    -1.117998e-04    0.000000e+00
-1.721395e-05    -1.117748e-04    0.000000e+00
-1.284645e-05    -1.117596e-04    0.000000e+00
-8.533099e-06    -1.117487e-04    0.000000e+00
-4.257195e-06    -1.117412e-04    0.000000e+00
-1.086320e-18    -1.117384e-04    0.000000e+00
4.257195e-06    -1.117412e-04    0.000000e+00
8.533099e-06    -1.117487e-04    0.000000e+00
1.284645e-05    -1.117596e-04    0.000000e+00
1.721395e-05    -1.117748e-04    0.000000e+00
2.164024e-05    -1.117998e-04    0.000000e+00
-2.170470e-05    -1.162678e-04    0.000000e+00
-1.724581e-05    -1.162498e-04    0.000000e+00
-1.286600e-05    -1.162313e-04    0.000000e+00
-8.546036e-06    -1.162107e-04    0.000000e+00
-4.263780e-06    -1.161953e-04    0.000000e+00
-1.077426e-18    -1.161897e-04    0.000000e+00
4.263780e-06    -1.161953e-04    0.000000e+00
8.546036e-06    -1.162107e-04    0.000000e+00
1.286600e-05    -1.162313e-04    0.000000e+00
1.724581e-05    -1.162498e-04    0.000000e+00
2.170470e-05    -1.162678e-04    0.000000e+00
-2.173881e-05    -1.208079e-04    0.000000e+00
-1.726600e-05    -1.207732e-04    0.000000e+00
-1.288582e-05    -1.207147e-04    0.000000e+00
-8.561150e-06    -1.206619e-04    0.000000e+00
-4.271954e-06    -1.206267e-04    0.000000e+00
-1.075520e-18    -1.206144e-04    0.000000e+00
4.271954e-06    -1.206267e-04    0.000000e+00
8.561150e-06    -1.206619e-04    0.000000e+00
1.288582e-05    -1.207147e-04    0.000000e+00
1.726600e-05    -1.207732e-04    0.000000e+00
2.173881e-05    -1.208079e-04    0.000000e+00

CELL_DATA      400
TENSORS Element_Stress3.800000e-01 double
1.820552e+06 2.551743e+05        0
2.551743e+05 4.163382e+05        0
       0        0        0

1.243689e+06 1.308498e+05        0
1.308498e+05 3.566088e+05        0
       0        0        0

8.650971e+05 4.300845e+04        0
4.300845e+04 2.749890e+05        0
       0        0        0

5.099937e+05 -3.579154e+03        0
-3.579154e+03 1.690051e+05        0
       0        0        0

1.688499e+05 -2.488353e+04        0
-2.488353e+04 5.694826e+04        0
       0        0        0

-1.688142e+05 -2.487741e+04        0
-2.487741e+04 -5.695633e+04        0
       0        0        0

-5.095180e+05 -3.579902e+03        0
-3.579902e+03 -1.688405e+05        0
       0        0        0

-8.636863e+05 4.293665e+04        0
4.293665e+04 -2.744603e+05        0
       0        0        0

-1.240703e+06 1.305612e+05        0
1.305612e+05 -3.554650e+05        0
       0        0        0

-1.814329e+06 2.543639e+05        0
2.543639e+05 -4.141865e+05        0
       0        0        0

1.642029e+06 4.159610e+04        0
4.159610e+04 4.234659e+03        0
       0        0        0

1.322321e+06 1.206417e+05        0
1.206417e+05 1.286809e+05        0
       0        0        0

9.082297e+05 9.900422e+04        0
9.900422e+04 1.315157e+05        0
       0        0        0

5.363893e+05 7.580396e+04        0
7.580396e+04 9.193076e+04        0
       0        0        0

1.768129e+05 6.321454e+04        0
6.321454e+04 3.207676e+04        0
       0        0        0

-1.778506e+05 6.319620e+04        0
6.319620e+04 -3.316809e+04        0
       0        0        0

-5.369231e+05 7.573852e+04        0
7.573852e+04 -9.284249e+04        0
       0        0        0

-9.076837e+05 9.886406e+04        0
9.886406e+04 -1.320345e+05        0
       0        0        0

-1.319798e+06 1.204041e+05        0
1.204041e+05 -1.284290e+05        0
       0        0        0

-1.637425e+06 4.150945e+04        0
4.150945e+04 -3.136457e+03        0
       0        0        0

1.584914e+06 1.541573e+04        0
1.541573e+04 6.615155e+03        0
       0        0        0

1.271560e+06 6.832872e+04        0
6.832872e+04 1.757681e+04        0
       0        0        0

9.146190e+05 1.015605e+05        0
1.015605e+05 4.237575e+04        0
       0        0        0

5.430694e+05 1.074728e+05        0
1.074728e+05 3.592253e+04        0
       0        0        0

1.791416e+05 1.074017e+05        0
1.074017e+05 1.272007e+04        0
       0        0        0

-1.824745e+05 1.073738e+05        0
1.073738e+05 -1.611143e+04        0
       0        0        0

-5.458704e+05 1.073897e+05        0
1.073897e+05 -3.912394e+04        0
       0        0        0

-9.162892e+05 1.014314e+05        0
1.014314e+05 -4.515166e+04        0
       0        0        0

-1.271533e+06 6.821386e+04        0
6.821386e+04 -1.966834e+04        0
       0        0        0

-1.582938e+06 1.538382e+04        0
1.538382e+04 -7.911561e+03        0
       0        0        0

1.546092e+06 1.427310e+04        0
1.427310e+04 -3.975591e+03        0
       0        0        0

1.226653e+06 5.548008e+04        0
5.548008e+04 -1.953269e+03        0
       0        0        0

8.865323e+05 9.244708e+04        0
9.244708e+04 2.933124e+03        0
       0        0        0

5.331186e+05 1.145991e+05        0
1.145991e+05 5.877661e+03        0
       0        0        0

1.753699e+05 1.233537e+05        0
1.233537e+05 6.881140e+02        0
       0        0        0

-1.820393e+05 1.233242e+05        0
1.233242e+05 -7.415643e+03        0
       0        0        0

-5.392620e+05 1.145174e+05        0
1.145174e+05 -1.241161e+04        0
       0        0        0

-8.916132e+05 9.233946e+04        0
9.233946e+04 -9.058003e+03        0
       0        0        0

-1.230159e+06 5.539188e+04        0
5.539188e+04 -3.528731e+03        0
       0        0        0

-1.547495e+06 1.424509e+04        0
1.424509e+04 -5.503490e+02        0
       0        0        0

1.509391e+06 1.712998e+04        0
1.712998e+04 -5.566988e+03        0
       0        0        0

1.185311e+06 5.448537e+04        0
5.448537e+04 -8.577318e+03        0
       0        0        0

8.541357e+05 8.905162e+04        0
8.905162e+04 -8.328986e+03        0
       0        0        0

5.137218e+05 1.136370e+05        0
1.136370e+05 -6.744997e+03        0
       0        0        0

1.681017e+05 1.258407e+05        0
1.258407e+05 -5.638774e+03        0
       0        0        0

-1.789858e+05 1.258124e+05        0
1.258124e+05 -5.300538e+03        0
       0        0        0

-5.241110e+05 1.135607e+05        0
1.135607e+05 -4.010026e+03        0
       0        0        0

-8.635333e+05 8.895305e+04        0
8.895305e+04 -2.042601e+03        0
       0        0        0

-1.193215e+06 5.440214e+04        0
5.440214e+04 -1.179368e+03        0
       0        0        0

-1.515236e+06 1.709701e+04        0
1.709701e+04 -3.264617e+03        0
       0        0        0

1.469637e+06 1.958893e+04        0
1.958893e+04 -7.911143e+03        0
       0        0        0

1.147050e+06 5.644360e+04        0
5.644360e+04 -1.054753e+04        0
       0        0        0

8.223957e+05 8.838289e+04        0
8.838289e+04 -1.192725e+04        0
       0        0        0

4.928505e+05 1.117684e+05        0
1.117684e+05 -1.113852e+04        0
       0        0        0

1.594030e+05 1.239572e+05        0
1.239572e+05 -9.157424e+03        0
       0        0        0

-1.752660e+05 1.239306e+05        0
1.239306e+05 -6.756971e+03        0
       0        0        0

-5.082593e+05 1.116965e+05        0
1.116965e+05 -4.610701e+03        0
       0        0        0

-8.368937e+05 8.828867e+04        0
8.828867e+04 -3.479666e+03        0
       0        0        0

-1.160166e+06 5.635993e+04        0
5.635993e+04 -4.312062e+03        0
       0        0        0

-1.480844e+06 1.955214e+04        0
1.955214e+04 -6.139213e+03        0
       0        0        0

1.427035e+06 2.114355e+04        0
2.114355e+04 -1.052911e+04        0
       0        0        0

1.109828e+06 5.834756e+04        0
5.834756e+04 -1.236603e+04        0
       0        0        0

7.923868e+05 8.863824e+04        0
8.863824e+04 -1.362047e+04        0
       0        0        0

4.726169e+05 1.103390e+05        0
1.103390e+05 -1.336990e+04        0
       0        0        0

1.506167e+05 1.216694e+05        0
1.216694e+05 -1.181640e+04        0
       0        0        0

-1.721426e+05 1.216442e+05        0
1.216442e+05 -9.757231e+03        0
       0        0        0

-4.937364e+05 1.102704e+05        0
1.102704e+05 -8.066792e+03        0
       0        0        0

-8.126901e+05 8.854669e+04        0
8.854669e+04 -7.533459e+03        0
       0        0        0

-1.128891e+06 5.826351e+04        0
5.826351e+04 -8.339269e+03        0
       0        0        0

-1.444400e+06 2.110487e+04        0
2.110487e+04 -9.528114e+03        0
       0        0        0

1.382440e+06 2.200105e+04        0
2.200105e+04 -1.363654e+04        0
       0        0        0

1.072866e+06 5.961194e+04        0
5.961194e+04 -1.472111e+04        0
       0        0        0

7.635612e+05 8.900704e+04        0
8.900704e+04 -1.557341e+04        0
       0        0        0

4.533024e+05 1.094820e+05        0
1.094820e+05 -1.552339e+04        0
       0        0        0

1.419493e+05 1.200317e+05        0
1.200317e+05 -1.458713e+04        0
       0        0        0

-1.697560e+05 1.200076e+05        0
1.200076e+05 -1.326412e+04        0
       0        0        0

-4.807552e+05 1.094161e+05        0
1.094161e+05 -1.222578e+04        0
       0        0        0

-7.903025e+05 8.891787e+04        0
8.891787e+04 -1.196530e+04        0
       0        0        0

-1.098528e+06 5.952856e+04        0
5.952856e+04 -1.248571e+04        0
       0        0        0

-1.406633e+06 2.196195e+04        0
2.196195e+04 -1.309780e+04        0
       0        0        0

1.336620e+06 2.243026e+04        0
2.243026e+04 -1.712889e+04        0
       0        0        0

1.035822e+06 6.032303e+04        0
6.032303e+04 -1.770646e+04        0
       0        0        0

7.353527e+05 8.927698e+04        0
8.927698e+04 -1.819268e+04        0
       0        0        0

4.345747e+05 1.090277e+05        0
1.090277e+05 -1.820486e+04        0
       0        0        0

1.333484e+05 1.190711e+05        0
1.190711e+05 -1.770633e+04        0
       0        0        0

-1.679905e+05 1.190479e+05        0
1.190479e+05 -1.697735e+04        0
       0        0        0

-4.689175e+05 1.089641e+05        0
1.089641e+05 -1.641523e+04        0
       0        0        0

-7.690937e+05 8.919027e+04        0
8.919027e+04 -1.629586e+04        0
       0        0        0

-1.068652e+06 6.024120e+04        0
6.024120e+04 -1.657398e+04        0
       0        0        0

-1.368215e+06 2.239159e+04        0
2.239159e+04 -1.685533e+04        0
       0        0        0

1.290080e+06 2.262693e+04        0
2.262693e+04 -2.093266e+04        0
       0        0        0

9.985927e+05 6.068115e+04        0
6.068115e+04 -2.119136e+04        0
       0        0        0

7.073687e+05 8.943546e+04        0
8.943546e+04 -2.142302e+04        0
       0        0        0

4.161066e+05 1.088085e+05        0
1.088085e+05 -2.143174e+04        0
       0        0        0

1.247114e+05 1.185719e+05        0
1.185719e+05 -2.118491e+04        0
       0        0        0

-1.666792e+05 1.185496e+05        0
1.185496e+05 -2.082173e+04        0
       0        0        0

-4.578300e+05 1.087470e+05        0
1.087470e+05 -2.055119e+04        0
       0        0        0

-7.486008e+05 8.935132e+04        0
8.935132e+04 -2.050929e+04        0
       0        0        0

-1.039081e+06 6.060141e+04        0
6.060141e+04 -2.065725e+04        0
       0        0        0

-1.329562e+06 2.258914e+04        0
2.258914e+04 -2.079104e+04        0
       0        0        0

1.243111e+06 2.270867e+04        0
2.270867e+04 -2.498087e+04        0
       0        0        0

9.611624e+05 6.084503e+04        0
6.084503e+04 -2.504064e+04        0
       0        0        0

6.793976e+05 8.951708e+04        0
8.951708e+04 -2.510553e+04        0
       0        0        0

3.976861e+05 1.087115e+05        0
1.087115e+05 -2.508582e+04        0
       0        0        0

1.159731e+05 1.183363e+05        0
1.183363e+05 -2.496093e+04        0
       0        0        0

-1.656923e+05 1.183147e+05        0
1.183147e+05 -2.479457e+04        0
       0        0        0

-4.472152e+05 1.086520e+05        0
1.086520e+05 -2.468581e+04        0
       0        0        0

-7.285442e+05 8.943560e+04        0
8.943560e+04 -2.469576e+04        0
       0        0        0

-1.009729e+06 6.076768e+04        0
6.076768e+04 -2.479881e+04        0
       0        0        0

-1.290893e+06 2.267198e+04        0
2.267198e+04 -2.489840e+04        0
       0        0        0

1.195877e+06 2.273843e+04        0
2.273843e+04 -2.922181e+04        0
       0        0        0

9.235516e+05 6.091256e+04        0
6.091256e+04 -2.914904e+04        0
       0        0        0

6.513457e+05 8.955470e+04        0
8.955470e+04 -2.910245e+04        0
       0        0        0

3.792073e+05 1.086723e+05        0
1.086723e+05 -2.904578e+04        0
       0        0        0

1.071077e+05 1.182350e+05        0
1.182350e+05 -2.896860e+04        0
       0        0        0

-1.649400e+05 1.182141e+05        0
1.182141e+05 -2.889762e+04        0
       0        0        0

-4.369024e+05 1.086149e+05        0
1.086149e+05 -2.887559e+04        0
       0        0        0

-7.087640e+05 8.947594e+04        0
8.947594e+04 -2.892687e+04        0
       0        0        0

-9.805490e+05 6.083773e+04        0
6.083773e+04 -2.903646e+04        0
       0        0        0

-1.252303e+06 2.270294e+04        0
2.270294e+04 -2.916161e+04        0
       0        0        0

1.148468e+06 2.274688e+04        0
2.274688e+04 -3.361364e+04        0
       0        0        0

8.857908e+05 6.093650e+04        0
6.093650e+04 -3.344252e+04        0
       0        0        0

6.231850e+05 8.956990e+04        0
8.956990e+04 -3.331513e+04        0
       0        0        0

3.606316e+05 1.086582e+05        0
1.086582e+05 -3.321985e+04        0
       0        0        0

9.811613e+04 1.181958e+05        0
1.181958e+05 -3.315258e+04        0
       0        0        0

-1.643607e+05 1.181757e+05        0
1.181757e+05 -3.312357e+04        0
       0        0        0

-4.267901e+05 1.086028e+05        0
1.086028e+05 -3.314926e+04        0
       0        0        0

-6.891689e+05 8.949389e+04        0
8.949389e+04 -3.323766e+04        0
       0        0        0

-9.515073e+05 6.086427e+04        0
6.086427e+04 -3.338025e+04        0
       0        0        0

-1.213818e+06 2.271262e+04        0
2.271262e+04 -3.355889e+04        0
       0        0        0

1.100938e+06 2.274767e+04        0
2.274767e+04 -3.812095e+04        0
       0        0        0

8.479123e+05 6.094261e+04        0
6.094261e+04 -3.786837e+04        0
       0        0        0

5.949208e+05 8.957471e+04        0
8.957471e+04 -3.767622e+04        0
       0        0        0

3.419574e+05 1.086538e+05        0
1.086538e+05 -3.754315e+04        0
       0        0        0

8.901472e+04 1.181829e+05        0
1.181829e+05 -3.746850e+04        0
       0        0        0

-1.639099e+05 1.181635e+05        0
1.181635e+05 -3.745592e+04        0
       0        0        0

-4.168156e+05 1.086004e+05        0
1.086004e+05 -3.751072e+04        0
       0        0        0

-6.697031e+05 8.950146e+04        0
8.950146e+04 -3.763433e+04        0
       0        0        0

-9.225751e+05 6.087300e+04        0
6.087300e+04 -3.782166e+04        0
       0        0        0

-1.175431e+06 2.271466e+04        0
2.271466e+04 -3.806477e+04        0
       0        0        0

1.053327e+06 2.274630e+04        0
2.274630e+04 -4.271217e+04        0
       0        0        0

8.099473e+05 6.094233e+04        0
6.094233e+04 -4.238663e+04        0
       0        0        0

5.665728e+05 8.957516e+04        0
8.957516e+04 -4.213799e+04        0
       0        0        0

3.232006e+05 1.086525e+05        0
1.086525e+05 -4.196868e+04        0
       0        0        0

7.982668e+04 1.181797e+05        0
1.181797e+05 -4.187974e+04        0
       0        0        0

-1.635518e+05 1.181611e+05        0
1.181611e+05 -4.187252e+04        0
       0        0        0

-4.069363e+05 1.086011e+05        0
1.086011e+05 -4.194814e+04        0
       0        0        0

-6.503273e+05 8.950466e+04        0
8.950466e+04 -4.210572e+04        0
       0        0        0

-8.937246e+05 6.087534e+04        0
6.087534e+04 -4.234185e+04        0
       0        0        0

-1.137124e+06 2.271453e+04        0
2.271453e+04 -4.265228e+04        0
       0        0        0

1.005665e+06 2.274467e+04        0
2.274467e+04 -4.735814e+04        0
       0        0        0

7.719254e+05 6.094026e+04        0
6.094026e+04 -4.696444e+04        0
       0        0        0

5.381662e+05 8.957397e+04        0
8.957397e+04 -4.666387e+04        0
       0        0        0

3.043846e+05 1.086519e+05        0
1.086519e+05 -4.646000e+04        0
       0        0        0

7.057799e+04 1.181795e+05        0
1.181795e+05 -4.635460e+04        0
       0        0        0

-1.632560e+05 1.181616e+05        0
1.181616e+05 -4.634844e+04        0
       0        0        0

-3.971187e+05 1.086025e+05        0
1.086025e+05 -4.644134e+04        0
       0        0        0

-6.310103e+05 8.950624e+04        0
8.950624e+04 -4.663180e+04        0
       0        0        0

-8.649289e+05 6.087590e+04        0
6.087590e+04 -4.691714e+04        0
       0        0        0

-1.098870e+06 2.271415e+04        0
2.271415e+04 -4.729417e+04        0
       0        0        0

9.579785e+05 2.274329e+04        0
2.274329e+04 -5.203137e+04        0
       0        0        0

7.338745e+05 6.093799e+04        0
6.093799e+04 -5.157282e+04        0
       0        0        0

5.097275e+05 8.957230e+04        0
8.957230e+04 -5.122325e+04        0
       0        0        0

2.855352e+05 1.086512e+05        0
1.086512e+05 -5.098642e+04        0
       0        0        0

6.129512e+04 1.181798e+05        0
1.181798e+05 -5.086440e+04        0
       0        0        0

-1.629944e+05 1.181626e+05        0
1.181626e+05 -5.085792e+04        0
       0        0        0

-3.873343e+05 1.086039e+05        0
1.086039e+05 -5.096655e+04        0
       0        0        0

-6.117241e+05 8.950733e+04        0
8.950733e+04 -5.118876e+04        0
       0        0        0

-8.361616e+05 6.087626e+04        0
6.087626e+04 -5.152214e+04        0
       0        0        0

-1.060642e+06 2.271402e+04        0
2.271402e+04 -5.196365e+04        0
       0        0        0

9.102948e+05 2.274220e+04        0
2.274220e+04 -5.670565e+04        0
       0        0        0

6.958211e+05 6.093594e+04        0
6.093594e+04 -5.618506e+04        0
       0        0        0

4.812832e+05 8.957054e+04        0
8.957054e+04 -5.578881e+04        0
       0        0        0

2.666782e+05 1.086504e+05        0
1.086504e+05 -5.552054e+04        0
       0        0        0

5.200405e+04 1.181799e+05        0
1.181799e+05 -5.538246e+04        0
       0        0        0

-1.627408e+05 1.181635e+05        0
1.181635e+05 -5.537538e+04        0
       0        0        0

-3.775567e+05 1.086051e+05        0
1.086051e+05 -5.549894e+04        0
       0        0        0

-5.924429e+05 8.950834e+04        0
8.950834e+04 -5.575171e+04        0
       0        0        0

-8.073970e+05 6.087684e+04        0
6.087684e+04 -5.613136e+04        0
       0        0        0

-1.022415e+06 2.271417e+04        0
2.271417e+04 -5.663476e+04        0
       0        0        0

8.626381e+05 2.274130e+04        0
2.274130e+04 -6.135595e+04        0
       0        0        0

6.577905e+05 6.093414e+04        0
6.093414e+04 -6.077600e+04        0
       0        0        0

4.528584e+05 8.956883e+04        0
8.956883e+04 -6.033516e+04        0
       0        0        0

2.478389e+05 1.086493e+05        0
1.086493e+05 -6.003694e+04        0
       0        0        0

4.272982e+04 1.181797e+05        0
1.181797e+05 -5.988357e+04        0
       0        0        0

-1.624701e+05 1.181640e+05        0
1.181640e+05 -5.987596e+04        0
       0        0        0

-3.677610e+05 1.086060e+05        0
1.086060e+05 -6.001387e+04        0
       0        0        0

-5.731418e+05 8.950939e+04        0
8.950939e+04 -6.029597e+04        0
       0        0        0

-7.786102e+05 6.087766e+04        0
6.087766e+04 -6.071994e+04        0
       0        0        0

-9.841625e+05 2.271452e+04        0
2.271452e+04 -6.128252e+04        0
       0        0        0

8.150322e+05 2.274052e+04        0
2.274052e+04 -6.595835e+04        0
       0        0        0

6.198065e+05 6.093251e+04        0
6.093251e+04 -6.532173e+04        0
       0        0        0

4.244773e+05 8.956717e+04        0
8.956717e+04 -6.483834e+04        0
       0        0        0

2.290413e+05 1.086482e+05        0
1.086482e+05 -6.451161e+04        0
       0        0        0

3.349644e+04 1.181794e+05        0
1.181794e+05 -6.434376e+04        0
       0        0        0

-1.621584e+05 1.181644e+05        0
1.181644e+05 -6.433577e+04        0
       0        0        0

-3.579234e+05 1.086069e+05        0
1.086069e+05 -6.448749e+04        0
       0        0        0

-5.537972e+05 8.951050e+04        0
8.951050e+04 -6.479765e+04        0
       0        0        0

-7.497775e+05 6.087866e+04        0
6.087866e+04 -6.526395e+04        0
       0        0        0

-9.458607e+05 2.271499e+04        0
2.271499e+04 -6.588300e+04        0
       0        0        0

7.674999e+05 2.273981e+04        0
2.273981e+04 -7.048999e+04        0
       0        0        0

5.818923e+05 6.093099e+04        0
6.093099e+04 -6.979941e+04        0
       0        0        0

3.961629e+05 8.956557e+04        0
8.956557e+04 -6.927555e+04        0
       0        0        0

2.103085e+05 1.086470e+05        0
1.086470e+05 -6.892174e+04        0
       0        0        0

2.432682e+04 1.181788e+05        0
1.181788e+05 -6.874018e+04        0
       0        0        0

-1.617831e+05 1.181646e+05        0
1.181646e+05 -6.873193e+04        0
       0        0        0

-3.480212e+05 1.086077e+05        0
1.086077e+05 -6.889690e+04        0
       0        0        0

-5.343863e+05 8.951166e+04        0
8.951166e+04 -6.923386e+04        0
       0        0        0

-7.208760e+05 6.087977e+04        0
6.087977e+04 -6.974049e+04        0
       0        0        0

-9.074867e+05 2.271552e+04        0
2.271552e+04 -7.041335e+04        0
       0        0        0

7.200627e+05 2.273915e+04        0
2.273915e+04 -7.492913e+04        0
       0        0        0

5.440694e+05 6.092957e+04        0
6.092957e+04 -7.418735e+04        0
       0        0        0

3.679370e+05 8.956401e+04        0
8.956401e+04 -7.362508e+04        0
       0        0        0

1.916622e+05 1.086458e+05        0
1.086458e+05 -7.324560e+04        0
       0        0        0

1.524275e+04 1.181782e+05        0
1.181782e+05 -7.305111e+04        0
       0        0        0

-1.613223e+05 1.181647e+05        0
1.181647e+05 -7.304268e+04        0
       0        0        0

-3.380327e+05 1.086085e+05        0
1.086085e+05 -7.322029e+04        0
       0        0        0

-5.148874e+05 8.951287e+04        0
8.951287e+04 -7.358278e+04        0
       0        0        0

-6.918839e+05 6.088097e+04        0
6.088097e+04 -7.412778e+04        0
       0        0        0

-8.690188e+05 2.271611e+04        0
2.271611e+04 -7.485181e+04        0
       0        0        0

6.727414e+05 2.273854e+04        0
2.273854e+04 -7.925511e+04        0
       0        0        0

5.063586e+05 6.092824e+04        0
6.092824e+04 -7.846491e+04        0
       0        0        0

3.398203e+05 8.956250e+04        0
8.956250e+04 -7.786633e+04        0
       0        0        0

1.731232e+05 1.086445e+05        0
1.086445e+05 -7.746260e+04        0
       0        0        0

6.264937e+03 1.181775e+05        0
1.181775e+05 -7.725588e+04        0
       0        0        0

-1.607554e+05 1.181647e+05        0
1.181647e+05 -7.724731e+04        0
       0        0        0

-3.279374e+05 1.086093e+05        0
1.086093e+05 -7.743695e+04        0
       0        0        0

-4.952800e+05 8.951412e+04        0
8.951412e+04 -7.782366e+04        0
       0        0        0

-6.627806e+05 6.088227e+04        0
6.088227e+04 -7.840510e+04        0
       0        0        0

-8.304361e+05 2.271674e+04        0
2.271674e+04 -7.917769e+04        0
       0        0        0

6.255553e+05 2.273801e+04        0
2.273801e+04 -8.344834e+04        0
       0        0        0

4.687794e+05 6.092703e+04        0
6.092703e+04 -8.261254e+04        0
       0        0        0

3.118326e+05 8.956104e+04        0
8.956104e+04 -8.197978e+04        0
       0        0        0

1.547112e+05 1.086432e+05        0
1.086432e+05 -8.155318e+04        0
       0        0        0

-2.586998e+03 1.181766e+05        0
1.181766e+05 -8.133493e+04        0
       0        0        0

-1.600628e+05 1.181646e+05        0
1.181646e+05 -8.132624e+04        0
       0        0        0

-3.177158e+05 1.086099e+05        0
1.086099e+05 -8.152723e+04        0
       0        0        0

-4.755445e+05 8.951543e+04        0
8.951543e+04 -8.193687e+04        0
       0        0        0

-6.335466e+05 6.088369e+04        0
6.088369e+04 -8.255282e+04        0
       0        0        0

-7.917189e+05 2.271745e+04        0
2.271745e+04 -8.337141e+04        0
       0        0        0

5.785229e+05 2.273761e+04        0
2.273761e+04 -8.749036e+04        0
       0        0        0

4.313505e+05 6.092601e+04        0
6.092601e+04 -8.661177e+04        0
       0        0        0

2.839925e+05 8.955964e+04        0
8.955964e+04 -8.594693e+04        0
       0        0        0

1.364449e+05 1.086417e+05        0
1.086417e+05 -8.549885e+04        0
       0        0        0

-1.129452e+04 1.181756e+05        0
1.181756e+05 -8.526976e+04        0
       0        0        0

-1.592262e+05 1.181643e+05        0
1.181643e+05 -8.526096e+04        0
       0        0        0

-3.073494e+05 1.086105e+05        0
1.086105e+05 -8.547266e+04        0
       0        0        0

-4.556626e+05 8.951679e+04        0
8.951679e+04 -8.590391e+04        0
       0        0        0

-6.041633e+05 6.088529e+04        0
6.088529e+04 -8.655242e+04        0
       0        0        0

-7.528487e+05 2.271830e+04        0
2.271830e+04 -8.741444e+04        0
       0        0        0

5.316613e+05 2.273741e+04        0
2.273741e+04 -9.136373e+04        0
       0        0        0

3.940893e+05 6.092519e+04        0
6.092519e+04 -9.044514e+04        0
       0        0        0

2.563175e+05 8.955823e+04        0
8.955823e+04 -8.975023e+04        0
       0        0        0

1.183416e+05 1.086401e+05        0
1.086401e+05 -8.928203e+04        0
       0        0        0

-1.984019e+04 1.181743e+05        0
1.181743e+05 -8.904290e+04        0
       0        0        0

-1.582281e+05 1.181637e+05        0
1.181637e+05 -8.903418e+04        0
       0        0        0

-2.968211e+05 1.086109e+05        0
1.086109e+05 -8.925602e+04        0
       0        0        0

-4.356171e+05 8.951815e+04        0
8.951815e+04 -8.970750e+04        0
       0        0        0

-5.746135e+05 6.088710e+04        0
6.088710e+04 -9.038652e+04        0
       0        0        0

-7.138077e+05 2.271935e+04        0
2.271935e+04 -9.128937e+04        0
       0        0        0

4.849867e+05 2.273745e+04        0
2.273745e+04 -9.505208e+04        0
       0        0        0

3.570124e+05 6.092440e+04        0
6.092440e+04 -9.409603e+04        0
       0        0        0

2.288241e+05 8.955661e+04        0
8.955661e+04 -9.337275e+04        0
       0        0        0

1.004178e+05 1.086385e+05        0
1.086385e+05 -9.288572e+04        0
       0        0        0

-2.820777e+04 1.181732e+05        0
1.181732e+05 -9.263774e+04        0
       0        0        0

-1.570522e+05 1.181634e+05        0
1.181634e+05 -9.262987e+04        0
       0        0        0

-2.861144e+05 1.086113e+05        0
1.086113e+05 -9.286166e+04        0
       0        0        0

-4.153917e+05 8.951929e+04        0
8.951929e+04 -9.333195e+04        0
       0        0        0

-5.448810e+05 6.088894e+04        0
6.088894e+04 -9.403907e+04        0
       0        0        0

-6.745794e+05 2.272063e+04        0
2.272063e+04 -9.497987e+04        0
       0        0        0

4.385143e+05 2.273750e+04        0
2.273750e+04 -9.853993e+04        0
       0        0        0

3.201355e+05 6.092283e+04        0
6.092283e+04 -9.754821e+04        0
       0        0        0

2.015274e+05 8.955414e+04        0
8.955414e+04 -9.679737e+04        0
       0        0        0

8.268786e+04 1.086370e+05        0
1.086370e+05 -9.629279e+04        0
       0        0        0

-3.638241e+04 1.181735e+05        0
1.181735e+05 -9.603826e+04        0
       0        0        0

-1.556830e+05 1.181644e+05        0
1.181644e+05 -9.603366e+04        0
       0        0        0

-2.752134e+05 1.086119e+05        0
1.086119e+05 -9.627632e+04        0
       0        0        0

-3.949711e+05 8.951958e+04        0
8.951958e+04 -9.676389e+04        0
       0        0        0

-5.149509e+05 6.088999e+04        0
6.088999e+04 -9.749577e+04        0
       0        0        0

-6.351485e+05 2.272193e+04        0
2.272193e+04 -9.847081e+04        0
       0        0        0

3.922596e+05 2.273659e+04        0
2.273659e+04 -1.018125e+05        0
       0        0        0

2.834735e+05 6.091796e+04        0
6.091796e+04 -1.007849e+05        0
       0        0        0

1.744399e+05 8.954924e+04        0
8.954924e+04 -1.000052e+05        0
       0        0        0

6.516333e+04 1.086372e+05        0
1.086372e+05 -9.948441e+04        0
       0        0        0

-4.435130e+04 1.181791e+05        0
1.181791e+05 -9.922838e+04        0
       0        0        0

-1.541050e+05 1.181706e+05        0
1.181706e+05 -9.923344e+04        0
       0        0        0

-2.641015e+05 1.086140e+05        0
1.086140e+05 -9.949063e+04        0
       0        0        0

-3.743396e+05 8.951745e+04        0
8.951745e+04 -9.999399e+04        0
       0        0        0

-4.848100e+05 6.088775e+04        0
6.088775e+04 -1.007450e+05        0
       0        0        0

-5.955018e+05 2.272226e+04        0
2.272226e+04 -1.017484e+05        0
       0        0        0

3.462405e+05 2.273170e+04        0
2.273170e+04 -1.048552e+05        0
       0        0        0

2.470408e+05 6.090321e+04        0
6.090321e+04 -1.037869e+05        0
       0        0        0

1.475694e+05 8.953831e+04        0
8.953831e+04 -1.029724e+05        0
       0        0        0

4.784964e+04 1.086426e+05        0
1.086426e+05 -1.024370e+05        0
       0        0        0

-5.210491e+04 1.181993e+05        0
1.181993e+05 -1.021908e+05        0
       0        0        0

-1.523018e+05 1.181916e+05        0
1.181916e+05 -1.022206e+05        0
       0        0        0

-2.527582e+05 1.086215e+05        0
1.086215e+05 -1.025022e+05        0
       0        0        0

-3.534791e+05 8.950929e+04        0
8.950929e+04 -1.030202e+05        0
       0        0        0

-4.544463e+05 6.087563e+04        0
6.087563e+04 -1.037800e+05        0
       0        0        0

-5.556308e+05 2.271863e+04        0
2.271863e+04 -1.048007e+05        0
       0        0        0

3.004828e+05 2.271500e+04        0
2.271500e+04 -1.076529e+05        0
       0        0        0

2.108505e+05 6.086332e+04        0
6.086332e+04 -1.065289e+05        0
       0        0        0

1.209132e+05 8.951393e+04        0
8.951393e+04 -1.056646e+05        0
       0        0        0

3.073984e+04 1.086622e+05        0
1.086622e+05 -1.051175e+05        0
       0        0        0

-5.963971e+04 1.182558e+05        0
1.182558e+05 -1.049047e+05        0
       0        0        0

-1.502532e+05 1.182488e+05        0
1.182488e+05 -1.049919e+05        0
       0        0        0

-2.411529e+05 1.086431e+05        0
1.086431e+05 -1.053207e+05        0
       0        0        0

-3.323634e+05 8.948767e+04        0
8.948767e+04 -1.058534e+05        0
       0        0        0

-4.238495e+05 6.083838e+04        0
6.083838e+04 -1.066022e+05        0
       0        0        0

-5.155366e+05 2.270317e+04        0
2.270317e+04 -1.076184e+05        0
       0        0        0

2.550315e+05 2.266825e+04        0
2.266825e+04 -1.101883e+05        0
       0        0        0

1.749131e+05 6.076593e+04        0
6.076593e+04 -1.089740e+05        0
       0        0        0

9.444645e+04 8.946222e+04        0
8.946222e+04 -1.080287e+05        0
       0        0        0

1.380252e+04 1.087160e+05        0
1.087160e+05 -1.074759e+05        0
       0        0        0

-6.696300e+04 1.183931e+05        0
1.183931e+05 -1.073437e+05        0
       0        0        0

-1.479298e+05 1.183869e+05        0
1.183869e+05 -1.075521e+05        0
       0        0        0

-2.292330e+05 1.086988e+05        0
1.086988e+05 -1.079746e+05        0
       0        0        0

-3.109473e+05 8.943873e+04        0
8.943873e+04 -1.085264e+05        0
       0        0        0

-3.930094e+05 6.074365e+04        0
6.074365e+04 -1.092279e+05        0
       0        0        0

-4.752422e+05 2.265769e+04        0
2.265769e+04 -1.101965e+05        0
       0        0        0

2.099728e+05 2.255279e+04        0
2.255279e+04 -1.124406e+05        0
       0        0        0

1.392300e+05 6.054880e+04        0
6.054880e+04 -1.110674e+05        0
       0        0        0

6.810076e+04 8.936075e+04        0
8.936075e+04 -1.099850e+05        0
       0        0        0

-3.038697e+03 1.088440e+05        0
1.088440e+05 -1.094410e+05        0
       0        0        0

-7.410063e+04 1.186945e+05        0
1.186945e+05 -1.094731e+05        0
       0        0        0

-1.452850e+05 1.186890e+05        0
1.186890e+05 -1.099148e+05        0
       0        0        0

-2.169031e+05 1.088289e+05        0
1.088289e+05 -1.105163e+05        0
       0        0        0

-2.891458e+05 8.934004e+04        0
8.934004e+04 -1.111021e+05        0
       0        0        0

-3.619117e+05 6.052919e+04        0
6.052919e+04 -1.116965e+05        0
       0        0        0

-4.348152e+05 2.254351e+04        0
2.254351e+04 -1.125376e+05        0
       0        0        0

1.654703e+05 2.229360e+04        0
2.229360e+04 -1.143847e+05        0
       0        0        0

1.037786e+05 6.010558e+04        0
6.010558e+04 -1.127332e+05        0
       0        0        0

4.172766e+04 8.918174e+04        0
8.918174e+04 -1.114323e+05        0
       0        0        0

-1.993299e+04 1.091198e+05        0
1.091198e+05 -1.109306e+05        0
       0        0        0

-8.110605e+04 1.192955e+05        0
1.192955e+05 -1.112558e+05        0
       0        0        0

-1.422437e+05 1.192907e+05        0
1.192907e+05 -1.120956e+05        0
       0        0        0

-2.039967e+05 1.091066e+05        0
1.091066e+05 -1.130106e+05        0
       0        0        0

-2.667990e+05 8.916381e+04        0
8.916381e+04 -1.136705e+05        0
       0        0        0

-3.305262e+05 6.008868e+04        0
6.008868e+04 -1.140762e+05        0
       0        0        0

-3.944089e+05 2.228564e+04        0
2.228564e+04 -1.146562e+05        0
       0        0        0

1.218176e+05 2.175963e+04        0
2.175963e+04 -1.159954e+05        0
       0        0        0

6.847332e+04 5.928710e+04        0
5.928710e+04 -1.138969e+05        0
       0        0        0

1.505140e+04 8.891558e+04        0
8.891558e+04 -1.123036e+05        0
       0        0        0

-3.712262e+04 1.096599e+05        0
1.096599e+05 -1.119191e+05        0
       0        0        0

-8.806142e+04 1.203693e+05        0
1.203693e+05 -1.126805e+05        0
       0        0        0

-1.386972e+05 1.203653e+05        0
1.203653e+05 -1.140794e+05        0
       0        0        0

-1.902532e+05 1.096488e+05        0
1.096488e+05 -1.154647e+05        0
       0        0        0

-2.436269e+05 8.890048e+04        0
8.890048e+04 -1.162940e+05        0
       0        0        0

-2.987752e+05 5.927296e+04        0
5.927296e+04 -1.164493e+05        0
       0        0        0

-3.543239e+05 2.175302e+04        0
2.175302e+04 -1.165849e+05        0
       0        0        0

7.947893e+04 2.075658e+04        0
2.075658e+04 -1.172774e+05        0
       0        0        0

3.308243e+04 5.797393e+04        0
5.797393e+04 -1.145851e+05        0
       0        0        0

-1.236001e+04 8.864980e+04        0
8.864980e+04 -1.127838e+05        0
       0        0        0

-5.489648e+04 1.106003e+05        0
1.106003e+05 -1.126530e+05        0
       0        0        0

-9.504505e+04 1.220063e+05        0
1.220063e+05 -1.138506e+05        0
       0        0        0

-1.345270e+05 1.220030e+05        0
1.220030e+05 -1.157222e+05        0
       0        0        0

-1.753589e+05 1.105913e+05        0
1.105913e+05 -1.176073e+05        0
       0        0        0

-2.192014e+05 8.863760e+04        0
8.863760e+04 -1.187917e+05        0
       0        0        0

-2.664629e+05 5.796259e+04        0
5.796259e+04 -1.188248e+05        0
       0        0        0

-3.150727e+05 2.075136e+04        0
2.075136e+04 -1.183673e+05        0
       0        0        0

3.902019e+04 1.910235e+04        0
1.910235e+04 -1.183263e+05        0
       0        0        0

-2.941706e+03 5.638023e+04        0
5.638023e+04 -1.153337e+05        0
       0        0        0

-4.096746e+04 8.874131e+04        0
8.874131e+04 -1.139116e+05        0
       0        0        0

-7.333886e+04 1.119420e+05        0
1.119420e+05 -1.141947e+05        0
       0        0        0

-1.019999e+05 1.238161e+05        0
1.238161e+05 -1.151800e+05        0
       0        0        0

-1.297210e+05 1.238138e+05        0
1.238138e+05 -1.165412e+05        0
       0        0        0

-1.591847e+05 1.119355e+05        0
1.119355e+05 -1.183314e+05        0
       0        0        0

-1.930682e+05 8.873223e+04        0
8.873223e+04 -1.201317e+05        0
       0        0        0

-2.331226e+05 5.637168e+04        0
5.637168e+04 -1.207480e+05        0
       0        0        0

-2.773612e+05 1.909850e+04        0
1.909850e+04 -1.200474e+05        0
       0        0        0

5.276245e+02 1.710262e+04        0
1.710262e+04 -1.199636e+05        0
       0        0        0

-4.055466e+04 5.592236e+04        0
5.592236e+04 -1.183175e+05        0
       0        0        0

-7.063788e+04 9.001261e+04        0
9.001261e+04 -1.192561e+05        0
       0        0        0

-9.159782e+04 1.128992e+05        0
1.128992e+05 -1.193404e+05        0
       0        0        0

-1.084748e+05 1.240397e+05        0
1.240397e+05 -1.176163e+05        0
       0        0        0

-1.246103e+05 1.240386e+05        0
1.240386e+05 -1.154689e+05        0
       0        0        0

-1.424906e+05 1.128958e+05        0
1.128958e+05 -1.147489e+05        0
       0        0        0

-1.653448e+05 9.000723e+04        0
9.000723e+04 -1.167296e+05        0
       0        0        0

-1.979334e+05 5.591663e+04        0
5.591663e+04 -1.201788e+05        0
       0        0        0

-2.416082e+05 1.710000e+04        0
1.710000e+04 -1.211364e+05        0
       0        0        0

-3.838294e+04 1.780086e+04        0
1.780086e+04 -1.241499e+05        0
       0        0        0

-8.055977e+04 6.133446e+04        0
6.133446e+04 -1.329131e+05        0
       0        0        0

-9.822926e+04 9.241411e+04        0
9.241411e+04 -1.376445e+05        0
       0        0        0

-1.069254e+05 1.101515e+05        0
1.101515e+05 -1.330200e+05        0
       0        0        0

-1.134857e+05 1.182687e+05        0
1.182687e+05 -1.226611e+05        0
       0        0        0

-1.199810e+05 1.182691e+05        0
1.182691e+05 -1.108056e+05        0
       0        0        0

-1.278433e+05 1.101522e+05        0
1.101522e+05 -1.017486e+05        0
       0        0        0

-1.390639e+05 9.241392e+04        0
9.241392e+04 -9.964878e+04        0
       0        0        0

-1.602122e+05 6.133227e+04        0
6.133227e+04 -1.078607e+05        0
       0        0        0

-2.060692e+05 1.779905e+04        0
1.779905e+04 -1.203118e+05        0
       0        0        0

-9.040754e+04 4.054632e+04        0
4.054632e+04 -1.562785e+05        0
       0        0        0

-1.138374e+05 7.593482e+04        0
7.593482e+04 -1.858490e+05        0
       0        0        0

-1.150672e+05 8.920327e+04        0
8.920327e+04 -1.817290e+05        0
       0        0        0

-1.153829e+05 9.571241e+04        0
9.571241e+04 -1.608349e+05        0
       0        0        0

-1.157444e+05 9.856223e+04        0
9.856223e+04 -1.317869e+05        0
       0        0        0

-1.168320e+05 9.856413e+04        0
9.856413e+04 -1.007892e+05        0
       0        0        0

-1.188613e+05 9.571757e+04        0
9.571757e+04 -7.340659e+04        0
       0        0        0

-1.225562e+05 8.921007e+04        0
8.921007e+04 -5.588888e+04        0
       0        0        0

-1.289018e+05 7.594044e+04        0
7.594044e+04 -5.688416e+04        0
       0        0        0

-1.586475e+05 4.054610e+04        0
4.054610e+04 -9.277671e+04        0
       0        0        0

POINT_DATA     451
VECTORS DISPLACEMENT_4.000000e-01 double
0.000000e+00    0.000000e+00    0.000000e+00
0.000000e+00    0.000000e+00    0.000000e+00
0.000000e+00    0.000000e+00    0.000000e+00
0.000000e+00    0.000000e+00    0.000000e+00
0.000000e+00    0.000000e+00    0.000000e+00
0.000000e+00    0.000000e+00    0.000000e+00
0.000000e+00    0.000000e+00    0.000000e+00
0.000000e+00    0.000000e+00    0.000000e+00
0.000000e+00    0.000000e+00    0.000000e+00
0.000000e+00    0.000000e+00    0.000000e+00
0.000000e+00    0.000000e+00    0.000000e+00
-1.141591e-06    -8.299571e-07    0.000000e+00
-7.233420e-07    -4.163077e-07    0.000000e+00
-5.161125e-07    -2.157251e-07    0.000000e+00
-3.332220e-07    -1.068312e-07    0.000000e+00
-1.642856e-07    -5.047384e-08    0.000000e+00
-4.107974e-20    -3.295109e-08    0.000000e+00
1.642856e-07    -5.047384e-08    0.000000e+00
3.332220e-07    -1.068312e-07    0.000000e+00
5.161125e-07    -2.157251e-07    0.000000e+00
7.233420e-07    -4.163077e-07    0.000000e+00
1.141591e-06    -8.299571e-07    0.000000e+00
-2.153932e-06    -1.380304e-06    0.000000e+00
-1.574429e-06    -9.987625e-07    0.000000e+00
-1.105088e-06    -7.015501e-07    0.000000e+00
-7.128265e-07    -5.177035e-07    0.000000e+00
-3.501010e-07    -4.175277e-07    0.000000e+00
-8.685645e-20    -3.857083e-07    0.000000e+00
3.501010e-07    -4.175277e-07    0.000000e+00
7.128265e-07    -5.177035e-07    0.000000e+00
1.105088e-06    -7.015501e-07    0.000000e+00
1.574429e-06    -9.987625e-07    0.000000e+00
2.153932e-06    -1.380304e-06    0.000000e+00
-3.132415e-06    -2.064626e-06    0.000000e+00
-2.394159e-06    -1.682250e-06    0.000000e+00
-1.722695e-06    -1.380755e-06    0.000000e+00
-1.115236e-06    -1.168091e-06    0.000000e+00
-5.487469e-07    -1.045516e-06    0.000000e+00
-1.367892e-19    -1.005588e-06    0.000000e+00
5.487469e-07    -1.045516e-06    0.000000e+00
1.115236e-06    -1.168091e-06    0.000000e+00
1.722695e-06    -1.380755e-06    0.000000e+00
2.394159e-06    -1.682250e-06    0.000000e+00
3.132415e-06    -2.064626e-06    0.000000e+00
-4.100060e-06    -2.909160e-06    0.000000e+00
-3.186864e-06    -2.535512e-06    0.000000e+00
-2.326950e-06    -2.239044e-06    0.000000e+00
-1.519403e-06    -2.025096e-06    0.000000e+00
-7.500528e-07    -1.896676e-06    0.000000e+00
-1.888685e-19    -1.854093e-06    0.000000e+00
7.500528e-07    -1.896676e-06    0.000000e+00
1.519403e-06    -2.025096e-06    0.000000e+00
2.326950e-06    -2.239044e-06    0.000000e+00
3.186864e-06    -2.535512e-06    0.000000e+00
4.100060e-06    -2.909160e-06    0.000000e+00
-5.051321e-06    -3.936638e-06    0.000000e+00
-3.956462e-06    -3.571711e-06    0.000000e+00
-2.911975e-06    -3.284194e-06    0.000000e+00
-1.912858e-06    -3.075877e-06    0.000000e+00
-9.475464e-07    -2.949765e-06    0.000000e+00
-2.424367e-19    -2.907552e-06    0.000000e+00
9.475464e-07    -2.949765e-06    0.000000e+00
1.912858e-06    -3.075877e-06    0.000000e+00
2.911975e-06    -3.284194e-06    0.000000e+00
3.956462e-06    -3.571711e-06    0.000000e+00
5.051321e-06    -3.936638e-06    0.000000e+00
-5.981850e-06    -5.149721e-06    0.000000e+00
-4.704495e-06    -4.794448e-06    0.000000e+00
-3.477726e-06    -4.516024e-06    0.000000e+00
-2.292913e-06    -4.315078e-06    0.000000e+00
-1.138480e-06    -4.193452e-06    0.000000e+00
-2.970836e-19    -4.152723e-06    0.000000e+00
1.138480e-06    -4.193452e-06    0.000000e+00
2.292913e-06    -4.315078e-06    0.000000e+00
3.477726e-06    -4.516024e-06    0.000000e+00
4.704495e-06    -4.794448e-06    0.000000e+00
5.981850e-06    -5.149721e-06    0.000000e+00
-6.888532e-06    -6.546350e-06    0.000000e+00
-5.431233e-06    -6.201129e-06    0.000000e+00
-4.025279e-06    -5.931566e-06    0.000000e+00
-2.659759e-06    -5.737805e-06    0.000000e+00
-1.322557e-06    -5.620863e-06    0.000000e+00
-3.490305e-19    -5.581747e-06    0.000000e+00
1.322557e-06    -5.620863e-06    0.000000e+00
2.659759e-06    -5.737805e-06    0.000000e+00
4.025279e-06    -5.931566e-06    0.000000e+00
5.431233e-06    -6.201129e-06    0.000000e+00
6.888532e-06    -6.546350e-06    0.000000e+00
-7.769647e-06    -8.122106e-06    0.000000e+00
-6.136586e-06    -7.787174e-06    0.000000e+00
-4.555492e-06    -7.526180e-06    0.000000e+00
-3.014215e-06    -7.339127e-06    0.000000e+00
-1.500168e-06    -7.226514e-06    0.000000e+00
-3.996672e-19    -7.188898e-06    0.000000e+00
1.500168e-06    -7.226514e-06    0.000000e+00
3.014215e-06    -7.339127e-06    0.000000e+00
4.555492e-06    -7.526180e-06    0.000000e+00
6.136586e-06    -7.787174e-06    0.000000e+00
7.769647e-06    -8.122106e-06    0.000000e+00
-8.624306e-06    -9.871798e-06    0.000000e+00
-6.820424e-06    -9.547263e-06    0.000000e+00
-5.068894e-06    -9.294639e-06    0.000000e+00
-3.356961e-06    -9.113898e-06    0.000000e+00
-1.671738e-06    -9.005264e-06    0.000000e+00
-4.525538e-19    -8.969013e-06    0.000000e+00
1.671738e-06    -9.005264e-06    0.000000e+00
3.356961e-06    -9.113898e-06    0.000000e+00
5.068894e-06    -9.294639e-06    0.000000e+00
6.820424e-06    -9.547263e-06    0.000000e+00
8.624306e-06    -9.871798e-06    0.000000e+00
-9.452093e-06    -1.178998e-05    0.000000e+00
-7.482651e-06    -1.147589e-05    0.000000e+00
-5.565770e-06    -1.123152e-05    0.000000e+00
-3.688423e-06    -1.105684e-05    0.000000e+00
-1.837562e-06    -1.095195e-05    0.000000e+00
-5.044081e-19    -1.091697e-05    0.000000e+00
1.837562e-06    -1.095195e-05    0.000000e+00
3.688423e-06    -1.105684e-05    0.000000e+00
5.565770e-06    -1.123152e-05    0.000000e+00
7.482651e-06    -1.147589e-05    0.000000e+00
9.452093e-06    -1.178998e-05    0.000000e+00
-1.025283e-05    -1.387115e-05    0.000000e+00
-8.123212e-06    -1.356752e-05    0.000000e+00
-6.046260e-06    -1.333134e-05    0.000000e+00
-4.008835e-06    -1.316260e-05    0.000000e+00
-1.997807e-06    -1.306131e-05    0.000000e+00
-5.508891e-19    -1.302754e-05    0.000000e+00
1.997807e-06    -1.306131e-05    0.000000e+00
4.008835e-06    -1.316260e-05    0.000000e+00
6.046260e-06    -1.333134e-05    0.000000e+00
8.123212e-06    -1.356752e-05    0.000000e+00
1.025283e-05    -1.387115e-05    0.000000e+00
-1.102644e-05    -1.610983e-05    0.000000e+00
-8.742081e-06    -1.581667e-05    0.000000e+00
-6.510428e-06    -1.558865e-05    0.000000e+00
-4.318309e-06    -1.542577e-05    0.000000e+00
-2.152558e-06    -1.532803e-05    0.000000e+00
-5.990641e-19    -1.529544e-05    0.000000e+00
2.152558e-06    -1.532803e-05    0.000000e+00
4.318309e-06    -1.542577e-05    0.000000e+00
6.510428e-06    -1.558865e-05    0.000000e+00
8.742081e-06    -1.581667e-05    0.000000e+00
1.102644e-05    -1.610983e-05    0.000000e+00
-1.177291e-05    -1.850055e-05    0.000000e+00
-9.339242e-06    -1.821786e-05    0.000000e+00
-6.958299e-06    -1.799799e-05    0.000000e+00
-4.616897e-06    -1.784094e-05    0.000000e+00
-2.301857e-06    -1.774671e-05    0.000000e+00
-6.530095e-19    -1.771530e-05    0.000000e+00
2.301857e-06    -1.774671e-05    0.000000e+00
4.616897e-06    -1.784094e-05    0.000000e+00
6.958299e-06    -1.799799e-05    0.000000e+00
9.339242e-06    -1.821786e-05    0.000000e+00
1.177291e-05    -1.850055e-05    0.000000e+00
-1.249224e-05    -2.103786e-05    0.000000e+00
-9.914691e-06    -2.076564e-05    0.000000e+00
-7.389882e-06    -2.055392e-05    0.000000e+00
-4.904619e-06    -2.040269e-05    0.000000e+00
-2.445719e-06    -2.031196e-05    0.000000e+00
-6.926612e-19    -2.028171e-05    0.000000e+00
2.445719e-06    -2.031196e-05    0.000000e+00
4.904619e-06    -2.040269e-05    0.000000e+00
7.389882e-06    -2.055392e-05    0.000000e+00
9.914691e-06    -2.076564e-05    0.000000e+00
1.249224e-05    -2.103786e-05    0.000000e+00
-1.318441e-05    -2.371633e-05    0.000000e+00
-1.046843e-05    -2.345458e-05    0.000000e+00
-7.805180e-06    -2.325100e-05    0.000000e+00
-5.181483e-06    -2.310559e-05    0.000000e+00
-2.584150e-06    -2.301835e-05    0.000000e+00
-7.287660e-19    -2.298926e-05    0.000000e+00
2.584150e-06    -2.301835e-05    0.000000e+00
5.181483e-06    -2.310559e-05    0.000000e+00
7.805180e-06    -2.325100e-05    0.000000e+00
1.046843e-05    -2.345458e-05    0.000000e+00
1.318441e-05    -2.371633e-05    0.000000e+00
-1.384944e-05    -2.653052e-05    0.000000e+00
-1.100045e-05    -2.627924e-05    0.000000e+00
-8.204192e-06    -2.608381e-05    0.000000e+00
-5.447490e-06    -2.594421e-05    0.000000e+00
-2.717154e-06    -2.586046e-05    0.000000e+00
-7.579886e-19    -2.583254e-05    0.000000e+00
2.717154e-06    -2.586046e-05    0.000000e+00
5.447490e-06    -2.594421e-05    0.000000e+00
8.204192e-06    -2.608381e-05    0.000000e+00
1.100045e-05    -2.627924e-05    0.000000e+00
1.384944e-05    -2.653052e-05    0.000000e+00
-1.448732e-05    -2.947500e-05    0.000000e+00
-1.151075e-05    -2.923419e-05    0.000000e+00
-8.586920e-06    -2.904690e-05    0.000000e+00
-5.702640e-06    -2.891312e-05    0.000000e+00
-2.844729e-06    -2.883285e-05    0.000000e+00
-7.720705e-19    -2.880610e-05    0.000000e+00
2.844729e-06    -2.883285e-05    0.000000e+00
5.702640e-06    -2.891312e-05    0.000000e+00
8.586920e-06    -2.904690e-05    0.000000e+00
1.151075e-05    -2.923419e-05    0.000000e+00
1.448732e-05    -2.947500e-05    0.000000e+00
-1.509806e-05    -3.254434e-05    0.000000e+00
-1.199934e-05    -3.231401e-05    0.000000e+00
-8.953361e-06    -3.213486e-05    0.000000e+00
-5.946934e-06    -3.200689e-05    0.000000e+00
-2.966875e-06    -3.193012e-05    0.000000e+00
-7.980109e-19    -3.190452e-05    0.000000e+00
2.966875e-06    -3.193012e-05    0.000000e+00
5.946934e-06    -3.200689e-05    0.000000e+00
8.953361e-06    -3.213486e-05    0.000000e+00
1.199934e-05    -3.231401e-05    0.000000e+00
1.509806e-05    -3.254434e-05    0.000000e+00
-1.568165e-05    -3.573312e-05    0.000000e+00
-1.246621e-05    -3.551325e-05    0.000000e+00
-9.303516e-06    -3.534225e-05    0.000000e+00
-6.180371e-06    -3.522010e-05    0.000000e+00
-3.083593e-06    -3.514681e-05    0.000000e+00
-8.375038e-19    -3.512238e-05    0.000000e+00
3.083593e-06    -3.514681e-05    0.000000e+00
6.180371e-06    -3.522010e-05    0.000000e+00
9.303516e-06    -3.534225e-05    0.000000e+00
1.246621e-05    -3.551325e-05    0.000000e+00
1.568165e-05    -3.573312e-05    0.000000e+00
-1.623810e-05    -3.903590e-05    0.000000e+00
-1.291137e-05    -3.882650e-05    0.000000e+00
-9.637386e-06    -3.866364e-05    0.000000e+00
-6.402950e-06    -3.854731e-05    0.000000e+00
-3.194883e-06    -3.847751e-05    0.000000e+00
-8.982784e-19    -3.845424e-05    0.000000e+00
3.194883e-06    -3.847751e-05    0.000000e+00
6.402950e-06    -3.854731e-05    0.000000e+00
9.637386e-06    -3.866364e-05    0.000000e+00
1.291137e-05    -3.882650e-05    0.000000e+00
1.623810e-05    -3.903590e-05    0.000000e+00
-1.676740e-05    -4.244725e-05    0.000000e+00
-1.333482e-05    -4.224833e-05    0.000000e+00
-9.954969e-06    -4.209361e-05    0.000000e+00
-6.614672e-06    -4.198309e-05    0.000000e+00
-3.300744e-06    -4.191678e-05    0.000000e+00
-9.723938e-19    -4.189468e-05    0.000000e+00
3.300744e-06    -4.191678e-05    0.000000e+00
6.614672e-06    -4.198309e-05    0.000000e+00
9.954969e-06    -4.209361e-05    0.000000e+00
1.333482e-05    -4.224833e-05    0.000000e+00
1.676740e-05    -4.244725e-05    0.000000e+00
-1.726956e-05    -4.596175e-05    0.000000e+00
-1.373655e-05    -4.577330e-05    0.000000e+00
-1.025627e-05    -4.562672e-05    0.000000e+00
-6.815537e-06    -4.552202e-05    0.000000e+00
-3.401176e-06    -4.545920e-05    0.000000e+00
-1.029357e-18    -4.543826e-05    0.000000e+00
3.401176e-06    -4.545920e-05    0.000000e+00
6.815537e-06    -4.552202e-05    0.000000e+00
1.025627e-05    -4.562672e-05    0.000000e+00
1.373655e-05    -4.577330e-05    0.000000e+00
1.726956e-05    -4.596175e-05    0.000000e+00
-1.774458e-05    -4.957397e-05    0.000000e+00
-1.411656e-05    -4.939599e-05    0.000000e+00
-1.054128e-05    -4.925755e-05    0.000000e+00
-7.005544e-06    -4.915867e-05    0.000000e+00
-3.496180e-06    -4.909934e-05    0.000000e+00
-1.075097e-18    -4.907957e-05    0.000000e+00
3.496180e-06    -4.909934e-05    0.000000e+00
7.005544e-06    -4.915867e-05    0.000000e+00
1.054128e-05    -4.925755e-05    0.000000e+00
1.411656e-05    -4.939599e-05    0.000000e+00
1.774458e-05    -4.957397e-05    0.000000e+00
-1.819245e-05    -5.327848e-05    0.000000e+00
-1.447486e-05    -5.311097e-05    0.000000e+00
-1.081000e-05    -5.298067e-05    0.000000e+00
-7.184694e-06    -5.288761e-05    0.000000e+00
-3.585755e-06    -5.283177e-05    0.000000e+00
-1.123166e-18    -5.281316e-05    0.000000e+00
3.585755e-06    -5.283177e-05    0.000000e+00
7.184694e-06    -5.288761e-05    0.000000e+00
1.081000e-05    -5.298067e-05    0.000000e+00
1.447486e-05    -5.311097e-05    0.000000e+00
1.819245e-05    -5.327848e-05    0.000000e+00
-1.861318e-05    -5.706985e-05    0.000000e+00
-1.481144e-05    -5.691280e-05    0.000000e+00
-1.106244e-05    -5.679066e-05    0.000000e+00
-7.352987e-06    -5.670341e-05    0.000000e+00
-3.669902e-06    -5.665106e-05    0.000000e+00
-1.142224e-18    -5.663361e-05    0.000000e+00
3.669902e-06    -5.665106e-05    0.000000e+00
7.352987e-06    -5.670341e-05    0.000000e+00
1.106244e-05    -5.679066e-05    0.000000e+00
1.481144e-05    -5.691280e-05    0.000000e+00
1.861318e-05    -5.706985e-05    0.000000e+00
-1.900677e-05    -6.094265e-05    0.000000e+00
-1.512631e-05    -6.079607e-05    0.000000e+00
-1.129859e-05    -6.068207e-05    0.000000e+00
-7.510423e-06    -6.060064e-05    0.000000e+00
-3.748620e-06    -6.055178e-05    0.000000e+00
-1.165517e-18    -6.053549e-05    0.000000e+00
3.748620e-06    -6.055178e-05    0.000000e+00
7.510423e-06    -6.060064e-05    0.000000e+00
1.129859e-05    -6.068207e-05    0.000000e+00
1.512631e-05    -6.079607e-05    0.000000e+00
1.900677e-05    -6.094265e-05    0.000000e+00
-1.937321e-05    -6.489145e-05    0.000000e+00
-1.541946e-05    -6.475535e-05    0.000000e+00
-1.151846e-05    -6.464948e-05    0.000000e+00
-7.657002e-06    -6.457387e-05    0.000000e+00
-3.821910e-06    -6.452850e-05    0.000000e+00
-1.184999e-18    -6.451338e-05    0.000000e+00
3.821910e-06    -6.452850e-05    0.000000e+00
7.657002e-06    -6.457387e-05    0.000000e+00
1.151846e-05    -6.464948e-05    0.000000e+00
1.541946e-05    -6.475535e-05    0.000000e+00
1.937321e-05    -6.489145e-05    0.000000e+00
-1.971250e-05    -6.891083e-05    0.000000e+00
-1.569090e-05    -6.878519e-05    0.000000e+00
-1.172204e-05    -6.868747e-05    0.000000e+00
-7.792724e-06    -6.861767e-05    0.000000e+00
-3.889771e-06    -6.857580e-05    0.000000e+00
-1.181187e-18    -6.856184e-05    0.000000e+00
3.889771e-06    -6.857580e-05    0.000000e+00
7.792724e-06    -6.861767e-05    0.000000e+00
1.172204e-05    -6.868747e-05    0.000000e+00
1.569090e-05    -6.878519e-05    0.000000e+00
1.971250e-05    -6.891083e-05    0.000000e+00
-2.002464e-05    -7.299533e-05    0.000000e+00
-1.594063e-05    -7.288017e-05    0.000000e+00
-1.190934e-05    -7.279060e-05    0.000000e+00
-7.917585e-06    -7.272662e-05    0.000000e+00
-3.952199e-06    -7.268825e-05    0.000000e+00
-1.181611e-18    -7.267546e-05    0.000000e+00
3.952199e-06    -7.268825e-05    0.000000e+00
7.917585e-06    -7.272662e-05    0.000000e+00
1.190934e-05    -7.279060e-05    0.000000e+00
1.594063e-05    -7.288017e-05    0.000000e+00
2.002464e-05    -7.299533e-05    0.000000e+00
-2.030964e-05    -7.713954e-05    0.000000e+00
-1.616864e-05    -7.703484e-05    0.000000e+00
-1.208034e-05    -7.695342e-05    0.000000e+00
-8.031573e-06    -7.689529e-05    0.000000e+00
-4.009185e-06    -7.686044e-05    0.000000e+00
-1.225233e-18    -7.684882e-05    0.000000e+00
4.009185e-06    -7.686044e-05    0.000000e+00
8.031573e-06    -7.689529e-05    0.000000e+00
1.208034e-05    -7.695342e-05    0.000000e+00
1.616864e-05    -7.703484e-05    0.000000e+00
2.030964e-05    -7.713954e-05    0.000000e+00
-2.056750e-05    -8.133798e-05    0.000000e+00
-1.637495e-05    -8.124375e-05    0.000000e+00
-1.223504e-05    -8.117051e-05    0.000000e+00
-8.134659e-06    -8.111826e-05    0.000000e+00
-4.060706e-06    -8.108696e-05    0.000000e+00
-1.278596e-18    -8.107654e-05    0.000000e+00
4.060706e-06    -8.108696e-05    0.000000e+00
8.134659e-06    -8.111826e-05    0.000000e+00
1.223504e-05    -8.117051e-05    0.000000e+00
1.637495e-05    -8.124375e-05    0.000000e+00
2.056750e-05    -8.133798e-05    0.000000e+00
-2.079827e-05    -8.558520e-05    0.000000e+00
-1.655958e-05    -8.550143e-05    0.000000e+00
-1.237340e-05    -8.543639e-05    0.000000e+00
-8.226776e-06    -8.539011e-05    0.000000e+00
-4.106711e-06    -8.536246e-05    0.000000e+00
-1.361182e-18    -8.535326e-05    0.000000e+00
4.106711e-06    -8.536246e-05    0.000000e+00
8.226776e-06    -8.539011e-05    0.000000e+00
1.237340e-05    -8.543639e-05    0.000000e+00
1.655958e-05    -8.550143e-05    0.000000e+00
2.079827e-05    -8.558520e-05    0.000000e+00
-2.100204e-05    -8.987572e-05    0.000000e+00
-1.672255e-05    -8.980238e-05    0.000000e+00
-1.249533e-05    -8.974562e-05    0.000000e+00
-8.307781e-06    -8.970546e-05    0.000000e+00
-4.147094e-06    -8.968160e-05    0.000000e+00
-1.438685e-18    -8.967370e-05    0.000000e+00
4.147094e-06    -8.968160e-05    0.000000e+00
8.307781e-06    -8.970546e-05    0.000000e+00
1.249533e-05    -8.974562e-05    0.000000e+00
1.672255e-05    -8.980238e-05    0.000000e+00
2.100204e-05    -8.987572e-05    0.000000e+00
-2.117906e-05    -9.420406e-05    0.000000e+00
-1.686394e-05    -9.414109e-05    0.000000e+00
-1.260066e-05    -9.409275e-05    0.000000e+00
-8.377401e-06    -9.405898e-05    0.000000e+00
-4.181666e-06    -9.403916e-05    0.000000e+00
-1.475108e-18    -9.403264e-05    0.000000e+00
4.181666e-06    -9.403916e-05    0.000000e+00
8.377401e-06    -9.405898e-05    0.000000e+00
1.260066e-05    -9.409275e-05    0.000000e+00
1.686394e-05    -9.414109e-05    0.000000e+00
2.117906e-05    -9.420406e-05    0.000000e+00
-2.132987e-05    -9.856489e-05    0.000000e+00
-1.698382e-05    -9.851214e-05    0.000000e+00
-1.268905e-05    -9.847242e-05    0.000000e+00
-8.435179e-06    -9.844541e-05    0.000000e+00
-4.210127e-06    -9.842992e-05    0.000000e+00
-1.528471e-18    -9.842489e-05    0.000000e+00
4.210127e-06    -9.842992e-05    0.000000e+00
8.435179e-06    -9.844541e-05    0.000000e+00
1.268905e-05    -9.847242e-05    0.000000e+00
1.698382e-05    -9.851214e-05    0.000000e+00
2.132987e-05    -9.856489e-05    0.000000e+00
-2.145556e-05    -1.029533e-04    0.000000e+00
-1.708230e-05    -1.029105e-04    0.000000e+00
-1.275993e-05    -1.028796e-04    0.000000e+00
-8.480491e-06    -1.028596e-04    0.000000e+00
-4.232129e-06    -1.028486e-04    0.000000e+00
-1.584375e-18    -1.028450e-04    0.000000e+00
4.232129e-06    -1.028486e-04    0.000000e+00
8.480491e-06    -1.028596e-04    0.000000e+00
1.275993e-05    -1.028796e-04    0.000000e+00
1.708230e-05    -1.029105e-04    0.000000e+00
2.145556e-05    -1.029533e-04    0.000000e+00
-2.155811e-05    -1.073656e-04    0.000000e+00
-1.715929e-05    -1.073323e-04    0.000000e+00
-1.281254e-05    -1.073102e-04    0.000000e+00
-8.512877e-06    -1.072966e-04    0.000000e+00
-4.247566e-06    -1.072891e-04    0.000000e+00
-1.544141e-18    -1.072866e-04    0.000000e+00
4.247566e-06    -1.072891e-04    0.000000e+00
8.512877e-06    -1.072966e-04    0.000000e+00
1.281254e-05    -1.073102e-04    0.000000e+00
1.715929e-05    -1.073323e-04    0.000000e+00
2.155811e-05    -1.073656e-04    0.000000e+00
-2.164061e-05    -1.118019e-04    0.000000e+00
-1.721424e-05    -1.117769e-04    0.000000e+00
-1.284667e-05    -1.117617e-04    0.000000e+00
-8.533244e-06    -1.117507e-04    0.000000e+00
-4.257268e-06    -1.117432e-04    0.000000e+00
-1.470873e-18    -1.117405e-04    0.000000e+00
4.257268e-06    -1.117432e-04    0.000000e+00
8.533244e-06    -1.117507e-04    0.000000e+00
1.284667e-05    -1.117617e-04    0.000000e+00
1.721424e-05    -1.117769e-04    0.000000e+00
2.164061e-05    -1.118019e-04    0.000000e+00
-2.170506e-05    -1.162700e-04    0.000000e+00
-1.724610e-05    -1.162519e-04    0.000000e+00
-1.286622e-05    -1.162334e-04    0.000000e+00
-8.546180e-06    -1.162128e-04    0.000000e+00
-4.263852e-06    -1.161974e-04    0.000000e+00
-1.457320e-18    -1.161918e-04    0.000000e+00
4.263852e-06    -1.161974e-04    0.000000e+00
8.546180e-06    -1.162128e-04    0.000000e+00
1.286622e-05    -1.162334e-04    0.000000e+00
1.724610e-05    -1.162519e-04    0.000000e+00
2.170506e-05    -1.162700e-04    0.000000e+00
-2.173917e-05    -1.208101e-04    0.000000e+00
-1.726629e-05    -1.207754e-04    0.000000e+00
-1.288604e-05    -1.207169e-04    0.000000e+00
-8.561295e-06    -1.206641e-04    0.000000e+00
-4.272026e-06    -1.206289e-04    0.000000e+00
-1.451814e-18    -1.206166e-04    0.000000e+00
4.272026e-06    -1.206289e-04    0.000000e+00
8.561295e-06    -1.206641e-04    0.000000e+00
1.288604e-05    -1.207169e-04    0.000000e+00
1.726629e-05    -1.207754e-04    0.000000e+00
2.173917e-05    -1.208101e-04    0.000000e+00

CELL_DATA      400
TENSORS Element_Stress4.000000e-01 double
1.820591e+06 2.551801e+05        0
2.551801e+05 4.163472e+05        0
       0        0        0

1.243715e+06 1.308532e+05        0
1.308532e+05 3.566164e+05        0
       0        0        0

8.651152e+05 4.301003e+04        0
4.301003e+04 2.749948e+05        0
       0        0        0

5.100043e+05 -3.578486e+03        0
-3.578486e+03 1.690087e+05        0
       0        0        0

1.688534e+05 -2.488328e+04        0
-2.488328e+04 5.694946e+04        0
       0        0        0

-1.688177e+05 -2.487716e+04        0
-2.487716e+04 -5.695753e+04        0
       0        0        0

-5.095286e+05 -3.579234e+03        0
-3.579234e+03 -1.688441e+05        0
       0        0        0

-8.637043e+05 4.293822e+04        0
4.293822e+04 -2.744661e+05        0
       0        0        0

-1.240729e+06 1.305645e+05        0
1.305645e+05 -3.554726e+05        0
       0        0        0

-1.814367e+06 2.543696e+05        0
2.543696e+05 -4.141954e+05        0
       0        0        0

1.642064e+06 4.159727e+04        0
4.159727e+04 4.234777e+03        0
       0        0        0

1.322349e+06 1.206448e+05        0
1.206448e+05 1.286838e+05        0
       0        0        0

9.082486e+05 9.900703e+04        0
9.900703e+04 1.315186e+05        0
       0        0        0

5.364004e+05 7.580634e+04        0
7.580634e+04 9.193275e+04        0
       0        0        0

1.768165e+05 6.321668e+04        0
6.321668e+04 3.207744e+04        0
       0        0        0

-1.778543e+05 6.319834e+04        0
6.319834e+04 -3.316882e+04        0
       0        0        0

-5.369343e+05 7.574089e+04        0
7.574089e+04 -9.284453e+04        0
       0        0        0

-9.077026e+05 9.886686e+04        0
9.886686e+04 -1.320374e+05        0
       0        0        0

-1.319825e+06 1.204073e+05        0
1.204073e+05 -1.284318e+05        0
       0        0        0

-1.637460e+06 4.151061e+04        0
4.151061e+04 -3.136540e+03        0
       0        0        0

1.584947e+06 1.541629e+04        0
1.541629e+04 6.615291e+03        0
       0        0        0

1.271587e+06 6.833072e+04        0
6.833072e+04 1.757721e+04        0
       0        0        0

9.146379e+05 1.015634e+05        0
1.015634e+05 4.237669e+04        0
       0        0        0

5.430805e+05 1.074759e+05        0
1.074759e+05 3.592331e+04        0
       0        0        0

1.791452e+05 1.074049e+05        0
1.074049e+05 1.272032e+04        0
       0        0        0

-1.824783e+05 1.073769e+05        0
1.073769e+05 -1.611183e+04        0
       0        0        0

-5.458817e+05 1.073928e+05        0
1.073928e+05 -3.912486e+04        0
       0        0        0

-9.163082e+05 1.014342e+05        0
1.014342e+05 -4.515273e+04        0
       0        0        0

-1.271560e+06 6.821586e+04        0
6.821586e+04 -1.966884e+04        0
       0        0        0

-1.582971e+06 1.538438e+04        0
1.538438e+04 -7.911768e+03        0
       0        0        0

1.546123e+06 1.427361e+04        0
1.427361e+04 -3.975727e+03        0
       0        0        0

1.226678e+06 5.548177e+04        0
5.548177e+04 -1.953347e+03        0
       0        0        0

8.865505e+05 9.244975e+04        0
9.244975e+04 2.933162e+03        0
       0        0        0

5.331294e+05 1.146024e+05        0
1.146024e+05 5.877753e+03        0
       0        0        0

1.753734e+05 1.233572e+05        0
1.233572e+05 6.880705e+02        0
       0        0        0

-1.820431e+05 1.233277e+05        0
1.233277e+05 -7.415888e+03        0
       0        0        0

-5.392732e+05 1.145207e+05        0
1.145207e+05 -1.241199e+04        0
       0        0        0

-8.916316e+05 9.234213e+04        0
9.234213e+04 -9.058309e+03        0
       0        0        0

-1.230184e+06 5.539357e+04        0
5.539357e+04 -3.528900e+03        0
       0        0        0

-1.547527e+06 1.424559e+04        0
1.424559e+04 -5.504245e+02        0
       0        0        0

1.509422e+06 1.713053e+04        0
1.713053e+04 -5.567209e+03        0
       0        0        0

1.185335e+06 5.448702e+04        0
5.448702e+04 -8.577600e+03        0
       0        0        0

8.541529e+05 8.905421e+04        0
8.905421e+04 -8.329256e+03        0
       0        0        0

5.137321e+05 1.136402e+05        0
1.136402e+05 -6.745236e+03        0
       0        0        0

1.681050e+05 1.258443e+05        0
1.258443e+05 -5.639002e+03        0
       0        0        0

-1.789896e+05 1.258160e+05        0
1.258160e+05 -5.300776e+03        0
       0        0        0

-5.241217e+05 1.135640e+05        0
1.135640e+05 -4.010247e+03        0
       0        0        0

-8.635510e+05 8.895564e+04        0
8.895564e+04 -2.042779e+03        0
       0        0        0

-1.193240e+06 5.440379e+04        0
5.440379e+04 -1.179514e+03        0
       0        0        0

-1.515267e+06 1.709756e+04        0
1.709756e+04 -3.264792e+03        0
       0        0        0

1.469666e+06 1.958952e+04        0
1.958952e+04 -7.911471e+03        0
       0        0        0

1.147073e+06 5.644528e+04        0
5.644528e+04 -1.054792e+04        0
       0        0        0

8.224121e+05 8.838547e+04        0
8.838547e+04 -1.192767e+04        0
       0        0        0

4.928602e+05 1.117716e+05        0
1.117716e+05 -1.113891e+04        0
       0        0        0

1.594060e+05 1.239608e+05        0
1.239608e+05 -9.157783e+03        0
       0        0        0

-1.752697e+05 1.239341e+05        0
1.239341e+05 -6.757284e+03        0
       0        0        0

-5.082697e+05 1.116997e+05        0
1.116997e+05 -4.610972e+03        0
       0        0        0

-8.369107e+05 8.829123e+04        0
8.829123e+04 -3.479911e+03        0
       0        0        0

-1.160189e+06 5.636160e+04        0
5.636160e+04 -4.312317e+03        0
       0        0        0

-1.480874e+06 1.955274e+04        0
1.955274e+04 -6.139501e+03        0
       0        0        0

1.427064e+06 2.114417e+04        0
2.114417e+04 -1.052956e+04        0
       0        0        0

1.109850e+06 5.834926e+04        0
5.834926e+04 -1.236652e+04        0
       0        0        0

7.924023e+05 8.864081e+04        0
8.864081e+04 -1.362098e+04        0
       0        0        0

4.726260e+05 1.103422e+05        0
1.103422e+05 -1.337041e+04        0
       0        0        0

1.506194e+05 1.216729e+05        0
1.216729e+05 -1.181688e+04        0
       0        0        0

-1.721462e+05 1.216476e+05        0
1.216476e+05 -9.757661e+03        0
       0        0        0

-4.937464e+05 1.102736e+05        0
1.102736e+05 -8.067185e+03        0
       0        0        0

-8.127064e+05 8.854925e+04        0
8.854925e+04 -7.533838e+03        0
       0        0        0

-1.128914e+06 5.826522e+04        0
5.826522e+04 -8.339662e+03        0
       0        0        0

-1.444429e+06 2.110550e+04        0
2.110550e+04 -9.528532e+03        0
       0        0        0

1.382466e+06 2.200169e+04        0
2.200169e+04 -1.363712e+04        0
       0        0        0

1.072887e+06 5.961366e+04        0
5.961366e+04 -1.472172e+04        0
       0        0        0

7.635758e+05 8.900960e+04        0
8.900960e+04 -1.557403e+04        0
       0        0        0

4.533109e+05 1.094852e+05        0
1.094852e+05 -1.552400e+04        0
       0        0        0

1.419517e+05 1.200351e+05        0
1.200351e+05 -1.458773e+04        0
       0        0        0

-1.697596e+05 1.200110e+05        0
1.200110e+05 -1.326469e+04        0
       0        0        0

-4.807649e+05 1.094193e+05        0
1.094193e+05 -1.222631e+04        0
       0        0        0

-7.903183e+05 8.892043e+04        0
8.892043e+04 -1.196583e+04        0
       0        0        0

-1.098550e+06 5.953028e+04        0
5.953028e+04 -1.248625e+04        0
       0        0        0

-1.406661e+06 2.196259e+04        0
2.196259e+04 -1.309836e+04        0
       0        0        0

1.336645e+06 2.243091e+04        0
2.243091e+04 -1.712962e+04        0
       0        0        0

1.035842e+06 6.032477e+04        0
6.032477e+04 -1.770720e+04        0
       0        0        0

7.353665e+05 8.927954e+04        0
8.927954e+04 -1.819343e+04        0
       0        0        0

4.345827e+05 1.090308e+05        0
1.090308e+05 -1.820560e+04        0
       0        0        0

1.333506e+05 1.190745e+05        0
1.190745e+05 -1.770706e+04        0
       0        0        0

-1.679942e+05 1.190513e+05        0
1.190513e+05 -1.697805e+04        0
       0        0        0

-4.689269e+05 1.089672e+05        0
1.089672e+05 -1.641592e+04        0
       0        0        0

-7.691089e+05 8.919282e+04        0
8.919282e+04 -1.629654e+04        0
       0        0        0

-1.068672e+06 6.024293e+04        0
6.024293e+04 -1.657467e+04        0
       0        0        0

-1.368241e+06 2.239224e+04        0
2.239224e+04 -1.685604e+04        0
       0        0        0

1.290104e+06 2.262758e+04        0
2.262758e+04 -2.093353e+04        0
       0        0        0

9.986111e+05 6.068288e+04        0
6.068288e+04 -2.119224e+04        0
       0        0        0

7.073816e+05 8.943800e+04        0
8.943800e+04 -2.142391e+04        0
       0        0        0

4.161140e+05 1.088116e+05        0
1.088116e+05 -2.143263e+04        0
       0        0        0

1.247133e+05 1.185753e+05        0
1.185753e+05 -2.118578e+04        0
       0        0        0

-1.666828e+05 1.185529e+05        0
1.185529e+05 -2.082258e+04        0
       0        0        0

-4.578392e+05 1.087501e+05        0
1.087501e+05 -2.055203e+04        0
       0        0        0

-7.486154e+05 8.935386e+04        0
8.935386e+04 -2.051013e+04        0
       0        0        0

-1.039101e+06 6.060314e+04        0
6.060314e+04 -2.065810e+04        0
       0        0        0

-1.329587e+06 2.258979e+04        0
2.258979e+04 -2.079191e+04        0
       0        0        0

1.243134e+06 2.270931e+04        0
2.270931e+04 -2.498191e+04        0
       0        0        0

9.611797e+05 6.084675e+04        0
6.084675e+04 -2.504168e+04        0
       0        0        0

6.794097e+05 8.951961e+04        0
8.951961e+04 -2.510657e+04        0
       0        0        0

3.976929e+05 1.087145e+05        0
1.087145e+05 -2.508686e+04        0
       0        0        0

1.159748e+05 1.183396e+05        0
1.183396e+05 -2.496195e+04        0
       0        0        0

-1.656960e+05 1.183181e+05        0
1.183181e+05 -2.479558e+04        0
       0        0        0

-4.472241e+05 1.086551e+05        0
1.086551e+05 -2.468681e+04        0
       0        0        0

-7.285583e+05 8.943813e+04        0
8.943813e+04 -2.469676e+04        0
       0        0        0

-1.009748e+06 6.076939e+04        0
6.076939e+04 -2.479981e+04        0
       0        0        0

-1.290917e+06 2.267262e+04        0
2.267262e+04 -2.489942e+04        0
       0        0        0

1.195898e+06 2.273907e+04        0
2.273907e+04 -2.922302e+04        0
       0        0        0

9.235678e+05 6.091427e+04        0
6.091427e+04 -2.915025e+04        0
       0        0        0

6.513569e+05 8.955721e+04        0
8.955721e+04 -2.910365e+04        0
       0        0        0

3.792136e+05 1.086754e+05        0
1.086754e+05 -2.904696e+04        0
       0        0        0

1.071090e+05 1.182383e+05        0
1.182383e+05 -2.896977e+04        0
       0        0        0

-1.649437e+05 1.182174e+05        0
1.182174e+05 -2.889879e+04        0
       0        0        0

-4.369110e+05 1.086180e+05        0
1.086180e+05 -2.887675e+04        0
       0        0        0

-7.087775e+05 8.947845e+04        0
8.947845e+04 -2.892802e+04        0
       0        0        0

-9.805675e+05 6.083944e+04        0
6.083944e+04 -2.903762e+04        0
       0        0        0

-1.252326e+06 2.270357e+04        0
2.270357e+04 -2.916280e+04        0
       0        0        0

1.148488e+06 2.274751e+04        0
2.274751e+04 -3.361502e+04        0
       0        0        0

8.858059e+05 6.093820e+04        0
6.093820e+04 -3.344389e+04        0
       0        0        0

6.231955e+05 8.957239e+04        0
8.957239e+04 -3.331650e+04        0
       0        0        0

3.606373e+05 1.086612e+05        0
1.086612e+05 -3.322120e+04        0
       0        0        0

9.811716e+04 1.181991e+05        0
1.181991e+05 -3.315391e+04        0
       0        0        0

-1.643644e+05 1.181790e+05        0
1.181790e+05 -3.312489e+04        0
       0        0        0

-4.267984e+05 1.086058e+05        0
1.086058e+05 -3.315057e+04        0
       0        0        0

-6.891820e+05 8.949637e+04        0
8.949637e+04 -3.323898e+04        0
       0        0        0

-9.515251e+05 6.086596e+04        0
6.086596e+04 -3.338158e+04        0
       0        0        0

-1.213840e+06 2.271325e+04        0
2.271325e+04 -3.356024e+04        0
       0        0        0

1.100957e+06 2.274830e+04        0
2.274830e+04 -3.812250e+04        0
       0        0        0

8.479263e+05 6.094429e+04        0
6.094429e+04 -3.786991e+04        0
       0        0        0

5.949304e+05 8.957717e+04        0
8.957717e+04 -3.767775e+04        0
       0        0        0

3.419626e+05 1.086567e+05        0
1.086567e+05 -3.754466e+04        0
       0        0        0

8.901545e+04 1.181861e+05        0
1.181861e+05 -3.747000e+04        0
       0        0        0

-1.639136e+05 1.181668e+05        0
1.181668e+05 -3.745741e+04        0
       0        0        0

-4.168238e+05 1.086034e+05        0
1.086034e+05 -3.751220e+04        0
       0        0        0

-6.697157e+05 8.950391e+04        0
8.950391e+04 -3.763581e+04        0
       0        0        0

-9.225921e+05 6.087467e+04        0
6.087467e+04 -3.782316e+04        0
       0        0        0

-1.175453e+06 2.271528e+04        0
2.271528e+04 -3.806630e+04        0
       0        0        0

1.053344e+06 2.274692e+04        0
2.274692e+04 -4.271389e+04        0
       0        0        0

8.099602e+05 6.094399e+04        0
6.094399e+04 -4.238834e+04        0
       0        0        0

5.665815e+05 8.957758e+04        0
8.957758e+04 -4.213969e+04        0
       0        0        0

3.232052e+05 1.086554e+05        0
1.086554e+05 -4.197037e+04        0
       0        0        0

7.982712e+04 1.181829e+05        0
1.181829e+05 -4.188140e+04        0
       0        0        0

-1.635556e+05 1.181643e+05        0
1.181643e+05 -4.187417e+04        0
       0        0        0

-4.069442e+05 1.086040e+05        0
1.086040e+05 -4.194977e+04        0
       0        0        0

-6.503394e+05 8.950708e+04        0
8.950708e+04 -4.210736e+04        0
       0        0        0

-8.937409e+05 6.087700e+04        0
6.087700e+04 -4.234351e+04        0
       0        0        0

-1.137145e+06 2.271515e+04        0
2.271515e+04 -4.265398e+04        0
       0        0        0

1.005680e+06 2.274528e+04        0
2.274528e+04 -4.736003e+04        0
       0        0        0

7.719372e+05 6.094189e+04        0
6.094189e+04 -4.696632e+04        0
       0        0        0

5.381741e+05 8.957637e+04        0
8.957637e+04 -4.666574e+04        0
       0        0        0

3.043887e+05 1.086548e+05        0
1.086548e+05 -4.646184e+04        0
       0        0        0

7.057814e+04 1.181826e+05        0
1.181826e+05 -4.635643e+04        0
       0        0        0

-1.632598e+05 1.181647e+05        0
1.181647e+05 -4.635025e+04        0
       0        0        0

-3.971264e+05 1.086054e+05        0
1.086054e+05 -4.644314e+04        0
       0        0        0

-6.310219e+05 8.950863e+04        0
8.950863e+04 -4.663360e+04        0
       0        0        0

-8.649444e+05 6.087753e+04        0
6.087753e+04 -4.691896e+04        0
       0        0        0

-1.098889e+06 2.271476e+04        0
2.271476e+04 -4.729603e+04        0
       0        0        0

9.579928e+05 2.274389e+04        0
2.274389e+04 -5.203343e+04        0
       0        0        0

7.338853e+05 6.093959e+04        0
6.093959e+04 -5.157487e+04        0
       0        0        0

5.097347e+05 8.957465e+04        0
8.957465e+04 -5.122529e+04        0
       0        0        0

2.855387e+05 1.086541e+05        0
1.086541e+05 -5.098843e+04        0
       0        0        0

6.129498e+04 1.181829e+05        0
1.181829e+05 -5.086639e+04        0
       0        0        0

-1.629982e+05 1.181657e+05        0
1.181657e+05 -5.085989e+04        0
       0        0        0

-3.873418e+05 1.086067e+05        0
1.086067e+05 -5.096851e+04        0
       0        0        0

-6.117353e+05 8.950968e+04        0
8.950968e+04 -5.119072e+04        0
       0        0        0

-8.361764e+05 6.087786e+04        0
6.087786e+04 -5.152412e+04        0
       0        0        0

-1.060661e+06 2.271462e+04        0
2.271462e+04 -5.196568e+04        0
       0        0        0

9.103078e+05 2.274279e+04        0
2.274279e+04 -5.670788e+04        0
       0        0        0

6.958309e+05 6.093751e+04        0
6.093751e+04 -5.618728e+04        0
       0        0        0

4.812896e+05 8.957285e+04        0
8.957285e+04 -5.579101e+04        0
       0        0        0

2.666812e+05 1.086532e+05        0
1.086532e+05 -5.552272e+04        0
       0        0        0

5.200362e+04 1.181829e+05        0
1.181829e+05 -5.538461e+04        0
       0        0        0

-1.627446e+05 1.181665e+05        0
1.181665e+05 -5.537751e+04        0
       0        0        0

-3.775640e+05 1.086078e+05        0
1.086078e+05 -5.550105e+04        0
       0        0        0

-5.924536e+05 8.951065e+04        0
8.951065e+04 -5.575383e+04        0
       0        0        0

-8.074111e+05 6.087841e+04        0
6.087841e+04 -5.613350e+04        0
       0        0        0

-1.022432e+06 2.271476e+04        0
2.271476e+04 -5.663695e+04        0
       0        0        0

8.626498e+05 2.274188e+04        0
2.274188e+04 -6.135834e+04        0
       0        0        0

6.577992e+05 6.093568e+04        0
6.093568e+04 -6.077838e+04        0
       0        0        0

4.528640e+05 8.957109e+04        0
8.957109e+04 -6.033752e+04        0
       0        0        0

2.478414e+05 1.086521e+05        0
1.086521e+05 -6.003928e+04        0
       0        0        0

4.272911e+04 1.181827e+05        0
1.181827e+05 -5.988587e+04        0
       0        0        0

-1.624740e+05 1.181670e+05        0
1.181670e+05 -5.987825e+04        0
       0        0        0

-3.677680e+05 1.086088e+05        0
1.086088e+05 -6.001614e+04        0
       0        0        0

-5.731520e+05 8.951165e+04        0
8.951165e+04 -6.029825e+04        0
       0        0        0

-7.786236e+05 6.087920e+04        0
6.087920e+04 -6.072224e+04        0
       0        0        0

-9.841789e+05 2.271509e+04        0
2.271509e+04 -6.128487e+04        0
       0        0        0

8.150427e+05 2.274109e+04        0
2.274109e+04 -6.596089e+04        0
       0        0        0

6.198142e+05 6.093401e+04        0
6.093401e+04 -6.532426e+04        0
       0        0        0

4.244821e+05 8.956938e+04        0
8.956938e+04 -6.484086e+04        0
       0        0        0

2.290433e+05 1.086509e+05        0
1.086509e+05 -6.451410e+04        0
       0        0        0

3.349546e+04 1.181823e+05        0
1.181823e+05 -6.434621e+04        0
       0        0        0

-1.621624e+05 1.181673e+05        0
1.181673e+05 -6.433820e+04        0
       0        0        0

-3.579302e+05 1.086096e+05        0
1.086096e+05 -6.448991e+04        0
       0        0        0

-5.538069e+05 8.951270e+04        0
8.951270e+04 -6.480008e+04        0
       0        0        0

-7.497902e+05 6.088016e+04        0
6.088016e+04 -6.526640e+04        0
       0        0        0

-9.458762e+05 2.271555e+04        0
2.271555e+04 -6.588550e+04        0
       0        0        0

7.675092e+05 2.274036e+04        0
2.274036e+04 -7.049269e+04        0
       0        0        0

5.818990e+05 6.093246e+04        0
6.093246e+04 -6.980210e+04        0
       0        0        0

3.961670e+05 8.956772e+04        0
8.956772e+04 -6.927821e+04        0
       0        0        0

2.103099e+05 1.086496e+05        0
1.086496e+05 -6.892437e+04        0
       0        0        0

2.432558e+04 1.181817e+05        0
1.181817e+05 -6.874279e+04        0
       0        0        0

-1.617870e+05 1.181674e+05        0
1.181674e+05 -6.873451e+04        0
       0        0        0

-3.480278e+05 1.086103e+05        0
1.086103e+05 -6.889946e+04        0
       0        0        0

-5.343956e+05 8.951381e+04        0
8.951381e+04 -6.923643e+04        0
       0        0        0

-7.208879e+05 6.088123e+04        0
6.088123e+04 -6.974309e+04        0
       0        0        0

-9.075014e+05 2.271607e+04        0
2.271607e+04 -7.041600e+04        0
       0        0        0

7.200708e+05 2.273968e+04        0
2.273968e+04 -7.493197e+04        0
       0        0        0

5.440751e+05 6.093099e+04        0
6.093099e+04 -7.419019e+04        0
       0        0        0

3.679404e+05 8.956610e+04        0
8.956610e+04 -7.362789e+04        0
       0        0        0

1.916631e+05 1.086483e+05        0
1.086483e+05 -7.324838e+04        0
       0        0        0

1.524125e+04 1.181810e+05        0
1.181810e+05 -7.305385e+04        0
       0        0        0

-1.613262e+05 1.181674e+05        0
1.181674e+05 -7.304540e+04        0
       0        0        0

-3.380392e+05 1.086110e+05        0
1.086110e+05 -7.322300e+04        0
       0        0        0

-5.148963e+05 8.951495e+04        0
8.951495e+04 -7.358548e+04        0
       0        0        0

-6.918952e+05 6.088239e+04        0
6.088239e+04 -7.413051e+04        0
       0        0        0

-8.690325e+05 2.271664e+04        0
2.271664e+04 -7.485460e+04        0
       0        0        0

6.727483e+05 2.273905e+04        0
2.273905e+04 -7.925809e+04        0
       0        0        0

5.063634e+05 6.092961e+04        0
6.092961e+04 -7.846788e+04        0
       0        0        0

3.398230e+05 8.956452e+04        0
8.956452e+04 -7.786928e+04        0
       0        0        0

1.731237e+05 1.086469e+05        0
1.086469e+05 -7.746551e+04        0
       0        0        0

6.263199e+03 1.181802e+05        0
1.181802e+05 -7.725876e+04        0
       0        0        0

-1.607593e+05 1.181674e+05        0
1.181674e+05 -7.725016e+04        0
       0        0        0

-3.279437e+05 1.086117e+05        0
1.086117e+05 -7.743978e+04        0
       0        0        0

-4.952884e+05 8.951614e+04        0
8.951614e+04 -7.782649e+04        0
       0        0        0

-6.627913e+05 6.088364e+04        0
6.088364e+04 -7.840796e+04        0
       0        0        0

-8.304489e+05 2.271725e+04        0
2.271725e+04 -7.918062e+04        0
       0        0        0

6.255612e+05 2.273850e+04        0
2.273850e+04 -8.345145e+04        0
       0        0        0

4.687834e+05 6.092836e+04        0
6.092836e+04 -8.261564e+04        0
       0        0        0

3.118347e+05 8.956299e+04        0
8.956299e+04 -8.198286e+04        0
       0        0        0

1.547113e+05 1.086455e+05        0
1.086455e+05 -8.155622e+04        0
       0        0        0

-2.588970e+03 1.181792e+05        0
1.181792e+05 -8.133794e+04        0
       0        0        0

-1.600668e+05 1.181671e+05        0
1.181671e+05 -8.132921e+04        0
       0        0        0

-3.177218e+05 1.086123e+05        0
1.086123e+05 -8.153019e+04        0
       0        0        0

-4.755526e+05 8.951737e+04        0
8.951737e+04 -8.193983e+04        0
       0        0        0

-6.335566e+05 6.088501e+04        0
6.088501e+04 -8.255581e+04        0
       0        0        0

-7.917309e+05 2.271795e+04        0
2.271795e+04 -8.337446e+04        0
       0        0        0

5.785277e+05 2.273809e+04        0
2.273809e+04 -8.749359e+04        0
       0        0        0

4.313537e+05 6.092728e+04        0
6.092728e+04 -8.661500e+04        0
       0        0        0

2.839939e+05 8.956151e+04        0
8.956151e+04 -8.595013e+04        0
       0        0        0

1.364445e+05 1.086440e+05        0
1.086440e+05 -8.550202e+04        0
       0        0        0

-1.129671e+04 1.181780e+05        0
1.181780e+05 -8.527289e+04        0
       0        0        0

-1.592302e+05 1.181667e+05        0
1.181667e+05 -8.526406e+04        0
       0        0        0

-3.073553e+05 1.086128e+05        0
1.086128e+05 -8.547573e+04        0
       0        0        0

-4.556703e+05 8.951866e+04        0
8.951866e+04 -8.590698e+04        0
       0        0        0

-6.041728e+05 6.088657e+04        0
6.088657e+04 -8.655552e+04        0
       0        0        0

-7.528599e+05 2.271878e+04        0
2.271878e+04 -8.741761e+04        0
       0        0        0

5.316651e+05 2.273787e+04        0
2.273787e+04 -9.136707e+04        0
       0        0        0

3.940917e+05 6.092641e+04        0
6.092641e+04 -9.044848e+04        0
       0        0        0

2.563183e+05 8.956002e+04        0
8.956002e+04 -8.975355e+04        0
       0        0        0

1.183408e+05 1.086423e+05        0
1.086423e+05 -8.928531e+04        0
       0        0        0

-1.984260e+04 1.181767e+05        0
1.181767e+05 -8.904614e+04        0
       0        0        0

-1.582322e+05 1.181661e+05        0
1.181661e+05 -8.903738e+04        0
       0        0        0

-2.968268e+05 1.086131e+05        0
1.086131e+05 -8.925920e+04        0
       0        0        0

-4.356244e+05 8.951993e+04        0
8.951993e+04 -8.971068e+04        0
       0        0        0

-5.746224e+05 6.088832e+04        0
6.088832e+04 -9.038973e+04        0
       0        0        0

-7.138181e+05 2.271981e+04        0
2.271981e+04 -9.129265e+04        0
       0        0        0

4.849895e+05 2.273788e+04        0
2.273788e+04 -9.505552e+04        0
       0        0        0

3.570140e+05 6.092556e+04        0
6.092556e+04 -9.409948e+04        0
       0        0        0

2.288244e+05 8.955831e+04        0
8.955831e+04 -9.337617e+04        0
       0        0        0

1.004166e+05 1.086405e+05        0
1.086405e+05 -9.288910e+04        0
       0        0        0

-2.821037e+04 1.181755e+05        0
1.181755e+05 -9.264108e+04        0
       0        0        0

-1.570563e+05 1.181656e+05        0
1.181656e+05 -9.263318e+04        0
       0        0        0

-2.861199e+05 1.086133e+05        0
1.086133e+05 -9.286494e+04        0
       0        0        0

-4.153987e+05 8.952099e+04        0
8.952099e+04 -9.333522e+04        0
       0        0        0

-5.448893e+05 6.089010e+04        0
6.089010e+04 -9.404238e+04        0
       0        0        0

-6.745890e+05 2.272106e+04        0
2.272106e+04 -9.498325e+04        0
       0        0        0

4.385162e+05 2.273791e+04        0
2.273791e+04 -9.854347e+04        0
       0        0        0

3.201363e+05 6.092393e+04        0
6.092393e+04 -9.755176e+04        0
       0        0        0

2.015271e+05 8.955575e+04        0
8.955575e+04 -9.680089e+04        0
       0        0        0

8.268633e+04 1.086390e+05        0
1.086390e+05 -9.629628e+04        0
       0        0        0

-3.638519e+04 1.181757e+05        0
1.181757e+05 -9.604170e+04        0
       0        0        0

-1.556871e+05 1.181665e+05        0
1.181665e+05 -9.603706e+04        0
       0        0        0

-2.752188e+05 1.086138e+05        0
1.086138e+05 -9.627968e+04        0
       0        0        0

-3.949777e+05 8.952119e+04        0
8.952119e+04 -9.676726e+04        0
       0        0        0

-5.149587e+05 6.089109e+04        0
6.089109e+04 -9.749917e+04        0
       0        0        0

-6.351574e+05 2.272234e+04        0
2.272234e+04 -9.847429e+04        0
       0        0        0

3.922606e+05 2.273698e+04        0
2.273698e+04 -1.018161e+05        0
       0        0        0

2.834737e+05 6.091899e+04        0
6.091899e+04 -1.007886e+05        0
       0        0        0

1.744391e+05 8.955075e+04        0
8.955075e+04 -1.000088e+05        0
       0        0        0

6.516147e+04 1.086390e+05        0
1.086390e+05 -9.948798e+04        0
       0        0        0

-4.435425e+04 1.181810e+05        0
1.181810e+05 -9.923191e+04        0
       0        0        0

-1.541091e+05 1.181726e+05        0
1.181726e+05 -9.923692e+04        0
       0        0        0

-2.641067e+05 1.086159e+05        0
1.086159e+05 -9.949408e+04        0
       0        0        0

-3.743459e+05 8.951896e+04        0
8.951896e+04 -9.999744e+04        0
       0        0        0

-4.848173e+05 6.088878e+04        0
6.088878e+04 -1.007485e+05        0
       0        0        0

-5.955100e+05 2.272265e+04        0
2.272265e+04 -1.017520e+05        0
       0        0        0

3.462407e+05 2.273206e+04        0
2.273206e+04 -1.048589e+05        0
       0        0        0

2.470403e+05 6.090417e+04        0
6.090417e+04 -1.037906e+05        0
       0        0        0

1.475681e+05 8.953972e+04        0
8.953972e+04 -1.029761e+05        0
       0        0        0

4.784746e+04 1.086443e+05        0
1.086443e+05 -1.024407e+05        0
       0        0        0

-5.210801e+04 1.182011e+05        0
1.182011e+05 -1.021944e+05        0
       0        0        0

-1.523059e+05 1.181934e+05        0
1.181934e+05 -1.022241e+05        0
       0        0        0

-2.527632e+05 1.086232e+05        0
1.086232e+05 -1.025057e+05        0
       0        0        0

-3.534850e+05 8.951069e+04        0
8.951069e+04 -1.030237e+05        0
       0        0        0

-4.544531e+05 6.087659e+04        0
6.087659e+04 -1.037835e+05        0
       0        0        0

-5.556383e+05 2.271898e+04        0
2.271898e+04 -1.048044e+05        0
       0        0        0

3.004823e+05 2.271533e+04        0
2.271533e+04 -1.076567e+05        0
       0        0        0

2.108494e+05 6.086420e+04        0
6.086420e+04 -1.065326e+05        0
       0        0        0

1.209114e+05 8.951522e+04        0
8.951522e+04 -1.056684e+05        0
       0        0        0

3.073738e+04 1.086638e+05        0
1.086638e+05 -1.051212e+05        0
       0        0        0

-5.964295e+04 1.182575e+05        0
1.182575e+05 -1.049084e+05        0
       0        0        0

-1.502572e+05 1.182505e+05        0
1.182505e+05 -1.049955e+05        0
       0        0        0

-2.411577e+05 1.086447e+05        0
1.086447e+05 -1.053243e+05        0
       0        0        0

-3.323690e+05 8.948896e+04        0
8.948896e+04 -1.058570e+05        0
       0        0        0

-4.238559e+05 6.083926e+04        0
6.083926e+04 -1.066058e+05        0
       0        0        0

-5.155436e+05 2.270351e+04        0
2.270351e+04 -1.076221e+05        0
       0        0        0

2.550304e+05 2.266855e+04        0
2.266855e+04 -1.101921e+05        0
       0        0        0

1.749115e+05 6.076674e+04        0
6.076674e+04 -1.089779e+05        0
       0        0        0

9.444433e+04 8.946341e+04        0
8.946341e+04 -1.080325e+05        0
       0        0        0

1.379979e+04 1.087174e+05        0
1.087174e+05 -1.074797e+05        0
       0        0        0

-6.696637e+04 1.183947e+05        0
1.183947e+05 -1.073474e+05        0
       0        0        0

-1.479338e+05 1.183884e+05        0
1.183884e+05 -1.075558e+05        0
       0        0        0

-2.292377e+05 1.087003e+05        0
1.087003e+05 -1.079783e+05        0
       0        0        0

-3.109526e+05 8.943992e+04        0
8.943992e+04 -1.085300e+05        0
       0        0        0

-3.930153e+05 6.074445e+04        0
6.074445e+04 -1.092316e+05        0
       0        0        0

-4.752486e+05 2.265799e+04        0
2.265799e+04 -1.102003e+05        0
       0        0        0

2.099710e+05 2.255307e+04        0
2.255307e+04 -1.124445e+05        0
       0        0        0

1.392280e+05 6.054953e+04        0
6.054953e+04 -1.110713e+05        0
       0        0        0

6.809828e+04 8.936182e+04        0
8.936182e+04 -1.099889e+05        0
       0        0        0

-3.041657e+03 1.088453e+05        0
1.088453e+05 -1.094449e+05        0
       0        0        0

-7.410412e+04 1.186959e+05        0
1.186959e+05 -1.094768e+05        0
       0        0        0

-1.452890e+05 1.186904e+05        0
1.186904e+05 -1.099186e+05        0
       0        0        0

-2.169077e+05 1.088301e+05        0
1.088301e+05 -1.105200e+05        0
       0        0        0

-2.891508e+05 8.934110e+04        0
8.934110e+04 -1.111058e+05        0
       0        0        0

-3.619172e+05 6.052992e+04        0
6.052992e+04 -1.117002e+05        0
       0        0        0

-4.348211e+05 2.254379e+04        0
2.254379e+04 -1.125414e+05        0
       0        0        0

1.654680e+05 2.229384e+04        0
2.229384e+04 -1.143887e+05        0
       0        0        0

1.037761e+05 6.010622e+04        0
6.010622e+04 -1.127371e+05        0
       0        0        0

4.172486e+04 8.918267e+04        0
8.918267e+04 -1.114362e+05        0
       0        0        0

-1.993616e+04 1.091209e+05        0
1.091209e+05 -1.109344e+05        0
       0        0        0

-8.110963e+04 1.192967e+05        0
1.192967e+05 -1.112597e+05        0
       0        0        0

-1.422477e+05 1.192919e+05        0
1.192919e+05 -1.120994e+05        0
       0        0        0

-2.040011e+05 1.091078e+05        0
1.091078e+05 -1.130143e+05        0
       0        0        0

-2.668038e+05 8.916475e+04        0
8.916475e+04 -1.136742e+05        0
       0        0        0

-3.305314e+05 6.008932e+04        0
6.008932e+04 -1.140799e+05        0
       0        0        0

-3.944143e+05 2.228588e+04        0
2.228588e+04 -1.146600e+05        0
       0        0        0

1.218149e+05 2.175983e+04        0
2.175983e+04 -1.159994e+05        0
       0        0        0

6.847044e+04 5.928765e+04        0
5.928765e+04 -1.139008e+05        0
       0        0        0

1.504833e+04 8.891639e+04        0
8.891639e+04 -1.123076e+05        0
       0        0        0

-3.712596e+04 1.096609e+05        0
1.096609e+05 -1.119230e+05        0
       0        0        0

-8.806508e+04 1.203704e+05        0
1.203704e+05 -1.126843e+05        0
       0        0        0

-1.387012e+05 1.203664e+05        0
1.203664e+05 -1.140832e+05        0
       0        0        0

-1.902575e+05 1.096498e+05        0
1.096498e+05 -1.154685e+05        0
       0        0        0

-2.436316e+05 8.890129e+04        0
8.890129e+04 -1.162978e+05        0
       0        0        0

-2.987801e+05 5.927351e+04        0
5.927351e+04 -1.164530e+05        0
       0        0        0

-3.543289e+05 2.175322e+04        0
2.175322e+04 -1.165887e+05        0
       0        0        0

7.947574e+04 2.075675e+04        0
2.075675e+04 -1.172814e+05        0
       0        0        0

3.307924e+04 5.797439e+04        0
5.797439e+04 -1.145891e+05        0
       0        0        0

-1.236333e+04 8.865047e+04        0
8.865047e+04 -1.127878e+05        0
       0        0        0

-5.489999e+04 1.106011e+05        0
1.106011e+05 -1.126569e+05        0
       0        0        0

-9.504878e+04 1.220072e+05        0
1.220072e+05 -1.138544e+05        0
       0        0        0

-1.345310e+05 1.220039e+05        0
1.220039e+05 -1.157260e+05        0
       0        0        0

-1.753632e+05 1.105921e+05        0
1.105921e+05 -1.176111e+05        0
       0        0        0

-2.192059e+05 8.863827e+04        0
8.863827e+04 -1.187955e+05        0
       0        0        0

-2.664675e+05 5.796304e+04        0
5.796304e+04 -1.188286e+05        0
       0        0        0

-3.150774e+05 2.075153e+04        0
2.075153e+04 -1.183711e+05        0
       0        0        0

3.901668e+04 1.910248e+04        0
1.910248e+04 -1.183303e+05        0
       0        0        0

-2.945165e+03 5.638058e+04        0
5.638058e+04 -1.153378e+05        0
       0        0        0

-4.097097e+04 8.874184e+04        0
8.874184e+04 -1.139156e+05        0
       0        0        0

-7.334249e+04 1.119427e+05        0
1.119427e+05 -1.141986e+05        0
       0        0        0

-1.020037e+05 1.238168e+05        0
1.238168e+05 -1.151839e+05        0
       0        0        0

-1.297250e+05 1.238145e+05        0
1.238145e+05 -1.165451e+05        0
       0        0        0

-1.591888e+05 1.119361e+05        0
1.119361e+05 -1.183352e+05        0
       0        0        0

-1.930725e+05 8.873276e+04        0
8.873276e+04 -1.201355e+05        0
       0        0        0

-2.331270e+05 5.637203e+04        0
5.637203e+04 -1.207518e+05        0
       0        0        0

-2.773656e+05 1.909863e+04        0
1.909863e+04 -1.200514e+05        0
       0        0        0

5.238772e+02 1.710270e+04        0
1.710270e+04 -1.199676e+05        0
       0        0        0

-4.055833e+04 5.592260e+04        0
5.592260e+04 -1.183215e+05        0
       0        0        0

-7.064156e+04 9.001300e+04        0
9.001300e+04 -1.192601e+05        0
       0        0        0

-9.160156e+04 1.128997e+05        0
1.128997e+05 -1.193444e+05        0
       0        0        0

-1.084786e+05 1.240403e+05        0
1.240403e+05 -1.176202e+05        0
       0        0        0

-1.246142e+05 1.240391e+05        0
1.240391e+05 -1.154727e+05        0
       0        0        0

-1.424946e+05 1.128963e+05        0
1.128963e+05 -1.147527e+05        0
       0        0        0

-1.653490e+05 9.000762e+04        0
9.000762e+04 -1.167334e+05        0
       0        0        0

-1.979376e+05 5.591687e+04        0
5.591687e+04 -1.201826e+05        0
       0        0        0

-2.416124e+05 1.710008e+04        0
1.710008e+04 -1.211403e+05        0
       0        0        0

-3.838684e+04 1.780088e+04        0
1.780088e+04 -1.241539e+05        0
       0        0        0

-8.056360e+04 6.133459e+04        0
6.133459e+04 -1.329172e+05        0
       0        0        0

-9.823307e+04 9.241435e+04        0
9.241435e+04 -1.376485e+05        0
       0        0        0

-1.069292e+05 1.101518e+05        0
1.101518e+05 -1.330240e+05        0
       0        0        0

-1.134896e+05 1.182690e+05        0
1.182690e+05 -1.226650e+05        0
       0        0        0

-1.199849e+05 1.182694e+05        0
1.182694e+05 -1.108095e+05        0
       0        0        0

-1.278473e+05 1.101525e+05        0
1.101525e+05 -1.017524e+05        0
       0        0        0

-1.390680e+05 9.241415e+04        0
9.241415e+04 -9.965258e+04        0
       0        0        0

-1.602162e+05 6.133239e+04        0
6.133239e+04 -1.078646e+05        0
       0        0        0

-2.060732e+05 1.779908e+04        0
1.779908e+04 -1.203157e+05        0
       0        0        0

-9.041154e+04 4.054631e+04        0
4.054631e+04 -1.562826e+05        0
       0        0        0

-1.138413e+05 7.593485e+04        0
7.593485e+04 -1.858531e+05        0
       0        0        0

-1.150711e+05 8.920335e+04        0
8.920335e+04 -1.817331e+05        0
       0        0        0

-1.153867e+05 9.571252e+04        0
9.571252e+04 -1.608390e+05        0
       0        0        0

-1.157482e+05 9.856237e+04        0
9.856237e+04 -1.317908e+05        0
       0        0        0

-1.168359e+05 9.856426e+04        0
9.856426e+04 -1.007930e+05        0
       0        0        0

-1.188652e+05 9.571769e+04        0
9.571769e+04 -7.341032e+04        0
       0        0        0

-1.225601e+05 8.921015e+04        0
8.921015e+04 -5.589260e+04        0
       0        0        0

-1.289057e+05 7.594047e+04        0
7.594047e+04 -5.688794e+04        0
       0        0        0

-1.586515e+05 4.054609e+04        0
4.054609e+04 -9.278066e+04        0
       0        0        0

POINT_DATA     451
VECTORS DISPLACEMENT_4.200000e-01 double
0.000000e+00    0.000000e+00    0.000000e+00
0.000000e+00    0.000000e+00    0.000000e+00
0.000000e+00    0.000000e+00    0.000000e+00
0.000000e+00    0.000000e+00    0.000000e+00
0.000000e+00    0.000000e+00    0.000000e+00
0.000000e+00    0.000000e+00    0.000000e+00
0.000000e+00    0.000000e+00    0.000000e+00
0.000000e+00    0.000000e+00    0.000000e+00
0.000000e+00    0.000000e+00    0.000000e+00
0.000000e+00    0.000000e+00    0.000000e+00
0.000000e+00    0.000000e+00    0.000000e+00
-1.141596e-06    -8.299607e-07    0.000000e+00
-7.233450e-07    -4.163096e-07    0.000000e+00
-5.161146e-07    -2.157262e-07    0.000000e+00
-3.332234e-07    -1.068319e-07    0.000000e+00
-1.642863e-07    -5.047429e-08    0.000000e+00
-3.238277e-20    -3.295148e-08    0.000000e+00
1.642863e-07    -5.047429e-08    0.000000e+00
3.332234e-07    -1.068319e-07    0.000000e+00
5.161146e-07    -2.157262e-07    0.000000e+00
7.233450e-07    -4.163096e-07    0.000000e+00
1.141596e-06    -8.299607e-07    0.000000e+00
-2.153941e-06    -1.380310e-06    0.000000e+00
-1.574436e-06    -9.987671e-07    0.000000e+00
-1.105093e-06    -7.015534e-07    0.000000e+00
-7.128294e-07    -5.177061e-07    0.000000e+00
-3.501024e-07    -4.175299e-07    0.000000e+00
-6.845168e-20    -3.857104e-07    0.000000e+00
3.501024e-07    -4.175299e-07    0.000000e+00
7.128294e-07    -5.177061e-07    0.000000e+00
1.105093e-06    -7.015534e-07    0.000000e+00
1.574436e-06    -9.987671e-07    0.000000e+00
2.153941e-06    -1.380310e-06    0.000000e+00
-3.132428e-06    -2.064635e-06    0.000000e+00
-2.394169e-06    -1.682258e-06    0.000000e+00
-1.722702e-06    -1.380761e-06    0.000000e+00
-1.115240e-06    -1.168097e-06    0.000000e+00
-5.487491e-07    -1.045521e-06    0.000000e+00
-1.077717e-19    -1.005593e-06    0.000000e+00
5.487491e-07    -1.045521e-06    0.000000e+00
1.115240e-06    -1.168097e-06    0.000000e+00
1.722702e-06    -1.380761e-06    0.000000e+00
2.394169e-06    -1.682258e-06    0.000000e+00
3.132428e-06    -2.064635e-06    0.000000e+00
-4.100077e-06    -2.909173e-06    0.000000e+00
-3.186877e-06    -2.535523e-06    0.000000e+00
-2.326959e-06    -2.239054e-06    0.000000e+00
-1.519409e-06    -2.025106e-06    0.000000e+00
-7.500559e-07    -1.896684e-06    0.000000e+00
-1.485418e-19    -1.854101e-06    0.000000e+00
7.500559e-07    -1.896684e-06    0.000000e+00
1.519409e-06    -2.025106e-06    0.000000e+00
2.326959e-06    -2.239054e-06    0.000000e+00
3.186877e-06    -2.535523e-06    0.000000e+00
4.100077e-06    -2.909173e-06    0.000000e+00
-5.051342e-06    -3.936655e-06    0.000000e+00
-3.956478e-06    -3.571726e-06    0.000000e+00
-2.911987e-06    -3.284209e-06    0.000000e+00
-1.912866e-06    -3.075890e-06    0.000000e+00
-9.475502e-07    -2.949779e-06    0.000000e+00
-1.901589e-19    -2.907565e-06    0.000000e+00
9.475502e-07    -2.949779e-06    0.000000e+00
1.912866e-06    -3.075890e-06    0.000000e+00
2.911987e-06    -3.284209e-06    0.000000e+00
3.956478e-06    -3.571726e-06    0.000000e+00
5.051342e-06    -3.936655e-06    0.000000e+00
-5.981874e-06    -5.149743e-06    0.000000e+00
-4.704514e-06    -4.794469e-06    0.000000e+00
-3.477740e-06    -4.516044e-06    0.000000e+00
-2.292922e-06    -4.315097e-06    0.000000e+00
-1.138484e-06    -4.193470e-06    0.000000e+00
-2.333311e-19    -4.152741e-06    0.000000e+00
1.138484e-06    -4.193470e-06    0.000000e+00
2.292922e-06    -4.315097e-06    0.000000e+00
3.477740e-06    -4.516044e-06    0.000000e+00
4.704514e-06    -4.794469e-06    0.000000e+00
5.981874e-06    -5.149743e-06    0.000000e+00
-6.888560e-06    -6.546378e-06    0.000000e+00
-5.431255e-06    -6.201156e-06    0.000000e+00
-4.025295e-06    -5.931592e-06    0.000000e+00
-2.659770e-06    -5.737831e-06    0.000000e+00
-1.322562e-06    -5.620888e-06    0.000000e+00
-2.746240e-19    -5.581771e-06    0.000000e+00
1.322562e-06    -5.620888e-06    0.000000e+00
2.659770e-06    -5.737831e-06    0.000000e+00
4.025295e-06    -5.931592e-06    0.000000e+00
5.431255e-06    -6.201156e-06    0.000000e+00
6.888560e-06    -6.546378e-06    0.000000e+00
-7.769678e-06    -8.122141e-06    0.000000e+00
-6.136611e-06    -7.787207e-06    0.000000e+00
-4.555510e-06    -7.526212e-06    0.000000e+00
-3.014227e-06    -7.339159e-06    0.000000e+00
-1.500174e-06    -7.226545e-06    0.000000e+00
-3.145404e-19    -7.188930e-06    0.000000e+00
1.500174e-06    -7.226545e-06    0.000000e+00
3.014227e-06    -7.339159e-06    0.000000e+00
4.555510e-06    -7.526212e-06    0.000000e+00
6.136611e-06    -7.787207e-06    0.000000e+00
7.769678e-06    -8.122141e-06    0.000000e+00
-8.624341e-06    -9.871841e-06    0.000000e+00
-6.820451e-06    -9.547304e-06    0.000000e+00
-5.068914e-06    -9.294679e-06    0.000000e+00
-3.356974e-06    -9.113938e-06    0.000000e+00
-1.671745e-06    -9.005303e-06    0.000000e+00
-3.564685e-19    -8.969051e-06    0.000000e+00
1.671745e-06    -9.005303e-06    0.000000e+00
3.356974e-06    -9.113938e-06    0.000000e+00
5.068914e-06    -9.294679e-06    0.000000e+00
6.820451e-06    -9.547304e-06    0.000000e+00
8.624341e-06    -9.871841e-06    0.000000e+00
-9.452131e-06    -1.179003e-05    0.000000e+00
-7.482680e-06    -1.147594e-05    0.000000e+00
-5.565792e-06    -1.123157e-05    0.000000e+00
-3.688438e-06    -1.105689e-05    0.000000e+00
-1.837569e-06    -1.095200e-05    0.000000e+00
-3.985290e-19    -1.091701e-05    0.000000e+00
1.837569e-06    -1.095200e-05    0.000000e+00
3.688438e-06    -1.105689e-05    0.000000e+00
5.565792e-06    -1.123157e-05    0.000000e+00
7.482680e-06    -1.147594e-05    0.000000e+00
9.452131e-06    -1.179003e-05    0.000000e+00
-1.025287e-05    -1.387121e-05    0.000000e+00
-8.123244e-06    -1.356758e-05    0.000000e+00
-6.046284e-06    -1.333140e-05    0.000000e+00
-4.008851e-06    -1.316265e-05    0.000000e+00
-1.997814e-06    -1.306137e-05    0.000000e+00
-4.343691e-19    -1.302760e-05    0.000000e+00
1.997814e-06    -1.306137e-05    0.000000e+00
4.008851e-06    -1.316265e-05    0.000000e+00
6.046284e-06    -1.333140e-05    0.000000e+00
8.123244e-06    -1.356758e-05    0.000000e+00
1.025287e-05    -1.387121e-05    0.000000e+00
-1.102649e-05    -1.610989e-05    0.000000e+00
-8.742115e-06    -1.581674e-05    0.000000e+00
-6.510454e-06    -1.558872e-05    0.000000e+00
-4.318326e-06    -1.542584e-05    0.000000e+00
-2.152567e-06    -1.532809e-05    0.000000e+00
-4.710033e-19    -1.529551e-05    0.000000e+00
2.152567e-06    -1.532809e-05    0.000000e+00
4.318326e-06    -1.542584e-05    0.000000e+00
6.510454e-06    -1.558872e-05    0.000000e+00
8.742115e-06    -1.581674e-05    0.000000e+00
1.102649e-05    -1.610989e-05    0.000000e+00
-1.177296e-05    -1.850062e-05    0.000000e+00
-9.339279e-06    -1.821794e-05    0.000000e+00
-6.958326e-06    -1.799807e-05    0.000000e+00
-4.616915e-06    -1.784102e-05    0.000000e+00
-2.301866e-06    -1.774679e-05    0.000000e+00
-5.129843e-19    -1.771537e-05    0.000000e+00
2.301866e-06    -1.774679e-05    0.000000e+00
4.616915e-06    -1.784102e-05    0.000000e+00
6.958326e-06    -1.799807e-05    0.000000e+00
9.339279e-06    -1.821794e-05    0.000000e+00
1.177296e-05    -1.850062e-05    0.000000e+00
-1.249228e-05    -2.103795e-05    0.000000e+00
-9.914730e-06    -2.076573e-05    0.000000e+00
-7.389911e-06    -2.055401e-05    0.000000e+00
-4.904638e-06    -2.040278e-05    0.000000e+00
-2.445728e-06    -2.031204e-05    0.000000e+00
-5.393482e-19    -2.028180e-05    0.000000e+00
2.445728e-06    -2.031204e-05    0.000000e+00
4.904638e-06    -2.040278e-05    0.000000e+00
7.389911e-06    -2.055401e-05    0.000000e+00
9.914730e-06    -2.076573e-05    0.000000e+00
1.249228e-05    -2.103795e-05    0.000000e+00
-1.318446e-05    -2.371643e-05    0.000000e+00
-1.046847e-05    -2.345468e-05    0.000000e+00
-7.805210e-06    -2.325110e-05    0.000000e+00
-5.181503e-06    -2.310569e-05    0.000000e+00
-2.584160e-06    -2.301844e-05    0.000000e+00
-5.612652e-19    -2.298936e-05    0.000000e+00
2.584160e-06    -2.301844e-05    0.000000e+00
5.181503e-06    -2.310569e-05    0.000000e+00
7.805210e-06    -2.325110e-05    0.000000e+00
1.046847e-05    -2.345468e-05    0.000000e+00
1.318446e-05    -2.371643e-05    0.000000e+00
-1.384949e-05    -2.653063e-05    0.000000e+00
-1.100049e-05    -2.627935e-05    0.000000e+00
-8.204224e-06    -2.608391e-05    0.000000e+00
-5.447511e-06    -2.594432e-05    0.000000e+00
-2.717164e-06    -2.586056e-05    0.000000e+00
-5.752413e-19    -2.583264e-05    0.000000e+00
2.717164e-06    -2.586056e-05    0.000000e+00
5.447511e-06    -2.594432e-05    0.000000e+00
8.204224e-06    -2.608391e-05    0.000000e+00
1.100049e-05    -2.627935e-05    0.000000e+00
1.384949e-05    -2.653063e-05    0.000000e+00
-1.448737e-05    -2.947512e-05    0.000000e+00
-1.151079e-05    -2.923431e-05    0.000000e+00
-8.586952e-06    -2.904702e-05    0.000000e+00
-5.702662e-06    -2.891324e-05    0.000000e+00
-2.844739e-06    -2.883297e-05    0.000000e+00
-5.779941e-19    -2.880622e-05    0.000000e+00
2.844739e-06    -2.883297e-05    0.000000e+00
5.702662e-06    -2.891324e-05    0.000000e+00
8.586952e-06    -2.904702e-05    0.000000e+00
1.151079e-05    -2.923431e-05    0.000000e+00
1.448737e-05    -2.947512e-05    0.000000e+00
-1.509811e-05    -3.254447e-05    0.000000e+00
-1.199939e-05    -3.231414e-05    0.000000e+00
-8.953395e-06    -3.213499e-05    0.000000e+00
-5.946957e-06    -3.200702e-05    0.000000e+00
-2.966886e-06    -3.193025e-05    0.000000e+00
-5.977935e-19    -3.190465e-05    0.000000e+00
2.966886e-06    -3.193025e-05    0.000000e+00
5.946957e-06    -3.200702e-05    0.000000e+00
8.953395e-06    -3.213499e-05    0.000000e+00
1.199939e-05    -3.231414e-05    0.000000e+00
1.509811e-05    -3.254447e-05    0.000000e+00
-1.568171e-05    -3.573326e-05    0.000000e+00
-1.246626e-05    -3.551339e-05    0.000000e+00
-9.303551e-06    -3.534239e-05    0.000000e+00
-6.180394e-06    -3.522024e-05    0.000000e+00
-3.083605e-06    -3.514695e-05    0.000000e+00
-6.281808e-19    -3.512252e-05    0.000000e+00
3.083605e-06    -3.514695e-05    0.000000e+00
6.180394e-06    -3.522024e-05    0.000000e+00
9.303551e-06    -3.534239e-05    0.000000e+00
1.246626e-05    -3.551339e-05    0.000000e+00
1.568171e-05    -3.573326e-05    0.000000e+00
-1.623816e-05    -3.903605e-05    0.000000e+00
-1.291142e-05    -3.882666e-05    0.000000e+00
-9.637421e-06    -3.866379e-05    0.000000e+00
-6.402974e-06    -3.854746e-05    0.000000e+00
-3.194895e-06    -3.847766e-05    0.000000e+00
-6.761441e-19    -3.845440e-05    0.000000e+00
3.194895e-06    -3.847766e-05    0.000000e+00
6.402974e-06    -3.854746e-05    0.000000e+00
9.637421e-06    -3.866379e-05    0.000000e+00
1.291142e-05    -3.882666e-05    0.000000e+00
1.623816e-05    -3.903605e-05    0.000000e+00
-1.676746e-05    -4.244742e-05    0.000000e+00
-1.333487e-05    -4.224849e-05    0.000000e+00
-9.955005e-06    -4.209377e-05    0.000000e+00
-6.614697e-06    -4.198326e-05    0.000000e+00
-3.300756e-06    -4.191695e-05    0.000000e+00
-7.379775e-19    -4.189485e-05    0.000000e+00
3.300756e-06    -4.191695e-05    0.000000e+00
6.614697e-06    -4.198326e-05    0.000000e+00
9.955005e-06    -4.209377e-05    0.000000e+00
1.333487e-05    -4.224849e-05    0.000000e+00
1.676746e-05    -4.244742e-05    0.000000e+00
-1.726963e-05    -4.596194e-05    0.000000e+00
-1.373660e-05    -4.577348e-05    0.000000e+00
-1.025630e-05    -4.562690e-05    0.000000e+00
-6.815562e-06    -4.552220e-05    0.000000e+00
-3.401189e-06    -4.545938e-05    0.000000e+00
-7.801173e-19    -4.543844e-05    0.000000e+00
3.401189e-06    -4.545938e-05    0.000000e+00
6.815562e-06    -4.552220e-05    0.000000e+00
1.025630e-05    -4.562690e-05    0.000000e+00
1.373660e-05    -4.577348e-05    0.000000e+00
1.726963e-05    -4.596194e-05    0.000000e+00
-1.774465e-05    -4.957417e-05    0.000000e+00
-1.411661e-05    -4.939618e-05    0.000000e+00
-1.054131e-05    -4.925775e-05    0.000000e+00
-7.005570e-06    -4.915887e-05    0.000000e+00
-3.496193e-06    -4.909954e-05    0.000000e+00
-8.101870e-19    -4.907976e-05    0.000000e+00
3.496193e-06    -4.909954e-05    0.000000e+00
7.005570e-06    -4.915887e-05    0.000000e+00
1.054131e-05    -4.925775e-05    0.000000e+00
1.411661e-05    -4.939618e-05    0.000000e+00
1.774465e-05    -4.957417e-05    0.000000e+00
-1.819252e-05    -5.327869e-05    0.000000e+00
-1.447491e-05    -5.311117e-05    0.000000e+00
-1.081004e-05    -5.298088e-05    0.000000e+00
-7.184720e-06    -5.288782e-05    0.000000e+00
-3.585768e-06    -5.283198e-05    0.000000e+00
-8.474565e-19    -5.281336e-05    0.000000e+00
3.585768e-06    -5.283198e-05    0.000000e+00
7.184720e-06    -5.288782e-05    0.000000e+00
1.081004e-05    -5.298088e-05    0.000000e+00
1.447491e-05    -5.311117e-05    0.000000e+00
1.819252e-05    -5.327869e-05    0.000000e+00
-1.861325e-05    -5.707007e-05    0.000000e+00
-1.481150e-05    -5.691303e-05    0.000000e+00
-1.106248e-05    -5.679088e-05    0.000000e+00
-7.353013e-06    -5.670363e-05    0.000000e+00
-3.669915e-06    -5.665128e-05    0.000000e+00
-8.603737e-19    -5.663383e-05    0.000000e+00
3.669915e-06    -5.665128e-05    0.000000e+00
7.353013e-06    -5.670363e-05    0.000000e+00
1.106248e-05    -5.679088e-05    0.000000e+00
1.481150e-05    -5.691303e-05    0.000000e+00
1.861325e-05    -5.707007e-05    0.000000e+00
-1.900684e-05    -6.094289e-05    0.000000e+00
-1.512637e-05    -6.079631e-05    0.000000e+00
-1.129863e-05    -6.068231e-05    0.000000e+00
-7.510450e-06    -6.060087e-05    0.000000e+00
-3.748634e-06    -6.055201e-05    0.000000e+00
-8.745615e-19    -6.053573e-05    0.000000e+00
3.748634e-06    -6.055201e-05    0.000000e+00
7.510450e-06    -6.060087e-05    0.000000e+00
1.129863e-05    -6.068231e-05    0.000000e+00
1.512637e-05    -6.079631e-05    0.000000e+00
1.900684e-05    -6.094289e-05    0.000000e+00
-1.937328e-05    -6.489170e-05    0.000000e+00
-1.541952e-05    -6.475560e-05    0.000000e+00
-1.151850e-05    -6.464974e-05    0.000000e+00
-7.657029e-06    -6.457412e-05    0.000000e+00
-3.821924e-06    -6.452875e-05    0.000000e+00
-8.872670e-19    -6.451363e-05    0.000000e+00
3.821924e-06    -6.452875e-05    0.000000e+00
7.657029e-06    -6.457412e-05    0.000000e+00
1.151850e-05    -6.464974e-05    0.000000e+00
1.541952e-05    -6.475560e-05    0.000000e+00
1.937328e-05    -6.489170e-05    0.000000e+00
-1.971257e-05    -6.891109e-05    0.000000e+00
-1.569096e-05    -6.878545e-05    0.000000e+00
-1.172208e-05    -6.868774e-05    0.000000e+00
-7.792752e-06    -6.861794e-05    0.000000e+00
-3.889785e-06    -6.857606e-05    0.000000e+00
-8.773144e-19    -6.856210e-05    0.000000e+00
3.889785e-06    -6.857606e-05    0.000000e+00
7.792752e-06    -6.861794e-05    0.000000e+00
1.172208e-05    -6.868774e-05    0.000000e+00
1.569096e-05    -6.878545e-05    0.000000e+00
1.971257e-05    -6.891109e-05    0.000000e+00
-2.002471e-05    -7.299561e-05    0.000000e+00
-1.594068e-05    -7.288045e-05    0.000000e+00
-1.190938e-05    -7.279088e-05    0.000000e+00
-7.917613e-06    -7.272690e-05    0.000000e+00
-3.952213e-06    -7.268853e-05    0.000000e+00
-8.730792e-19    -7.267574e-05    0.000000e+00
3.952213e-06    -7.268853e-05    0.000000e+00
7.917613e-06    -7.272690e-05    0.000000e+00
1.190938e-05    -7.279088e-05    0.000000e+00
1.594068e-05    -7.288045e-05    0.000000e+00
2.002471e-05    -7.299561e-05    0.000000e+00
-2.030971e-05    -7.713983e-05    0.000000e+00
-1.616870e-05    -7.703513e-05    0.000000e+00
-1.208038e-05    -7.695372e-05    0.000000e+00
-8.031601e-06    -7.689559e-05    0.000000e+00
-4.009199e-06    -7.686073e-05    0.000000e+00
-9.139486e-19    -7.684911e-05    0.000000e+00
4.009199e-06    -7.686073e-05    0.000000e+00
8.031601e-06    -7.689559e-05    0.000000e+00
1.208038e-05    -7.695372e-05    0.000000e+00
1.616870e-05    -7.703513e-05    0.000000e+00
2.030971e-05    -7.713983e-05    0.000000e+00
-2.056757e-05    -8.133829e-05    0.000000e+00
-1.637501e-05    -8.124406e-05    0.000000e+00
-1.223508e-05    -8.117081e-05    0.000000e+00
-8.134687e-06    -8.111857e-05    0.000000e+00
-4.060720e-06    -8.108727e-05    0.000000e+00
-9.524885e-19    -8.107685e-05    0.000000e+00
4.060720e-06    -8.108727e-05    0.000000e+00
8.134687e-06    -8.111857e-05    0.000000e+00
1.223508e-05    -8.117081e-05    0.000000e+00
1.637501e-05    -8.124406e-05    0.000000e+00
2.056757e-05    -8.133829e-05    0.000000e+00
-2.079834e-05    -8.558552e-05    0.000000e+00
-1.655964e-05    -8.550175e-05    0.000000e+00
-1.237344e-05    -8.543672e-05    0.000000e+00
-8.226804e-06    -8.539043e-05    0.000000e+00
-4.106725e-06    -8.536278e-05    0.000000e+00
-1.027027e-18    -8.535358e-05    0.000000e+00
4.106725e-06    -8.536278e-05    0.000000e+00
8.226804e-06    -8.539043e-05    0.000000e+00
1.237344e-05    -8.543672e-05    0.000000e+00
1.655964e-05    -8.550175e-05    0.000000e+00
2.079834e-05    -8.558552e-05    0.000000e+00
-2.100211e-05    -8.987605e-05    0.000000e+00
-1.672261e-05    -8.980272e-05    0.000000e+00
-1.249537e-05    -8.974596e-05    0.000000e+00
-8.307809e-06    -8.970580e-05    0.000000e+00
-4.147108e-06    -8.968194e-05    0.000000e+00
-1.105378e-18    -8.967403e-05    0.000000e+00
4.147108e-06    -8.968194e-05    0.000000e+00
8.307809e-06    -8.970580e-05    0.000000e+00
1.249537e-05    -8.974596e-05    0.000000e+00
1.672261e-05    -8.980272e-05    0.000000e+00
2.100211e-05    -8.987605e-05    0.000000e+00
-2.117913e-05    -9.420441e-05    0.000000e+00
-1.686399e-05    -9.414144e-05    0.000000e+00
-1.260070e-05    -9.409310e-05    0.000000e+00
-8.377430e-06    -9.405933e-05    0.000000e+00
-4.181680e-06    -9.403951e-05    0.000000e+00
-1.136718e-18    -9.403299e-05    0.000000e+00
4.181680e-06    -9.403951e-05    0.000000e+00
8.377430e-06    -9.405933e-05    0.000000e+00
1.260070e-05    -9.409310e-05    0.000000e+00
1.686399e-05    -9.414144e-05    0.000000e+00
2.117913e-05    -9.420441e-05    0.000000e+00
-2.132994e-05    -9.856526e-05    0.000000e+00
-1.698388e-05    -9.851251e-05    0.000000e+00
-1.268909e-05    -9.847279e-05    0.000000e+00
-8.435207e-06    -9.844577e-05    0.000000e+00
-4.210142e-06    -9.843029e-05    0.000000e+00
-1.185846e-18    -9.842526e-05    0.000000e+00
4.210142e-06    -9.843029e-05    0.000000e+00
8.435207e-06    -9.844577e-05    0.000000e+00
1.268909e-05    -9.847279e-05    0.000000e+00
1.698388e-05    -9.851251e-05    0.000000e+00
2.132994e-05    -9.856526e-05    0.000000e+00
-2.145563e-05    -1.029537e-04    0.000000e+00
-1.708235e-05    -1.029109e-04    0.000000e+00
-1.275997e-05    -1.028800e-04    0.000000e+00
-8.480519e-06    -1.028600e-04    0.000000e+00
-4.232144e-06    -1.028490e-04    0.000000e+00
-1.237515e-18    -1.028454e-04    0.000000e+00
4.232144e-06    -1.028490e-04    0.000000e+00
8.480519e-06    -1.028600e-04    0.000000e+00
1.275997e-05    -1.028800e-04    0.000000e+00
1.708235e-05    -1.029109e-04    0.000000e+00
2.145563e-05    -1.029537e-04    0.000000e+00
-2.155818e-05    -1.073660e-04    0.000000e+00
-1.715935e-05    -1.073327e-04    0.000000e+00
-1.281259e-05    -1.073106e-04    0.000000e+00
-8.512906e-06    -1.072970e-04    0.000000e+00
-4.247580e-06    -1.072895e-04    0.000000e+00
-1.182034e-18    -1.072870e-04    0.000000e+00
4.247580e-06    -1.072895e-04    0.000000e+00
8.512906e-06    -1.072970e-04    0.000000e+00
1.281259e-05    -1.073106e-04    0.000000e+00
1.715935e-05    -1.073327e-04    0.000000e+00
2.155818e-05    -1.073660e-04    0.000000e+00
-2.164068e-05    -1.118023e-04    0.000000e+00
-1.721430e-05    -1.117773e-04    0.000000e+00
-1.284671e-05    -1.117621e-04    0.000000e+00
-8.533272e-06    -1.117511e-04    0.000000e+00
-4.257282e-06    -1.117436e-04    0.000000e+00
-1.109190e-18    -1.117409e-04    0.000000e+00
4.257282e-06    -1.117436e-04    0.000000e+00
8.533272e-06    -1.117511e-04    0.000000e+00
1.284671e-05    -1.117621e-04    0.000000e+00
1.721430e-05    -1.117773e-04    0.000000e+00
2.164068e-05    -1.118023e-04    0.000000e+00
-2.170513e-05    -1.162704e-04    0.000000e+00
-1.724616e-05    -1.162524e-04    0.000000e+00
-1.286626e-05    -1.162338e-04    0.000000e+00
-8.546208e-06    -1.162133e-04    0.000000e+00
-4.263866e-06    -1.161979e-04    0.000000e+00
-1.106649e-18    -1.161922e-04    0.000000e+00
4.263866e-06    -1.161979e-04    0.000000e+00
8.546208e-06    -1.162133e-04    0.000000e+00
1.286626e-05    -1.162338e-04    0.000000e+00
1.724616e-05    -1.162524e-04    0.000000e+00
2.170513e-05    -1.162704e-04    0.000000e+00
-2.173924e-05    -1.208106e-04    0.000000e+00
-1.726634e-05    -1.207758e-04    0.000000e+00
-1.288608e-05    -1.207173e-04    0.000000e+00
-8.561323e-06    -1.206645e-04    0.000000e+00
-4.272040e-06    -1.206293e-04    0.000000e+00
-1.107496e-18    -1.206170e-04    0.000000e+00
4.272040e-06    -1.206293e-04    0.000000e+00
8.561323e-06    -1.206645e-04    0.000000e+00
1.288608e-05    -1.207173e-04    0.000000e+00
1.726634e-05    -1.207758e-04    0.000000e+00
2.173924e-05    -1.208106e-04    0.000000e+00

CELL_DATA      400
TENSORS Element_Stress4.200000e-01 double
1.820599e+06 2.551813e+05        0
2.551813e+05 4.163490e+05        0
       0        0        0

1.243721e+06 1.308538e+05        0
1.308538e+05 3.566179e+05        0
       0        0        0

8.651187e+05 4.301034e+04        0
4.301034e+04 2.749959e+05        0
       0        0        0

5.100064e+05 -3.578354e+03        0
-3.578354e+03 1.690094e+05        0
       0        0        0

1.688541e+05 -2.488323e+04        0
-2.488323e+04 5.694969e+04        0
       0        0        0

-1.688184e+05 -2.487711e+04        0
-2.487711e+04 -5.695776e+04        0
       0        0        0

-5.095307e+05 -3.579102e+03        0
-3.579102e+03 -1.688448e+05        0
       0        0        0

-8.637079e+05 4.293853e+04        0
4.293853e+04 -2.744672e+05        0
       0        0        0

-1.240734e+06 1.305652e+05        0
1.305652e+05 -3.554741e+05        0
       0        0        0

-1.814375e+06 2.543708e+05        0
2.543708e+05 -4.141971e+05        0
       0        0        0

1.642071e+06 4.159750e+04        0
4.159750e+04 4.234800e+03        0
       0        0        0

1.322354e+06 1.206454e+05        0
1.206454e+05 1.286843e+05        0
       0        0        0

9.082524e+05 9.900758e+04        0
9.900758e+04 1.315192e+05        0
       0        0        0

5.364026e+05 7.580681e+04        0
7.580681e+04 9.193314e+04        0
       0        0        0

1.768172e+05 6.321710e+04        0
6.321710e+04 3.207758e+04        0
       0        0        0

-1.778550e+05 6.319876e+04        0
6.319876e+04 -3.316897e+04        0
       0        0        0

-5.369365e+05 7.574136e+04        0
7.574136e+04 -9.284493e+04        0
       0        0        0

-9.077063e+05 9.886741e+04        0
9.886741e+04 -1.320380e+05        0
       0        0        0

-1.319831e+06 1.204079e+05        0
1.204079e+05 -1.284324e+05        0
       0        0        0

-1.637467e+06 4.151084e+04        0
4.151084e+04 -3.136556e+03        0
       0        0        0

1.584953e+06 1.541640e+04        0
1.541640e+04 6.615318e+03        0
       0        0        0

1.271592e+06 6.833112e+04        0
6.833112e+04 1.757729e+04        0
       0        0        0

9.146416e+05 1.015639e+05        0
1.015639e+05 4.237688e+04        0
       0        0        0

5.430827e+05 1.074765e+05        0
1.074765e+05 3.592347e+04        0
       0        0        0

1.791459e+05 1.074055e+05        0
1.074055e+05 1.272037e+04        0
       0        0        0

-1.824791e+05 1.073775e+05        0
1.073775e+05 -1.611191e+04        0
       0        0        0

-5.458839e+05 1.073934e+05        0
1.073934e+05 -3.912504e+04        0
       0        0        0

-9.163120e+05 1.014348e+05        0
1.014348e+05 -4.515294e+04        0
       0        0        0

-1.271565e+06 6.821625e+04        0
6.821625e+04 -1.966894e+04        0
       0        0        0

-1.582978e+06 1.538449e+04        0
1.538449e+04 -7.911809e+03        0
       0        0        0

1.546130e+06 1.427371e+04        0
1.427371e+04 -3.975754e+03        0
       0        0        0

1.226683e+06 5.548210e+04        0
5.548210e+04 -1.953362e+03        0
       0        0        0

8.865541e+05 9.245028e+04        0
9.245028e+04 2.933169e+03        0
       0        0        0

5.331316e+05 1.146030e+05        0
1.146030e+05 5.877771e+03        0
       0        0        0

1.753741e+05 1.233579e+05        0
1.233579e+05 6.880619e+02        0
       0        0        0

-1.820438e+05 1.233284e+05        0
1.233284e+05 -7.415937e+03        0
       0        0        0

-5.392754e+05 1.145213e+05        0
1.145213e+05 -1.241206e+04        0
       0        0        0

-8.916352e+05 9.234266e+04        0
9.234266e+04 -9.058369e+03        0
       0        0        0

-1.230189e+06 5.539390e+04        0
5.539390e+04 -3.528933e+03        0
       0        0        0

-1.547533e+06 1.424569e+04        0
1.424569e+04 -5.504394e+02        0
       0        0        0

1.509428e+06 1.713064e+04        0
1.713064e+04 -5.567252e+03        0
       0        0        0

1.185340e+06 5.448735e+04        0
5.448735e+04 -8.577655e+03        0
       0        0        0

8.541563e+05 8.905473e+04        0
8.905473e+04 -8.329309e+03        0
       0        0        0

5.137341e+05 1.136409e+05        0
1.136409e+05 -6.745283e+03        0
       0        0        0

1.681056e+05 1.258450e+05        0
1.258450e+05 -5.639047e+03        0
       0        0        0

-1.789903e+05 1.258167e+05        0
1.258167e+05 -5.300823e+03        0
       0        0        0

-5.241239e+05 1.135646e+05        0
1.135646e+05 -4.010291e+03        0
       0        0        0

-8.635545e+05 8.895616e+04        0
8.895616e+04 -2.042814e+03        0
       0        0        0

-1.193245e+06 5.440411e+04        0
5.440411e+04 -1.179543e+03        0
       0        0        0

-1.515273e+06 1.709767e+04        0
1.709767e+04 -3.264827e+03        0
       0        0        0

1.469672e+06 1.958964e+04        0
1.958964e+04 -7.911535e+03        0
       0        0        0

1.147077e+06 5.644561e+04        0
5.644561e+04 -1.054799e+04        0
       0        0        0

8.224153e+05 8.838597e+04        0
8.838597e+04 -1.192775e+04        0
       0        0        0

4.928621e+05 1.117722e+05        0
1.117722e+05 -1.113899e+04        0
       0        0        0

1.594066e+05 1.239615e+05        0
1.239615e+05 -9.157853e+03        0
       0        0        0

-1.752704e+05 1.239348e+05        0
1.239348e+05 -6.757346e+03        0
       0        0        0

-5.082718e+05 1.117003e+05        0
1.117003e+05 -4.611026e+03        0
       0        0        0

-8.369140e+05 8.829174e+04        0
8.829174e+04 -3.479959e+03        0
       0        0        0

-1.160194e+06 5.636193e+04        0
5.636193e+04 -4.312367e+03        0
       0        0        0

-1.480880e+06 1.955285e+04        0
1.955285e+04 -6.139558e+03        0
       0        0        0

1.427069e+06 2.114429e+04        0
2.114429e+04 -1.052965e+04        0
       0        0        0

1.109854e+06 5.834960e+04        0
5.834960e+04 -1.236662e+04        0
       0        0        0

7.924053e+05 8.864131e+04        0
8.864131e+04 -1.362108e+04        0
       0        0        0

4.726278e+05 1.103428e+05        0
1.103428e+05 -1.337051e+04        0
       0        0        0

1.506200e+05 1.216736e+05        0
1.216736e+05 -1.181697e+04        0
       0        0        0

-1.721469e+05 1.216483e+05        0
1.216483e+05 -9.757746e+03        0
       0        0        0

-4.937484e+05 1.102742e+05        0
1.102742e+05 -8.067263e+03        0
       0        0        0

-8.127096e+05 8.854976e+04        0
8.854976e+04 -7.533913e+03        0
       0        0        0

-1.128918e+06 5.826556e+04        0
5.826556e+04 -8.339740e+03        0
       0        0        0

-1.444434e+06 2.110562e+04        0
2.110562e+04 -9.528615e+03        0
       0        0        0

1.382472e+06 2.200182e+04        0
2.200182e+04 -1.363723e+04        0
       0        0        0

1.072891e+06 5.961400e+04        0
5.961400e+04 -1.472184e+04        0
       0        0        0

7.635787e+05 8.901011e+04        0
8.901011e+04 -1.557415e+04        0
       0        0        0

4.533126e+05 1.094858e+05        0
1.094858e+05 -1.552413e+04        0
       0        0        0

1.419522e+05 1.200358e+05        0
1.200358e+05 -1.458785e+04        0
       0        0        0

-1.697603e+05 1.200117e+05        0
1.200117e+05 -1.326480e+04        0
       0        0        0

-4.807668e+05 1.094199e+05        0
1.094199e+05 -1.222642e+04        0
       0        0        0

-7.903214e+05 8.892094e+04        0
8.892094e+04 -1.196594e+04        0
       0        0        0

-1.098554e+06 5.953062e+04        0
5.953062e+04 -1.248636e+04        0
       0        0        0

-1.406666e+06 2.196272e+04        0
2.196272e+04 -1.309847e+04        0
       0        0        0

1.336650e+06 2.243104e+04        0
2.243104e+04 -1.712976e+04        0
       0        0        0

1.035846e+06 6.032511e+04        0
6.032511e+04 -1.770735e+04        0
       0        0        0

7.353692e+05 8.928004e+04        0
8.928004e+04 -1.819358e+04        0
       0        0        0

4.345843e+05 1.090315e+05        0
1.090315e+05 -1.820575e+04        0
       0        0        0

1.333511e+05 1.190752e+05        0
1.190752e+05 -1.770720e+04        0
       0        0        0

-1.679949e+05 1.190520e+05        0
1.190520e+05 -1.697819e+04        0
       0        0        0

-4.689287e+05 1.089679e+05        0
1.089679e+05 -1.641606e+04        0
       0        0        0

-7.691119e+05 8.919333e+04        0
8.919333e+04 -1.629668e+04        0
       0        0        0

-1.068677e+06 6.024327e+04        0
6.024327e+04 -1.657481e+04        0
       0        0        0

-1.368247e+06 2.239236e+04        0
2.239236e+04 -1.685618e+04        0
       0        0        0

1.290108e+06 2.262770e+04        0
2.262770e+04 -2.093371e+04        0
       0        0        0

9.986147e+05 6.068322e+04        0
6.068322e+04 -2.119242e+04        0
       0        0        0

7.073841e+05 8.943851e+04        0
8.943851e+04 -2.142409e+04        0
       0        0        0

4.161154e+05 1.088122e+05        0
1.088122e+05 -2.143280e+04        0
       0        0        0

1.247137e+05 1.185760e+05        0
1.185760e+05 -2.118595e+04        0
       0        0        0

-1.666835e+05 1.185536e+05        0
1.185536e+05 -2.082275e+04        0
       0        0        0

-4.578410e+05 1.087507e+05        0
1.087507e+05 -2.055220e+04        0
       0        0        0

-7.486183e+05 8.935436e+04        0
8.935436e+04 -2.051029e+04        0
       0        0        0

-1.039105e+06 6.060348e+04        0
6.060348e+04 -2.065827e+04        0
       0        0        0

-1.329592e+06 2.258991e+04        0
2.258991e+04 -2.079208e+04        0
       0        0        0

1.243138e+06 2.270944e+04        0
2.270944e+04 -2.498211e+04        0
       0        0        0

9.611831e+05 6.084709e+04        0
6.084709e+04 -2.504188e+04        0
       0        0        0

6.794121e+05 8.952011e+04        0
8.952011e+04 -2.510677e+04        0
       0        0        0

3.976943e+05 1.087151e+05        0
1.087151e+05 -2.508706e+04        0
       0        0        0

1.159751e+05 1.183403e+05        0
1.183403e+05 -2.496215e+04        0
       0        0        0

-1.656967e+05 1.183187e+05        0
1.183187e+05 -2.479578e+04        0
       0        0        0

-4.472258e+05 1.086557e+05        0
1.086557e+05 -2.468700e+04        0
       0        0        0

-7.285610e+05 8.943863e+04        0
8.943863e+04 -2.469695e+04        0
       0        0        0

-1.009752e+06 6.076973e+04        0
6.076973e+04 -2.480001e+04        0
       0        0        0

-1.290922e+06 2.267275e+04        0
2.267275e+04 -2.489963e+04        0
       0        0        0

1.195902e+06 2.273919e+04        0
2.273919e+04 -2.922325e+04        0
       0        0        0

9.235710e+05 6.091460e+04        0
6.091460e+04 -2.915048e+04        0
       0        0        0

6.513592e+05 8.955770e+04        0
8.955770e+04 -2.910388e+04        0
       0        0        0

3.792148e+05 1.086760e+05        0
1.086760e+05 -2.904720e+04        0
       0        0        0

1.071092e+05 1.182389e+05        0
1.182389e+05 -2.897001e+04        0
       0        0        0

-1.649444e+05 1.182181e+05        0
1.182181e+05 -2.889902e+04        0
       0        0        0

-4.369127e+05 1.086186e+05        0
1.086186e+05 -2.887698e+04        0
       0        0        0

-7.087802e+05 8.947894e+04        0
8.947894e+04 -2.892825e+04        0
       0        0        0

-9.805711e+05 6.083978e+04        0
6.083978e+04 -2.903785e+04        0
       0        0        0

-1.252331e+06 2.270370e+04        0
2.270370e+04 -2.916304e+04        0
       0        0        0

1.148491e+06 2.274764e+04        0
2.274764e+04 -3.361529e+04        0
       0        0        0

8.858089e+05 6.093853e+04        0
6.093853e+04 -3.344416e+04        0
       0        0        0

6.231975e+05 8.957288e+04        0
8.957288e+04 -3.331677e+04        0
       0        0        0

3.606385e+05 1.086618e+05        0
1.086618e+05 -3.322147e+04        0
       0        0        0

9.811736e+04 1.181998e+05        0
1.181998e+05 -3.315418e+04        0
       0        0        0

-1.643651e+05 1.181797e+05        0
1.181797e+05 -3.312515e+04        0
       0        0        0

-4.268001e+05 1.086064e+05        0
1.086064e+05 -3.315083e+04        0
       0        0        0

-6.891846e+05 8.949686e+04        0
8.949686e+04 -3.323924e+04        0
       0        0        0

-9.515286e+05 6.086630e+04        0
6.086630e+04 -3.338184e+04        0
       0        0        0

-1.213844e+06 2.271337e+04        0
2.271337e+04 -3.356051e+04        0
       0        0        0

1.100960e+06 2.274842e+04        0
2.274842e+04 -3.812280e+04        0
       0        0        0

8.479291e+05 6.094462e+04        0
6.094462e+04 -3.787021e+04        0
       0        0        0

5.949323e+05 8.957766e+04        0
8.957766e+04 -3.767805e+04        0
       0        0        0

3.419636e+05 1.086573e+05        0
1.086573e+05 -3.754496e+04        0
       0        0        0

8.901559e+04 1.181868e+05        0
1.181868e+05 -3.747029e+04        0
       0        0        0

-1.639143e+05 1.181674e+05        0
1.181674e+05 -3.745770e+04        0
       0        0        0

-4.168254e+05 1.086039e+05        0
1.086039e+05 -3.751249e+04        0
       0        0        0

-6.697182e+05 8.950440e+04        0
8.950440e+04 -3.763610e+04        0
       0        0        0

-9.225954e+05 6.087500e+04        0
6.087500e+04 -3.782345e+04        0
       0        0        0

-1.175457e+06 2.271540e+04        0
2.271540e+04 -3.806660e+04        0
       0        0        0

1.053347e+06 2.274704e+04        0
2.274704e+04 -4.271423e+04        0
       0        0        0

8.099628e+05 6.094431e+04        0
6.094431e+04 -4.238868e+04        0
       0        0        0

5.665833e+05 8.957806e+04        0
8.957806e+04 -4.214003e+04        0
       0        0        0

3.232061e+05 1.086560e+05        0
1.086560e+05 -4.197070e+04        0
       0        0        0

7.982720e+04 1.181835e+05        0
1.181835e+05 -4.188173e+04        0
       0        0        0

-1.635563e+05 1.181649e+05        0
1.181649e+05 -4.187449e+04        0
       0        0        0

-4.069458e+05 1.086046e+05        0
1.086046e+05 -4.195010e+04        0
       0        0        0

-6.503418e+05 8.950756e+04        0
8.950756e+04 -4.210769e+04        0
       0        0        0

-8.937441e+05 6.087732e+04        0
6.087732e+04 -4.234384e+04        0
       0        0        0

-1.137149e+06 2.271527e+04        0
2.271527e+04 -4.265431e+04        0
       0        0        0

1.005683e+06 2.274540e+04        0
2.274540e+04 -4.736041e+04        0
       0        0        0

7.719396e+05 6.094221e+04        0
6.094221e+04 -4.696670e+04        0
       0        0        0

5.381757e+05 8.957684e+04        0
8.957684e+04 -4.666611e+04        0
       0        0        0

3.043895e+05 1.086553e+05        0
1.086553e+05 -4.646221e+04        0
       0        0        0

7.057816e+04 1.181833e+05        0
1.181833e+05 -4.635679e+04        0
       0        0        0

-1.632605e+05 1.181654e+05        0
1.181654e+05 -4.635061e+04        0
       0        0        0

-3.971280e+05 1.086060e+05        0
1.086060e+05 -4.644349e+04        0
       0        0        0

-6.310242e+05 8.950910e+04        0
8.950910e+04 -4.663396e+04        0
       0        0        0

-8.649475e+05 6.087785e+04        0
6.087785e+04 -4.691932e+04        0
       0        0        0

-1.098893e+06 2.271488e+04        0
2.271488e+04 -4.729640e+04        0
       0        0        0

9.579957e+05 2.274401e+04        0
2.274401e+04 -5.203384e+04        0
       0        0        0

7.338874e+05 6.093991e+04        0
6.093991e+04 -5.157527e+04        0
       0        0        0

5.097361e+05 8.957511e+04        0
8.957511e+04 -5.122569e+04        0
       0        0        0

2.855394e+05 1.086546e+05        0
1.086546e+05 -5.098883e+04        0
       0        0        0

6.129495e+04 1.181835e+05        0
1.181835e+05 -5.086678e+04        0
       0        0        0

-1.629990e+05 1.181663e+05        0
1.181663e+05 -5.086028e+04        0
       0        0        0

-3.873433e+05 1.086073e+05        0
1.086073e+05 -5.096889e+04        0
       0        0        0

-6.117375e+05 8.951014e+04        0
8.951014e+04 -5.119111e+04        0
       0        0        0

-8.361793e+05 6.087817e+04        0
6.087817e+04 -5.152451e+04        0
       0        0        0

-1.060664e+06 2.271473e+04        0
2.271473e+04 -5.196608e+04        0
       0        0        0

9.103104e+05 2.274290e+04        0
2.274290e+04 -5.670832e+04        0
       0        0        0

6.958328e+05 6.093782e+04        0
6.093782e+04 -5.618771e+04        0
       0        0        0

4.812908e+05 8.957331e+04        0
8.957331e+04 -5.579144e+04        0
       0        0        0

2.666818e+05 1.086537e+05        0
1.086537e+05 -5.552315e+04        0
       0        0        0

5.200353e+04 1.181835e+05        0
1.181835e+05 -5.538503e+04        0
       0        0        0

-1.627454e+05 1.181671e+05        0
1.181671e+05 -5.537793e+04        0
       0        0        0

-3.775654e+05 1.086084e+05        0
1.086084e+05 -5.550147e+04        0
       0        0        0

-5.924557e+05 8.951110e+04        0
8.951110e+04 -5.575425e+04        0
       0        0        0

-8.074138e+05 6.087872e+04        0
6.087872e+04 -5.613393e+04        0
       0        0        0

-1.022436e+06 2.271487e+04        0
2.271487e+04 -5.663738e+04        0
       0        0        0

8.626522e+05 2.274199e+04        0
2.274199e+04 -6.135881e+04        0
       0        0        0

6.578009e+05 6.093598e+04        0
6.093598e+04 -6.077885e+04        0
       0        0        0

4.528651e+05 8.957153e+04        0
8.957153e+04 -6.033799e+04        0
       0        0        0

2.478418e+05 1.086526e+05        0
1.086526e+05 -6.003974e+04        0
       0        0        0

4.272897e+04 1.181833e+05        0
1.181833e+05 -5.988633e+04        0
       0        0        0

-1.624747e+05 1.181676e+05        0
1.181676e+05 -5.987870e+04        0
       0        0        0

-3.677694e+05 1.086093e+05        0
1.086093e+05 -6.001659e+04        0
       0        0        0

-5.731541e+05 8.951209e+04        0
8.951209e+04 -6.029869e+04        0
       0        0        0

-7.786262e+05 6.087950e+04        0
6.087950e+04 -6.072270e+04        0
       0        0        0

-9.841822e+05 2.271521e+04        0
2.271521e+04 -6.128533e+04        0
       0        0        0

8.150448e+05 2.274120e+04        0
2.274120e+04 -6.596139e+04        0
       0        0        0

6.198158e+05 6.093431e+04        0
6.093431e+04 -6.532476e+04        0
       0        0        0

4.244831e+05 8.956981e+04        0
8.956981e+04 -6.484135e+04        0
       0        0        0

2.290436e+05 1.086514e+05        0
1.086514e+05 -6.451459e+04        0
       0        0        0

3.349527e+04 1.181828e+05        0
1.181828e+05 -6.434670e+04        0
       0        0        0

-1.621631e+05 1.181679e+05        0
1.181679e+05 -6.433868e+04        0
       0        0        0

-3.579316e+05 1.086101e+05        0
1.086101e+05 -6.449039e+04        0
       0        0        0

-5.538089e+05 8.951314e+04        0
8.951314e+04 -6.480056e+04        0
       0        0        0

-7.497927e+05 6.088045e+04        0
6.088045e+04 -6.526688e+04        0
       0        0        0

-9.458793e+05 2.271566e+04        0
2.271566e+04 -6.588599e+04        0
       0        0        0

7.675110e+05 2.274047e+04        0
2.274047e+04 -7.049322e+04        0
       0        0        0

5.819003e+05 6.093275e+04        0
6.093275e+04 -6.980263e+04        0
       0        0        0

3.961678e+05 8.956814e+04        0
8.956814e+04 -6.927874e+04        0
       0        0        0

2.103102e+05 1.086501e+05        0
1.086501e+05 -6.892489e+04        0
       0        0        0

2.432533e+04 1.181822e+05        0
1.181822e+05 -6.874330e+04        0
       0        0        0

-1.617878e+05 1.181680e+05        0
1.181680e+05 -6.873502e+04        0
       0        0        0

-3.480291e+05 1.086108e+05        0
1.086108e+05 -6.889997e+04        0
       0        0        0

-5.343974e+05 8.951423e+04        0
8.951423e+04 -6.923694e+04        0
       0        0        0

-7.208903e+05 6.088152e+04        0
6.088152e+04 -6.974360e+04        0
       0        0        0

-9.075042e+05 2.271618e+04        0
2.271618e+04 -7.041652e+04        0
       0        0        0

7.200724e+05 2.273979e+04        0
2.273979e+04 -7.493253e+04        0
       0        0        0

5.440763e+05 6.093127e+04        0
6.093127e+04 -7.419075e+04        0
       0        0        0

3.679410e+05 8.956651e+04        0
8.956651e+04 -7.362845e+04        0
       0        0        0

1.916633e+05 1.086488e+05        0
1.086488e+05 -7.324893e+04        0
       0        0        0

1.524096e+04 1.181815e+05        0
1.181815e+05 -7.305439e+04        0
       0        0        0

-1.613270e+05 1.181680e+05        0
1.181680e+05 -7.304593e+04        0
       0        0        0

-3.380404e+05 1.086115e+05        0
1.086115e+05 -7.322353e+04        0
       0        0        0

-5.148980e+05 8.951536e+04        0
8.951536e+04 -7.358601e+04        0
       0        0        0

-6.918974e+05 6.088267e+04        0
6.088267e+04 -7.413105e+04        0
       0        0        0

-8.690352e+05 2.271674e+04        0
2.271674e+04 -7.485515e+04        0
       0        0        0

6.727497e+05 2.273916e+04        0
2.273916e+04 -7.925867e+04        0
       0        0        0

5.063644e+05 6.092988e+04        0
6.092988e+04 -7.846847e+04        0
       0        0        0

3.398236e+05 8.956492e+04        0
8.956492e+04 -7.786987e+04        0
       0        0        0

1.731238e+05 1.086474e+05        0
1.086474e+05 -7.746609e+04        0
       0        0        0

6.262855e+03 1.181807e+05        0
1.181807e+05 -7.725932e+04        0
       0        0        0

-1.607601e+05 1.181679e+05        0
1.181679e+05 -7.725072e+04        0
       0        0        0

-3.279449e+05 1.086122e+05        0
1.086122e+05 -7.744034e+04        0
       0        0        0

-4.952901e+05 8.951654e+04        0
8.951654e+04 -7.782705e+04        0
       0        0        0

-6.627934e+05 6.088391e+04        0
6.088391e+04 -7.840853e+04        0
       0        0        0

-8.304515e+05 2.271736e+04        0
2.271736e+04 -7.918119e+04        0
       0        0        0

6.255623e+05 2.273860e+04        0
2.273860e+04 -8.345207e+04        0
       0        0        0

4.687842e+05 6.092862e+04        0
6.092862e+04 -8.261626e+04        0
       0        0        0

3.118351e+05 8.956337e+04        0
8.956337e+04 -8.198347e+04        0
       0        0        0

1.547113e+05 1.086460e+05        0
1.086460e+05 -8.155683e+04        0
       0        0        0

-2.589359e+03 1.181797e+05        0
1.181797e+05 -8.133853e+04        0
       0        0        0

-1.600676e+05 1.181677e+05        0
1.181677e+05 -8.132980e+04        0
       0        0        0

-3.177230e+05 1.086128e+05        0
1.086128e+05 -8.153077e+04        0
       0        0        0

-4.755542e+05 8.951776e+04        0
8.951776e+04 -8.194041e+04        0
       0        0        0

-6.335586e+05 6.088528e+04        0
6.088528e+04 -8.255640e+04        0
       0        0        0

-7.917333e+05 2.271805e+04        0
2.271805e+04 -8.337506e+04        0
       0        0        0

5.785287e+05 2.273818e+04        0
2.273818e+04 -8.749423e+04        0
       0        0        0

4.313543e+05 6.092753e+04        0
6.092753e+04 -8.661563e+04        0
       0        0        0

2.839942e+05 8.956188e+04        0
8.956188e+04 -8.595076e+04        0
       0        0        0

1.364444e+05 1.086444e+05        0
1.086444e+05 -8.550264e+04        0
       0        0        0

-1.129715e+04 1.181785e+05        0
1.181785e+05 -8.527351e+04        0
       0        0        0

-1.592310e+05 1.181672e+05        0
1.181672e+05 -8.526467e+04        0
       0        0        0

-3.073565e+05 1.086132e+05        0
1.086132e+05 -8.547634e+04        0
       0        0        0

-4.556718e+05 8.951903e+04        0
8.951903e+04 -8.590759e+04        0
       0        0        0

-6.041746e+05 6.088682e+04        0
6.088682e+04 -8.655613e+04        0
       0        0        0

-7.528621e+05 2.271887e+04        0
2.271887e+04 -8.741824e+04        0
       0        0        0

5.316659e+05 2.273796e+04        0
2.273796e+04 -9.136773e+04        0
       0        0        0

3.940921e+05 6.092665e+04        0
6.092665e+04 -9.044914e+04        0
       0        0        0

2.563185e+05 8.956037e+04        0
8.956037e+04 -8.975421e+04        0
       0        0        0

1.183407e+05 1.086427e+05        0
1.086427e+05 -8.928595e+04        0
       0        0        0

-1.984307e+04 1.181772e+05        0
1.181772e+05 -8.904678e+04        0
       0        0        0

-1.582330e+05 1.181666e+05        0
1.181666e+05 -8.903801e+04        0
       0        0        0

-2.968279e+05 1.086135e+05        0
1.086135e+05 -8.925982e+04        0
       0        0        0

-4.356258e+05 8.952028e+04        0
8.952028e+04 -8.971130e+04        0
       0        0        0

-5.746241e+05 6.088856e+04        0
6.088856e+04 -9.039036e+04        0
       0        0        0

-7.138202e+05 2.271990e+04        0
2.271990e+04 -9.129330e+04        0
       0        0        0

4.849900e+05 2.273797e+04        0
2.273797e+04 -9.505620e+04        0
       0        0        0

3.570143e+05 6.092579e+04        0
6.092579e+04 -9.410016e+04        0
       0        0        0

2.288244e+05 8.955864e+04        0
8.955864e+04 -9.337685e+04        0
       0        0        0

1.004164e+05 1.086409e+05        0
1.086409e+05 -9.288977e+04        0
       0        0        0

-2.821088e+04 1.181759e+05        0
1.181759e+05 -9.264174e+04        0
       0        0        0

-1.570571e+05 1.181660e+05        0
1.181660e+05 -9.263383e+04        0
       0        0        0

-2.861210e+05 1.086137e+05        0
1.086137e+05 -9.286559e+04        0
       0        0        0

-4.154000e+05 8.952132e+04        0
8.952132e+04 -9.333587e+04        0
       0        0        0

-5.448909e+05 6.089033e+04        0
6.089033e+04 -9.404304e+04        0
       0        0        0

-6.745910e+05 2.272115e+04        0
2.272115e+04 -9.498392e+04        0
       0        0        0

4.385166e+05 2.273799e+04        0
2.273799e+04 -9.854417e+04        0
       0        0        0

3.201365e+05 6.092414e+04        0
6.092414e+04 -9.755246e+04        0
       0        0        0

2.015270e+05 8.955606e+04        0
8.955606e+04 -9.680158e+04        0
       0        0        0

8.268603e+04 1.086394e+05        0
1.086394e+05 -9.629696e+04        0
       0        0        0

-3.638574e+04 1.181761e+05        0
1.181761e+05 -9.604238e+04        0
       0        0        0

-1.556879e+05 1.181669e+05        0
1.181669e+05 -9.603773e+04        0
       0        0        0

-2.752198e+05 1.086142e+05        0
1.086142e+05 -9.628035e+04        0
       0        0        0

-3.949790e+05 8.952151e+04        0
8.952151e+04 -9.676792e+04        0
       0        0        0

-5.149603e+05 6.089131e+04        0
6.089131e+04 -9.749984e+04        0
       0        0        0

-6.351592e+05 2.272242e+04        0
2.272242e+04 -9.847497e+04        0
       0        0        0

3.922608e+05 2.273705e+04        0
2.273705e+04 -1.018168e+05        0
       0        0        0

2.834737e+05 6.091919e+04        0
6.091919e+04 -1.007893e+05        0
       0        0        0

1.744389e+05 8.955105e+04        0
8.955105e+04 -1.000095e+05        0
       0        0        0

6.516110e+04 1.086394e+05        0
1.086394e+05 -9.948869e+04        0
       0        0        0

-4.435483e+04 1.181814e+05        0
1.181814e+05 -9.923260e+04        0
       0        0        0

-1.541099e+05 1.181730e+05        0
1.181730e+05 -9.923761e+04        0
       0        0        0

-2.641077e+05 1.086162e+05        0
1.086162e+05 -9.949476e+04        0
       0        0        0

-3.743471e+05 8.951926e+04        0
8.951926e+04 -9.999812e+04        0
       0        0        0

-4.848187e+05 6.088898e+04        0
6.088898e+04 -1.007492e+05        0
       0        0        0

-5.955117e+05 2.272272e+04        0
2.272272e+04 -1.017527e+05        0
       0        0        0

3.462408e+05 2.273213e+04        0
2.273213e+04 -1.048597e+05        0
       0        0        0

2.470402e+05 6.090436e+04        0
6.090436e+04 -1.037913e+05        0
       0        0        0

1.475679e+05 8.954000e+04        0
8.954000e+04 -1.029768e+05        0
       0        0        0

4.784703e+04 1.086446e+05        0
1.086446e+05 -1.024414e+05        0
       0        0        0

-5.210863e+04 1.182015e+05        0
1.182015e+05 -1.021951e+05        0
       0        0        0

-1.523067e+05 1.181938e+05        0
1.181938e+05 -1.022248e+05        0
       0        0        0

-2.527642e+05 1.086235e+05        0
1.086235e+05 -1.025064e+05        0
       0        0        0

-3.534862e+05 8.951097e+04        0
8.951097e+04 -1.030244e+05        0
       0        0        0

-4.544545e+05 6.087678e+04        0
6.087678e+04 -1.037842e+05        0
       0        0        0

-5.556398e+05 2.271906e+04        0
2.271906e+04 -1.048051e+05        0
       0        0        0

3.004822e+05 2.271540e+04        0
2.271540e+04 -1.076574e+05        0
       0        0        0

2.108492e+05 6.086438e+04        0
6.086438e+04 -1.065334e+05        0
       0        0        0

1.209111e+05 8.951548e+04        0
8.951548e+04 -1.056691e+05        0
       0        0        0

3.073689e+04 1.086641e+05        0
1.086641e+05 -1.051219e+05        0
       0        0        0

-5.964359e+04 1.182578e+05        0
1.182578e+05 -1.049091e+05        0
       0        0        0

-1.502580e+05 1.182509e+05        0
1.182509e+05 -1.049962e+05        0
       0        0        0

-2.411587e+05 1.086450e+05        0
1.086450e+05 -1.053250e+05        0
       0        0        0

-3.323701e+05 8.948922e+04        0
8.948922e+04 -1.058577e+05        0
       0        0        0

-4.238571e+05 6.083944e+04        0
6.083944e+04 -1.066065e+05        0
       0        0        0

-5.155449e+05 2.270357e+04        0
2.270357e+04 -1.076228e+05        0
       0        0        0

2.550301e+05 2.266861e+04        0
2.266861e+04 -1.101929e+05        0
       0        0        0

1.749112e+05 6.076690e+04        0
6.076690e+04 -1.089786e+05        0
       0        0        0

9.444391e+04 8.946364e+04        0
8.946364e+04 -1.080333e+05        0
       0        0        0

1.379926e+04 1.087177e+05        0
1.087177e+05 -1.074805e+05        0
       0        0        0

-6.696703e+04 1.183950e+05        0
1.183950e+05 -1.073481e+05        0
       0        0        0

-1.479346e+05 1.183887e+05        0
1.183887e+05 -1.075565e+05        0
       0        0        0

-2.292386e+05 1.087006e+05        0
1.087006e+05 -1.079790e+05        0
       0        0        0

-3.109537e+05 8.944015e+04        0
8.944015e+04 -1.085307e+05        0
       0        0        0

-3.930165e+05 6.074461e+04        0
6.074461e+04 -1.092323e+05        0
       0        0        0

-4.752499e+05 2.265805e+04        0
2.265805e+04 -1.102010e+05        0
       0        0        0

2.099706e+05 2.255312e+04        0
2.255312e+04 -1.124452e+05        0
       0        0        0

1.392276e+05 6.054967e+04        0
6.054967e+04 -1.110721e+05        0
       0        0        0

6.809779e+04 8.936203e+04        0
8.936203e+04 -1.099897e+05        0
       0        0        0

-3.042241e+03 1.088455e+05        0
1.088455e+05 -1.094456e+05        0
       0        0        0

-7.410480e+04 1.186961e+05        0
1.186961e+05 -1.094776e+05        0
       0        0        0

-1.452898e+05 1.186906e+05        0
1.186906e+05 -1.099193e+05        0
       0        0        0

-2.169086e+05 1.088304e+05        0
1.088304e+05 -1.105208e+05        0
       0        0        0

-2.891518e+05 8.934131e+04        0
8.934131e+04 -1.111065e+05        0
       0        0        0

-3.619183e+05 6.053006e+04        0
6.053006e+04 -1.117009e+05        0
       0        0        0

-4.348223e+05 2.254384e+04        0
2.254384e+04 -1.125422e+05        0
       0        0        0

1.654675e+05 2.229389e+04        0
2.229389e+04 -1.143894e+05        0
       0        0        0

1.037756e+05 6.010634e+04        0
6.010634e+04 -1.127379e+05        0
       0        0        0

4.172431e+04 8.918286e+04        0
8.918286e+04 -1.114370e+05        0
       0        0        0

-1.993678e+04 1.091212e+05        0
1.091212e+05 -1.109352e+05        0
       0        0        0

-8.111034e+04 1.192970e+05        0
1.192970e+05 -1.112604e+05        0
       0        0        0

-1.422485e+05 1.192922e+05        0
1.192922e+05 -1.121002e+05        0
       0        0        0

-2.040020e+05 1.091080e+05        0
1.091080e+05 -1.130151e+05        0
       0        0        0

-2.668048e+05 8.916494e+04        0
8.916494e+04 -1.136749e+05        0
       0        0        0

-3.305324e+05 6.008945e+04        0
6.008945e+04 -1.140807e+05        0
       0        0        0

-3.944154e+05 2.228593e+04        0
2.228593e+04 -1.146608e+05        0
       0        0        0

1.218143e+05 2.175987e+04        0
2.175987e+04 -1.160001e+05        0
       0        0        0

6.846987e+04 5.928775e+04        0
5.928775e+04 -1.139016e+05        0
       0        0        0

1.504772e+04 8.891654e+04        0
8.891654e+04 -1.123084e+05        0
       0        0        0

-3.712663e+04 1.096611e+05        0
1.096611e+05 -1.119238e+05        0
       0        0        0

-8.806581e+04 1.203706e+05        0
1.203706e+05 -1.126851e+05        0
       0        0        0

-1.387020e+05 1.203666e+05        0
1.203666e+05 -1.140839e+05        0
       0        0        0

-1.902584e+05 1.096500e+05        0
1.096500e+05 -1.154692e+05        0
       0        0        0

-2.436325e+05 8.890145e+04        0
8.890145e+04 -1.162985e+05        0
       0        0        0

-2.987811e+05 5.927361e+04        0
5.927361e+04 -1.164538e+05        0
       0        0        0

-3.543299e+05 2.175326e+04        0
2.175326e+04 -1.165895e+05        0
       0        0        0

7.947511e+04 2.075679e+04        0
2.075679e+04 -1.172821e+05        0
       0        0        0

3.307861e+04 5.797448e+04        0
5.797448e+04 -1.145899e+05        0
       0        0        0

-1.236398e+04 8.865060e+04        0
8.865060e+04 -1.127886e+05        0
       0        0        0

-5.490068e+04 1.106013e+05        0
1.106013e+05 -1.126577e+05        0
       0        0        0

-9.504952e+04 1.220074e+05        0
1.220074e+05 -1.138552e+05        0
       0        0        0

-1.345318e+05 1.220041e+05        0
1.220041e+05 -1.157268e+05        0
       0        0        0

-1.753640e+05 1.105923e+05        0
1.105923e+05 -1.176119e+05        0
       0        0        0

-2.192067e+05 8.863841e+04        0
8.863841e+04 -1.187963e+05        0
       0        0        0

-2.664684e+05 5.796313e+04        0
5.796313e+04 -1.188293e+05        0
       0        0        0

-3.150783e+05 2.075156e+04        0
2.075156e+04 -1.183719e+05        0
       0        0        0

3.901599e+04 1.910250e+04        0
1.910250e+04 -1.183311e+05        0
       0        0        0

-2.945848e+03 5.638064e+04        0
5.638064e+04 -1.153386e+05        0
       0        0        0

-4.097167e+04 8.874194e+04        0
8.874194e+04 -1.139164e+05        0
       0        0        0

-7.334321e+04 1.119428e+05        0
1.119428e+05 -1.141994e+05        0
       0        0        0

-1.020045e+05 1.238170e+05        0
1.238170e+05 -1.151847e+05        0
       0        0        0

-1.297257e+05 1.238147e+05        0
1.238147e+05 -1.165458e+05        0
       0        0        0

-1.591896e+05 1.119363e+05        0
1.119363e+05 -1.183359e+05        0
       0        0        0

-1.930733e+05 8.873286e+04        0
8.873286e+04 -1.201363e+05        0
       0        0        0

-2.331279e+05 5.637210e+04        0
5.637210e+04 -1.207526e+05        0
       0        0        0

-2.773665e+05 1.909865e+04        0
1.909865e+04 -1.200521e+05        0
       0        0        0

5.231373e+02 1.710271e+04        0
1.710271e+04 -1.199684e+05        0
       0        0        0

-4.055905e+04 5.592265e+04        0
5.592265e+04 -1.183223e+05        0
       0        0        0

-7.064229e+04 9.001307e+04        0
9.001307e+04 -1.192609e+05        0
       0        0        0

-9.160230e+04 1.128998e+05        0
1.128998e+05 -1.193451e+05        0
       0        0        0

-1.084794e+05 1.240404e+05        0
1.240404e+05 -1.176210e+05        0
       0        0        0

-1.246150e+05 1.240392e+05        0
1.240392e+05 -1.154735e+05        0
       0        0        0

-1.424954e+05 1.128964e+05        0
1.128964e+05 -1.147535e+05        0
       0        0        0

-1.653498e+05 9.000769e+04        0
9.000769e+04 -1.167342e+05        0
       0        0        0

-1.979384e+05 5.591692e+04        0
5.591692e+04 -1.201834e+05        0
       0        0        0

-2.416133e+05 1.710010e+04        0
1.710010e+04 -1.211411e+05        0
       0        0        0

-3.838761e+04 1.780089e+04        0
1.780089e+04 -1.241547e+05        0
       0        0        0

-8.056436e+04 6.133461e+04        0
6.133461e+04 -1.329180e+05        0
       0        0        0

-9.823382e+04 9.241439e+04        0
9.241439e+04 -1.376493e+05        0
       0        0        0

-1.069300e+05 1.101518e+05        0
1.101518e+05 -1.330247e+05        0
       0        0        0

-1.134903e+05 1.182691e+05        0
1.182691e+05 -1.226658e+05        0
       0        0        0

-1.199857e+05 1.182695e+05        0
1.182695e+05 -1.108102e+05        0
       0        0        0

-1.278481e+05 1.101525e+05        0
1.101525e+05 -1.017531e+05        0
       0        0        0

-1.390688e+05 9.241419e+04        0
9.241419e+04 -9.965334e+04        0
       0        0        0

-1.602170e+05 6.133242e+04        0
6.133242e+04 -1.078653e+05        0
       0        0        0

-2.060741e+05 1.779909e+04        0
1.779909e+04 -1.203165e+05        0
       0        0        0

-9.041233e+04 4.054631e+04        0
4.054631e+04 -1.562834e+05        0
       0        0        0

-1.138421e+05 7.593486e+04        0
7.593486e+04 -1.858540e+05        0
       0        0        0

-1.150719e+05 8.920336e+04        0
8.920336e+04 -1.817339e+05        0
       0        0        0

-1.153875e+05 9.571255e+04        0
9.571255e+04 -1.608398e+05        0
       0        0        0

-1.157490e+05 9.856240e+04        0
9.856240e+04 -1.317916e+05        0
       0        0        0

-1.168367e+05 9.856429e+04        0
9.856429e+04 -1.007938e+05        0
       0        0        0

-1.188659e+05 9.571772e+04        0
9.571772e+04 -7.341105e+04        0
       0        0        0

-1.225609e+05 8.921016e+04        0
8.921016e+04 -5.589333e+04        0
       0        0        0

-1.289065e+05 7.594047e+04        0
7.594047e+04 -5.688869e+04        0
       0        0        0

-1.586523e+05 4.054609e+04        0
4.054609e+04 -9.278144e+04        0
       0        0        0

POINT_DATA     451
VECTORS DISPLACEMENT_4.400000e-01 double
0.000000e+00    0.000000e+00    0.000000e+00
0.000000e+00    0.000000e+00    0.000000e+00
0.000000e+00    0.000000e+00    0.000000e+00
0.000000e+00    0.000000e+00    0.000000e+00
0.000000e+00    0.000000e+00    0.000000e+00
0.000000e+00    0.000000e+00    0.000000e+00
0.000000e+00    0.000000e+00    0.000000e+00
0.000000e+00    0.000000e+00    0.000000e+00
0.000000e+00    0.000000e+00    0.000000e+00
0.000000e+00    0.000000e+00    0.000000e+00
0.000000e+00    0.000000e+00    0.000000e+00
-1.141596e-06    -8.299610e-07    0.000000e+00
-7.233452e-07    -4.163097e-07    0.000000e+00
-5.161147e-07    -2.157262e-07    0.000000e+00
-3.332234e-07    -1.068319e-07    0.000000e+00
-1.642864e-07    -5.047432e-08    0.000000e+00
-3.224711e-20    -3.295150e-08    0.000000e+00
1.642864e-07    -5.047432e-08    0.000000e+00
3.332234e-07    -1.068319e-07    0.000000e+00
5.161147e-07    -2.157262e-07    0.000000e+00
7.233452e-07    -4.163097e-07    0.000000e+00
1.141596e-06    -8.299610e-07    0.000000e+00
-2.153942e-06    -1.380310e-06    0.000000e+00
-1.574436e-06    -9.987674e-07    0.000000e+00
-1.105093e-06    -7.015536e-07    0.000000e+00
-7.128296e-07    -5.177063e-07    0.000000e+00
-3.501025e-07    -4.175301e-07    0.000000e+00
-6.815886e-20    -3.857105e-07    0.000000e+00
3.501025e-07    -4.175301e-07    0.000000e+00
7.128296e-07    -5.177063e-07    0.000000e+00
1.105093e-06    -7.015536e-07    0.000000e+00
1.574436e-06    -9.987674e-07    0.000000e+00
2.153942e-06    -1.380310e-06    0.000000e+00
-3.132429e-06    -2.064636e-06    0.000000e+00
-2.394169e-06    -1.682258e-06    0.000000e+00
-1.722703e-06    -1.380762e-06    0.000000e+00
-1.115241e-06    -1.168097e-06    0.000000e+00
-5.487492e-07    -1.045522e-06    0.000000e+00
-1.073780e-19    -1.005594e-06    0.000000e+00
5.487492e-07    -1.045522e-06    0.000000e+00
1.115241e-06    -1.168097e-06    0.000000e+00
1.722703e-06    -1.380762e-06    0.000000e+00
2.394169e-06    -1.682258e-06    0.000000e+00
3.132429e-06    -2.064636e-06    0.000000e+00
-4.100078e-06    -2.909174e-06    0.000000e+00
-3.186878e-06    -2.535524e-06    0.000000e+00
-2.326960e-06    -2.239055e-06    0.000000e+00
-1.519409e-06    -2.025106e-06    0.000000e+00
-7.500561e-07    -1.896685e-06    0.000000e+00
-1.483565e-19    -1.854102e-06    0.000000e+00
7.500561e-07    -1.896685e-06    0.000000e+00
1.519409e-06    -2.025106e-06    0.000000e+00
2.326960e-06    -2.239055e-06    0.000000e+00
3.186878e-06    -2.535524e-06    0.000000e+00
4.100078e-06    -2.909174e-06    0.000000e+00
-5.051343e-06    -3.936656e-06    0.000000e+00
-3.956479e-06    -3.571727e-06    0.000000e+00
-2.911988e-06    -3.284210e-06    0.000000e+00
-1.912866e-06    -3.075891e-06    0.000000e+00
-9.475505e-07    -2.949779e-06    0.000000e+00
-1.905295e-19    -2.907566e-06    0.000000e+00
9.475505e-07    -2.949779e-06    0.000000e+00
1.912866e-06    -3.075891e-06    0.000000e+00
2.911988e-06    -3.284210e-06    0.000000e+00
3.956479e-06    -3.571727e-06    0.000000e+00
5.051343e-06    -3.936656e-06    0.000000e+00
-5.981876e-06    -5.149745e-06    0.000000e+00
-4.704515e-06    -4.794471e-06    0.000000e+00
-3.477741e-06    -4.516045e-06    0.000000e+00
-2.292923e-06    -4.315098e-06    0.000000e+00
-1.138485e-06    -4.193471e-06    0.000000e+00
-2.333576e-19    -4.152742e-06    0.000000e+00
1.138485e-06    -4.193471e-06    0.000000e+00
2.292923e-06    -4.315098e-06    0.000000e+00
3.477741e-06    -4.516045e-06    0.000000e+00
4.704515e-06    -4.794471e-06    0.000000e+00
5.981876e-06    -5.149745e-06    0.000000e+00
-6.888562e-06    -6.546380e-06    0.000000e+00
-5.431257e-06    -6.201158e-06    0.000000e+00
-4.025296e-06    -5.931593e-06    0.000000e+00
-2.659770e-06    -5.737832e-06    0.000000e+00
-1.322562e-06    -5.620889e-06    0.000000e+00
-2.738828e-19    -5.581773e-06    0.000000e+00
1.322562e-06    -5.620889e-06    0.000000e+00
2.659770e-06    -5.737832e-06    0.000000e+00
4.025296e-06    -5.931593e-06    0.000000e+00
5.431257e-06    -6.201158e-06    0.000000e+00
6.888562e-06    -6.546380e-06    0.000000e+00
-7.769680e-06    -8.122144e-06    0.000000e+00
-6.136613e-06    -7.787209e-06    0.000000e+00
-4.555512e-06    -7.526214e-06    0.000000e+00
-3.014228e-06    -7.339161e-06    0.000000e+00
-1.500174e-06    -7.226547e-06    0.000000e+00
-3.132698e-19    -7.188932e-06    0.000000e+00
1.500174e-06    -7.226547e-06    0.000000e+00
3.014228e-06    -7.339161e-06    0.000000e+00
4.555512e-06    -7.526214e-06    0.000000e+00
6.136613e-06    -7.787209e-06    0.000000e+00
7.769680e-06    -8.122144e-06    0.000000e+00
-8.624343e-06    -9.871843e-06    0.000000e+00
-6.820453e-06    -9.547306e-06    0.000000e+00
-5.068915e-06    -9.294682e-06    0.000000e+00
-3.356975e-06    -9.113940e-06    0.000000e+00
-1.671745e-06    -9.005305e-06    0.000000e+00
-3.546686e-19    -8.969054e-06    0.000000e+00
1.671745e-06    -9.005305e-06    0.000000e+00
3.356975e-06    -9.113940e-06    0.000000e+00
5.068915e-06    -9.294682e-06    0.000000e+00
6.820453e-06    -9.547306e-06    0.000000e+00
8.624343e-06    -9.871843e-06    0.000000e+00
-9.452133e-06    -1.179003e-05    0.000000e+00
-7.482682e-06    -1.147594e-05    0.000000e+00
-5.565793e-06    -1.123157e-05    0.000000e+00
-3.688439e-06    -1.105689e-05    0.000000e+00
-1.837569e-06    -1.095200e-05    0.000000e+00
-3.957761e-19    -1.091702e-05    0.000000e+00
1.837569e-06    -1.095200e-05    0.000000e+00
3.688439e-06    -1.105689e-05    0.000000e+00
5.565793e-06    -1.123157e-05    0.000000e+00
7.482682e-06    -1.147594e-05    0.000000e+00
9.452133e-06    -1.179003e-05    0.000000e+00
-1.025287e-05    -1.387121e-05    0.000000e+00
-8.123246e-06    -1.356758e-05    0.000000e+00
-6.046286e-06    -1.333140e-05    0.000000e+00
-4.008852e-06    -1.316266e-05    0.000000e+00
-1.997815e-06    -1.306137e-05    0.000000e+00
-4.316162e-19    -1.302760e-05    0.000000e+00
1.997815e-06    -1.306137e-05    0.000000e+00
4.008852e-06    -1.316266e-05    0.000000e+00
6.046286e-06    -1.333140e-05    0.000000e+00
8.123246e-06    -1.356758e-05    0.000000e+00
1.025287e-05    -1.387121e-05    0.000000e+00
-1.102649e-05    -1.610990e-05    0.000000e+00
-8.742117e-06    -1.581674e-05    0.000000e+00
-6.510455e-06    -1.558872e-05    0.000000e+00
-4.318327e-06    -1.542584e-05    0.000000e+00
-2.152567e-06    -1.532810e-05    0.000000e+00
-4.680916e-19    -1.529551e-05    0.000000e+00
2.152567e-06    -1.532810e-05    0.000000e+00
4.318327e-06    -1.542584e-05    0.000000e+00
6.510455e-06    -1.558872e-05    0.000000e+00
8.742117e-06    -1.581674e-05    0.000000e+00
1.102649e-05    -1.610990e-05    0.000000e+00
-1.177296e-05    -1.850063e-05    0.000000e+00
-9.339281e-06    -1.821794e-05    0.000000e+00
-6.958328e-06    -1.799807e-05    0.000000e+00
-4.616916e-06    -1.784102e-05    0.000000e+00
-2.301866e-06    -1.774679e-05    0.000000e+00
-5.087492e-19    -1.771538e-05    0.000000e+00
2.301866e-06    -1.774679e-05    0.000000e+00
4.616916e-06    -1.784102e-05    0.000000e+00
6.958328e-06    -1.799807e-05    0.000000e+00
9.339281e-06    -1.821794e-05    0.000000e+00
1.177296e-05    -1.850063e-05    0.000000e+00
-1.249229e-05    -2.103795e-05    0.000000e+00
-9.914732e-06    -2.076574e-05    0.000000e+00
-7.389913e-06    -2.055401e-05    0.000000e+00
-4.904639e-06    -2.040278e-05    0.000000e+00
-2.445729e-06    -2.031205e-05    0.000000e+00
-5.349013e-19    -2.028180e-05    0.000000e+00
2.445729e-06    -2.031205e-05    0.000000e+00
4.904639e-06    -2.040278e-05    0.000000e+00
7.389913e-06    -2.055401e-05    0.000000e+00
9.914732e-06    -2.076574e-05    0.000000e+00
1.249229e-05    -2.103795e-05    0.000000e+00
-1.318446e-05    -2.371643e-05    0.000000e+00
-1.046847e-05    -2.345469e-05    0.000000e+00
-7.805212e-06    -2.325111e-05    0.000000e+00
-5.181504e-06    -2.310569e-05    0.000000e+00
-2.584161e-06    -2.301845e-05    0.000000e+00
-5.578771e-19    -2.298937e-05    0.000000e+00
2.584161e-06    -2.301845e-05    0.000000e+00
5.181504e-06    -2.310569e-05    0.000000e+00
7.805212e-06    -2.325111e-05    0.000000e+00
1.046847e-05    -2.345469e-05    0.000000e+00
1.318446e-05    -2.371643e-05    0.000000e+00
-1.384949e-05    -2.653063e-05    0.000000e+00
-1.100049e-05    -2.627936e-05    0.000000e+00
-8.204226e-06    -2.608392e-05    0.000000e+00
-5.447512e-06    -2.594433e-05    0.000000e+00
-2.717165e-06    -2.586057e-05    0.000000e+00
-5.739707e-19    -2.583265e-05    0.000000e+00
2.717165e-06    -2.586057e-05    0.000000e+00
5.447512e-06    -2.594433e-05    0.000000e+00
8.204226e-06    -2.608392e-05    0.000000e+00
1.100049e-05    -2.627936e-05    0.000000e+00
1.384949e-05    -2.653063e-05    0.000000e+00
-1.448738e-05    -2.947513e-05    0.000000e+00
-1.151080e-05    -2.923432e-05    0.000000e+00
-8.586954e-06    -2.904703e-05    0.000000e+00
-5.702663e-06    -2.891325e-05    0.000000e+00
-2.844740e-06    -2.883298e-05    0.000000e+00
-5.768294e-19    -2.880622e-05    0.000000e+00
2.844740e-06    -2.883298e-05    0.000000e+00
5.702663e-06    -2.891325e-05    0.000000e+00
8.586954e-06    -2.904703e-05    0.000000e+00
1.151080e-05    -2.923432e-05    0.000000e+00
1.448738e-05    -2.947513e-05    0.000000e+00
-1.509812e-05    -3.254448e-05    0.000000e+00
-1.199939e-05    -3.231415e-05    0.000000e+00
-8.953397e-06    -3.213500e-05    0.000000e+00
-5.946958e-06    -3.200703e-05    0.000000e+00
-2.966887e-06    -3.193025e-05    0.000000e+00
-5.910172e-19    -3.190466e-05    0.000000e+00
2.966887e-06    -3.193025e-05    0.000000e+00
5.946958e-06    -3.200703e-05    0.000000e+00
8.953397e-06    -3.213500e-05    0.000000e+00
1.199939e-05    -3.231415e-05    0.000000e+00
1.509812e-05    -3.254448e-05    0.000000e+00
-1.568171e-05    -3.573327e-05    0.000000e+00
-1.246626e-05    -3.551340e-05    0.000000e+00
-9.303553e-06    -3.534240e-05    0.000000e+00
-6.180395e-06    -3.522025e-05    0.000000e+00
-3.083606e-06    -3.514696e-05    0.000000e+00
-6.179105e-19    -3.512253e-05    0.000000e+00
3.083606e-06    -3.514696e-05    0.000000e+00
6.180395e-06    -3.522025e-05    0.000000e+00
9.303553e-06    -3.534240e-05    0.000000e+00
1.246626e-05    -3.551340e-05    0.000000e+00
1.568171e-05    -3.573327e-05    0.000000e+00
-1.623816e-05    -3.903606e-05    0.000000e+00
-1.291142e-05    -3.882667e-05    0.000000e+00
-9.637424e-06    -3.866380e-05    0.000000e+00
-6.402976e-06    -3.854747e-05    0.000000e+00
-3.194896e-06    -3.847767e-05    0.000000e+00
-6.659797e-19    -3.845441e-05    0.000000e+00
3.194896e-06    -3.847767e-05    0.000000e+00
6.402976e-06    -3.854747e-05    0.000000e+00
9.637424e-06    -3.866380e-05    0.000000e+00
1.291142e-05    -3.882667e-05    0.000000e+00
1.623816e-05    -3.903606e-05    0.000000e+00
-1.676747e-05    -4.244743e-05    0.000000e+00
-1.333487e-05    -4.224850e-05    0.000000e+00
-9.955008e-06    -4.209378e-05    0.000000e+00
-6.614698e-06    -4.198327e-05    0.000000e+00
-3.300757e-06    -4.191696e-05    0.000000e+00
-7.263308e-19    -4.189486e-05    0.000000e+00
3.300757e-06    -4.191696e-05    0.000000e+00
6.614698e-06    -4.198327e-05    0.000000e+00
9.955008e-06    -4.209378e-05    0.000000e+00
1.333487e-05    -4.224850e-05    0.000000e+00
1.676747e-05    -4.244743e-05    0.000000e+00
-1.726963e-05    -4.596195e-05    0.000000e+00
-1.373660e-05    -4.577349e-05    0.000000e+00
-1.025631e-05    -4.562691e-05    0.000000e+00
-6.815563e-06    -4.552221e-05    0.000000e+00
-3.401190e-06    -4.545940e-05    0.000000e+00
-7.754587e-19    -4.543846e-05    0.000000e+00
3.401190e-06    -4.545940e-05    0.000000e+00
6.815563e-06    -4.552221e-05    0.000000e+00
1.025631e-05    -4.562691e-05    0.000000e+00
1.373660e-05    -4.577349e-05    0.000000e+00
1.726963e-05    -4.596195e-05    0.000000e+00
-1.774465e-05    -4.957418e-05    0.000000e+00
-1.411661e-05    -4.939619e-05    0.000000e+00
-1.054132e-05    -4.925776e-05    0.000000e+00
-7.005571e-06    -4.915888e-05    0.000000e+00
-3.496194e-06    -4.909955e-05    0.000000e+00
-8.063754e-19    -4.907977e-05    0.000000e+00
3.496194e-06    -4.909955e-05    0.000000e+00
7.005571e-06    -4.915888e-05    0.000000e+00
1.054132e-05    -4.925776e-05    0.000000e+00
1.411661e-05    -4.939619e-05    0.000000e+00
1.774465e-05    -4.957418e-05    0.000000e+00
-1.819252e-05    -5.327870e-05    0.000000e+00
-1.447491e-05    -5.311119e-05    0.000000e+00
-1.081004e-05    -5.298090e-05    0.000000e+00
-7.184722e-06    -5.288783e-05    0.000000e+00
-3.585769e-06    -5.283199e-05    0.000000e+00
-8.483035e-19    -5.281338e-05    0.000000e+00
3.585769e-06    -5.283199e-05    0.000000e+00
7.184722e-06    -5.288783e-05    0.000000e+00
1.081004e-05    -5.298090e-05    0.000000e+00
1.447491e-05    -5.311119e-05    0.000000e+00
1.819252e-05    -5.327870e-05    0.000000e+00
-1.861325e-05    -5.707009e-05    0.000000e+00
-1.481150e-05    -5.691304e-05    0.000000e+00
-1.106248e-05    -5.679089e-05    0.000000e+00
-7.353015e-06    -5.670364e-05    0.000000e+00
-3.669916e-06    -5.665129e-05    0.000000e+00
-8.574091e-19    -5.663384e-05    0.000000e+00
3.669916e-06    -5.665129e-05    0.000000e+00
7.353015e-06    -5.670364e-05    0.000000e+00
1.106248e-05    -5.679089e-05    0.000000e+00
1.481150e-05    -5.691304e-05    0.000000e+00
1.861325e-05    -5.707009e-05    0.000000e+00
-1.900684e-05    -6.094290e-05    0.000000e+00
-1.512637e-05    -6.079633e-05    0.000000e+00
-1.129863e-05    -6.068232e-05    0.000000e+00
-7.510451e-06    -6.060089e-05    0.000000e+00
-3.748634e-06    -6.055203e-05    0.000000e+00
-8.637618e-19    -6.053574e-05    0.000000e+00
3.748634e-06    -6.055203e-05    0.000000e+00
7.510451e-06    -6.060089e-05    0.000000e+00
1.129863e-05    -6.068232e-05    0.000000e+00
1.512637e-05    -6.079633e-05    0.000000e+00
1.900684e-05    -6.094290e-05    0.000000e+00
-1.937328e-05    -6.489172e-05    0.000000e+00
-1.541952e-05    -6.475561e-05    0.000000e+00
-1.151850e-05    -6.464975e-05    0.000000e+00
-7.657031e-06    -6.457413e-05    0.000000e+00
-3.821924e-06    -6.452876e-05    0.000000e+00
-8.652442e-19    -6.451364e-05    0.000000e+00
3.821924e-06    -6.452876e-05    0.000000e+00
7.657031e-06    -6.457413e-05    0.000000e+00
1.151850e-05    -6.464975e-05    0.000000e+00
1.541952e-05    -6.475561e-05    0.000000e+00
1.937328e-05    -6.489172e-05    0.000000e+00
-1.971257e-05    -6.891111e-05    0.000000e+00
-1.569096e-05    -6.878547e-05    0.000000e+00
-1.172208e-05    -6.868775e-05    0.000000e+00
-7.792753e-06    -6.861795e-05    0.000000e+00
-3.889785e-06    -6.857608e-05    0.000000e+00
-8.521151e-19    -6.856212e-05    0.000000e+00
3.889785e-06    -6.857608e-05    0.000000e+00
7.792753e-06    -6.861795e-05    0.000000e+00
1.172208e-05    -6.868775e-05    0.000000e+00
1.569096e-05    -6.878547e-05    0.000000e+00
1.971257e-05    -6.891111e-05    0.000000e+00
-2.002472e-05    -7.299563e-05    0.000000e+00
-1.594069e-05    -7.288046e-05    0.000000e+00
-1.190938e-05    -7.279089e-05    0.000000e+00
-7.917614e-06    -7.272692e-05    0.000000e+00
-3.952214e-06    -7.268854e-05    0.000000e+00
-8.466094e-19    -7.267575e-05    0.000000e+00
3.952214e-06    -7.268854e-05    0.000000e+00
7.917614e-06    -7.272692e-05    0.000000e+00
1.190938e-05    -7.279089e-05    0.000000e+00
1.594069e-05    -7.288046e-05    0.000000e+00
2.002472e-05    -7.299563e-05    0.000000e+00
-2.030971e-05    -7.713985e-05    0.000000e+00
-1.616870e-05    -7.703515e-05    0.000000e+00
-1.208039e-05    -7.695373e-05    0.000000e+00
-8.031603e-06    -7.689560e-05    0.000000e+00
-4.009200e-06    -7.686075e-05    0.000000e+00
-8.800672e-19    -7.684913e-05    0.000000e+00
4.009200e-06    -7.686075e-05    0.000000e+00
8.031603e-06    -7.689560e-05    0.000000e+00
1.208039e-05    -7.695373e-05    0.000000e+00
1.616870e-05    -7.703515e-05    0.000000e+00
2.030971e-05    -7.713985e-05    0.000000e+00
-2.056758e-05    -8.133831e-05    0.000000e+00
-1.637501e-05    -8.124408e-05    0.000000e+00
-1.223508e-05    -8.117083e-05    0.000000e+00
-8.134689e-06    -8.111859e-05    0.000000e+00
-4.060721e-06    -8.108729e-05    0.000000e+00
-9.198778e-19    -8.107686e-05    0.000000e+00
4.060721e-06    -8.108729e-05    0.000000e+00
8.134689e-06    -8.111859e-05    0.000000e+00
1.223508e-05    -8.117083e-05    0.000000e+00
1.637501e-05    -8.124408e-05    0.000000e+00
2.056758e-05    -8.133831e-05    0.000000e+00
-2.079834e-05    -8.558554e-05    0.000000e+00
-1.655964e-05    -8.550177e-05    0.000000e+00
-1.237344e-05    -8.543674e-05    0.000000e+00
-8.226806e-06    -8.539045e-05    0.000000e+00
-4.106726e-06    -8.536280e-05    0.000000e+00
-9.931461e-19    -8.535360e-05    0.000000e+00
4.106726e-06    -8.536280e-05    0.000000e+00
8.226806e-06    -8.539045e-05    0.000000e+00
1.237344e-05    -8.543674e-05    0.000000e+00
1.655964e-05    -8.550177e-05    0.000000e+00
2.079834e-05    -8.558554e-05    0.000000e+00
-2.100211e-05    -8.987608e-05    0.000000e+00
-1.672261e-05    -8.980274e-05    0.000000e+00
-1.249537e-05    -8.974598e-05    0.000000e+00
-8.307811e-06    -8.970582e-05    0.000000e+00
-4.147109e-06    -8.968196e-05    0.000000e+00
-1.067262e-18    -8.967405e-05    0.000000e+00
4.147109e-06    -8.968196e-05    0.000000e+00
8.307811e-06    -8.970582e-05    0.000000e+00
1.249537e-05    -8.974598e-05    0.000000e+00
1.672261e-05    -8.980274e-05    0.000000e+00
2.100211e-05    -8.987608e-05    0.000000e+00
-2.117913e-05    -9.420444e-05    0.000000e+00
-1.686400e-05    -9.414146e-05    0.000000e+00
-1.260070e-05    -9.409312e-05    0.000000e+00
-8.377431e-06    -9.405935e-05    0.000000e+00
-4.181681e-06    -9.403953e-05    0.000000e+00
-1.100719e-18    -9.403301e-05    0.000000e+00
4.181681e-06    -9.403953e-05    0.000000e+00
8.377431e-06    -9.405935e-05    0.000000e+00
1.260070e-05    -9.409312e-05    0.000000e+00
1.686400e-05    -9.414146e-05    0.000000e+00
2.117913e-05    -9.420444e-05    0.000000e+00
-2.132994e-05    -9.856528e-05    0.000000e+00
-1.698388e-05    -9.851253e-05    0.000000e+00
-1.268909e-05    -9.847281e-05    0.000000e+00
-8.435209e-06    -9.844580e-05    0.000000e+00
-4.210143e-06    -9.843031e-05    0.000000e+00
-1.157047e-18    -9.842528e-05    0.000000e+00
4.210143e-06    -9.843031e-05    0.000000e+00
8.435209e-06    -9.844580e-05    0.000000e+00
1.268909e-05    -9.847281e-05    0.000000e+00
1.698388e-05    -9.851253e-05    0.000000e+00
2.132994e-05    -9.856528e-05    0.000000e+00
-2.145563e-05    -1.029537e-04    0.000000e+00
-1.708236e-05    -1.029109e-04    0.000000e+00
-1.275997e-05    -1.028800e-04    0.000000e+00
-8.480521e-06    -1.028600e-04    0.000000e+00
-4.232144e-06    -1.028490e-04    0.000000e+00
-1.194740e-18    -1.028454e-04    0.000000e+00
4.232144e-06    -1.028490e-04    0.000000e+00
8.480521e-06    -1.028600e-04    0.000000e+00
1.275997e-05    -1.028800e-04    0.000000e+00
1.708236e-05    -1.029109e-04    0.000000e+00
2.145563e-05    -1.029537e-04    0.000000e+00
-2.155818e-05    -1.073661e-04    0.000000e+00
-1.715935e-05    -1.073327e-04    0.000000e+00
-1.281259e-05    -1.073106e-04    0.000000e+00
-8.512907e-06    -1.072970e-04    0.000000e+00
-4.247581e-06    -1.072895e-04    0.000000e+00
-1.149000e-18    -1.072871e-04    0.000000e+00
4.247581e-06    -1.072895e-04    0.000000e+00
8.512907e-06    -1.072970e-04    0.000000e+00
1.281259e-05    -1.073106e-04    0.000000e+00
1.715935e-05    -1.073327e-04    0.000000e+00
2.155818e-05    -1.073661e-04    0.000000e+00
-2.164068e-05    -1.118023e-04    0.000000e+00
-1.721430e-05    -1.117773e-04    0.000000e+00
-1.284671e-05    -1.117621e-04    0.000000e+00
-8.533274e-06    -1.117512e-04    0.000000e+00
-4.257283e-06    -1.117437e-04    0.000000e+00
-1.068109e-18    -1.117410e-04    0.000000e+00
4.257283e-06    -1.117437e-04    0.000000e+00
8.533274e-06    -1.117512e-04    0.000000e+00
1.284671e-05    -1.117621e-04    0.000000e+00
1.721430e-05    -1.117773e-04    0.000000e+00
2.164068e-05    -1.118023e-04    0.000000e+00
-2.170514e-05    -1.162704e-04    0.000000e+00
-1.724616e-05    -1.162524e-04    0.000000e+00
-1.286626e-05    -1.162339e-04    0.000000e+00
-8.546210e-06    -1.162133e-04    0.000000e+00
-4.263867e-06    -1.161979e-04    0.000000e+00
-1.061756e-18    -1.161923e-04    0.000000e+00
4.263867e-06    -1.161979e-04    0.000000e+00
8.546210e-06    -1.162133e-04    0.000000e+00
1.286626e-05    -1.162339e-04    0.000000e+00
1.724616e-05    -1.162524e-04    0.000000e+00
2.170514e-05    -1.162704e-04    0.000000e+00
-2.173925e-05    -1.208106e-04    0.000000e+00
-1.726635e-05    -1.207759e-04    0.000000e+00
-1.288608e-05    -1.207174e-04    0.000000e+00
-8.561325e-06    -1.206645e-04    0.000000e+00
-4.272041e-06    -1.206293e-04    0.000000e+00
-1.057097e-18    -1.206171e-04    0.000000e+00
4.272041e-06    -1.206293e-04    0.000000e+00
8.561325e-06    -1.206645e-04    0.000000e+00
1.288608e-05    -1.207174e-04    0.000000e+00
1.726635e-05    -1.207759e-04    0.000000e+00
2.173925e-05    -1.208106e-04    0.000000e+00

CELL_DATA      400
TENSORS Element_Stress4.400000e-01 double
1.820599e+06 2.551813e+05        0
2.551813e+05 4.163491e+05        0
       0        0        0

1.243721e+06 1.308539e+05        0
1.308539e+05 3.566180e+05        0
       0        0        0

8.651189e+05 4.301036e+04        0
4.301036e+04 2.749960e+05        0
       0        0        0

5.100066e+05 -3.578346e+03        0
-3.578346e+03 1.690094e+05        0
       0        0        0

1.688542e+05 -2.488323e+04        0
-2.488323e+04 5.694971e+04        0
       0        0        0

-1.688185e+05 -2.487710e+04        0
-2.487710e+04 -5.695778e+04        0
       0        0        0

-5.095308e+05 -3.579094e+03        0
-3.579094e+03 -1.688448e+05        0
       0        0        0

-8.637081e+05 4.293855e+04        0
4.293855e+04 -2.744673e+05        0
       0        0        0

-1.240735e+06 1.305652e+05        0
1.305652e+05 -3.554742e+05        0
       0        0        0

-1.814376e+06 2.543709e+05        0
2.543709e+05 -4.141972e+05        0
       0        0        0

1.642071e+06 4.159751e+04        0
4.159751e+04 4.234802e+03        0
       0        0        0

1.322355e+06 1.206455e+05        0
1.206455e+05 1.286844e+05        0
       0        0        0

9.082526e+05 9.900762e+04        0
9.900762e+04 1.315192e+05        0
       0        0        0

5.364028e+05 7.580684e+04        0
7.580684e+04 9.193316e+04        0
       0        0        0

1.768173e+05 6.321713e+04        0
6.321713e+04 3.207759e+04        0
       0        0        0

-1.778551e+05 6.319879e+04        0
6.319879e+04 -3.316898e+04        0
       0        0        0

-5.369366e+05 7.574139e+04        0
7.574139e+04 -9.284495e+04        0
       0        0        0

-9.077065e+05 9.886745e+04        0
9.886745e+04 -1.320380e+05        0
       0        0        0

-1.319831e+06 1.204079e+05        0
1.204079e+05 -1.284324e+05        0
       0        0        0

-1.637467e+06 4.151085e+04        0
4.151085e+04 -3.136557e+03        0
       0        0        0

1.584954e+06 1.541640e+04        0
1.541640e+04 6.615319e+03        0
       0        0        0

1.271592e+06 6.833114e+04        0
6.833114e+04 1.757729e+04        0
       0        0        0

9.146418e+05 1.015640e+05        0
1.015640e+05 4.237689e+04        0
       0        0        0

5.430829e+05 1.074766e+05        0
1.074766e+05 3.592348e+04        0
       0        0        0

1.791460e+05 1.074055e+05        0
1.074055e+05 1.272038e+04        0
       0        0        0

-1.824791e+05 1.073776e+05        0
1.073776e+05 -1.611191e+04        0
       0        0        0

-5.458840e+05 1.073934e+05        0
1.073934e+05 -3.912505e+04        0
       0        0        0

-9.163122e+05 1.014348e+05        0
1.014348e+05 -4.515295e+04        0
       0        0        0

-1.271565e+06 6.821627e+04        0
6.821627e+04 -1.966894e+04        0
       0        0        0

-1.582978e+06 1.538449e+04        0
1.538449e+04 -7.911812e+03        0
       0        0        0

1.546130e+06 1.427371e+04        0
1.427371e+04 -3.975756e+03        0
       0        0        0

1.226683e+06 5.548212e+04        0
5.548212e+04 -1.953363e+03        0
       0        0        0

8.865543e+05 9.245031e+04        0
9.245031e+04 2.933169e+03        0
       0        0        0

5.331317e+05 1.146031e+05        0
1.146031e+05 5.877772e+03        0
       0        0        0

1.753741e+05 1.233579e+05        0
1.233579e+05 6.880613e+02        0
       0        0        0

-1.820439e+05 1.233284e+05        0
1.233284e+05 -7.415940e+03        0
       0        0        0

-5.392755e+05 1.145213e+05        0
1.145213e+05 -1.241207e+04        0
       0        0        0

-8.916355e+05 9.234269e+04        0
9.234269e+04 -9.058373e+03        0
       0        0        0

-1.230189e+06 5.539392e+04        0
5.539392e+04 -3.528935e+03        0
       0        0        0

-1.547533e+06 1.424569e+04        0
1.424569e+04 -5.504403e+02        0
       0        0        0

1.509428e+06 1.713065e+04        0
1.713065e+04 -5.567255e+03        0
       0        0        0

1.185340e+06 5.448737e+04        0
5.448737e+04 -8.577659e+03        0
       0        0        0

8.541565e+05 8.905476e+04        0
8.905476e+04 -8.329312e+03        0
       0        0        0

5.137342e+05 1.136409e+05        0
1.136409e+05 -6.745286e+03        0
       0        0        0

1.681057e+05 1.258451e+05        0
1.258451e+05 -5.639050e+03        0
       0        0        0

-1.789904e+05 1.258167e+05        0
1.258167e+05 -5.300826e+03        0
       0        0        0

-5.241240e+05 1.135647e+05        0
1.135647e+05 -4.010293e+03        0
       0        0        0

-8.635547e+05 8.895619e+04        0
8.895619e+04 -2.042816e+03        0
       0        0        0

-1.193245e+06 5.440413e+04        0
5.440413e+04 -1.179545e+03        0
       0        0        0

-1.515273e+06 1.709768e+04        0
1.709768e+04 -3.264829e+03        0
       0        0        0

1.469672e+06 1.958965e+04        0
1.958965e+04 -7.911539e+03        0
       0        0        0

1.147077e+06 5.644563e+04        0
5.644563e+04 -1.054800e+04        0
       0        0        0

8.224155e+05 8.838601e+04        0
8.838601e+04 -1.192775e+04        0
       0        0        0

4.928623e+05 1.117723e+05        0
1.117723e+05 -1.113899e+04        0
       0        0        0

1.594066e+05 1.239615e+05        0
1.239615e+05 -9.157858e+03        0
       0        0        0

-1.752705e+05 1.239348e+05        0
1.239348e+05 -6.757350e+03        0
       0        0        0

-5.082719e+05 1.117004e+05        0
1.117004e+05 -4.611029e+03        0
       0        0        0

-8.369142e+05 8.829177e+04        0
8.829177e+04 -3.479962e+03        0
       0        0        0

-1.160194e+06 5.636195e+04        0
5.636195e+04 -4.312370e+03        0
       0        0        0

-1.480880e+06 1.955286e+04        0
1.955286e+04 -6.139561e+03        0
       0        0        0

1.427069e+06 2.114430e+04        0
2.114430e+04 -1.052965e+04        0
       0        0        0

1.109854e+06 5.834962e+04        0
5.834962e+04 -1.236662e+04        0
       0        0        0

7.924055e+05 8.864134e+04        0
8.864134e+04 -1.362109e+04        0
       0        0        0

4.726279e+05 1.103428e+05        0
1.103428e+05 -1.337052e+04        0
       0        0        0

1.506200e+05 1.216736e+05        0
1.216736e+05 -1.181698e+04        0
       0        0        0

-1.721470e+05 1.216484e+05        0
1.216484e+05 -9.757751e+03        0
       0        0        0

-4.937485e+05 1.102743e+05        0
1.102743e+05 -8.067268e+03        0
       0        0        0

-8.127098e+05 8.854979e+04        0
8.854979e+04 -7.533918e+03        0
       0        0        0

-1.128919e+06 5.826558e+04        0
5.826558e+04 -8.339745e+03        0
       0        0        0

-1.444435e+06 2.110563e+04        0
2.110563e+04 -9.528620e+03        0
       0        0        0

1.382472e+06 2.200183e+04        0
2.200183e+04 -1.363724e+04        0
       0        0        0

1.072891e+06 5.961402e+04        0
5.961402e+04 -1.472185e+04        0
       0        0        0

7.635789e+05 8.901014e+04        0
8.901014e+04 -1.557416e+04        0
       0        0        0

4.533127e+05 1.094858e+05        0
1.094858e+05 -1.552413e+04        0
       0        0        0

1.419522e+05 1.200359e+05        0
1.200359e+05 -1.458785e+04        0
       0        0        0

-1.697604e+05 1.200117e+05        0
1.200117e+05 -1.326480e+04        0
       0        0        0

-4.807669e+05 1.094199e+05        0
1.094199e+05 -1.222643e+04        0
       0        0        0

-7.903216e+05 8.892097e+04        0
8.892097e+04 -1.196594e+04        0
       0        0        0

-1.098554e+06 5.953064e+04        0
5.953064e+04 -1.248637e+04        0
       0        0        0

-1.406667e+06 2.196272e+04        0
2.196272e+04 -1.309848e+04        0
       0        0        0

1.336651e+06 2.243104e+04        0
2.243104e+04 -1.712977e+04        0
       0        0        0

1.035846e+06 6.032513e+04        0
6.032513e+04 -1.770736e+04        0
       0        0        0

7.353693e+05 8.928007e+04        0
8.928007e+04 -1.819359e+04        0
       0        0        0

4.345844e+05 1.090315e+05        0
1.090315e+05 -1.820576e+04        0
       0        0        0

1.333511e+05 1.190752e+05        0
1.190752e+05 -1.770721e+04        0
       0        0        0

-1.679949e+05 1.190520e+05        0
1.190520e+05 -1.697820e+04        0
       0        0        0

-4.689289e+05 1.089679e+05        0
1.089679e+05 -1.641607e+04        0
       0        0        0

-7.691120e+05 8.919336e+04        0
8.919336e+04 -1.629669e+04        0
       0        0        0

-1.068677e+06 6.024329e+04        0
6.024329e+04 -1.657482e+04        0
       0        0        0

-1.368247e+06 2.239237e+04        0
2.239237e+04 -1.685618e+04        0
       0        0        0

1.290109e+06 2.262771e+04        0
2.262771e+04 -2.093372e+04        0
       0        0        0

9.986150e+05 6.068324e+04        0
6.068324e+04 -2.119243e+04        0
       0        0        0

7.073843e+05 8.943854e+04        0
8.943854e+04 -2.142410e+04        0
       0        0        0

4.161155e+05 1.088122e+05        0
1.088122e+05 -2.143281e+04        0
       0        0        0

1.247137e+05 1.185760e+05        0
1.185760e+05 -2.118596e+04        0
       0        0        0

-1.666836e+05 1.185536e+05        0
1.185536e+05 -2.082276e+04        0
       0        0        0

-4.578411e+05 1.087508e+05        0
1.087508e+05 -2.055221e+04        0
       0        0        0

-7.486185e+05 8.935440e+04        0
8.935440e+04 -2.051030e+04        0
       0        0        0

-1.039105e+06 6.060350e+04        0
6.060350e+04 -2.065828e+04        0
       0        0        0

-1.329593e+06 2.258992e+04        0
2.258992e+04 -2.079209e+04        0
       0        0        0

1.243138e+06 2.270945e+04        0
2.270945e+04 -2.498212e+04        0
       0        0        0

9.611833e+05 6.084711e+04        0
6.084711e+04 -2.504190e+04        0
       0        0        0

6.794123e+05 8.952014e+04        0
8.952014e+04 -2.510678e+04        0
       0        0        0

3.976944e+05 1.087152e+05        0
1.087152e+05 -2.508707e+04        0
       0        0        0

1.159751e+05 1.183403e+05        0
1.183403e+05 -2.496216e+04        0
       0        0        0

-1.656967e+05 1.183188e+05        0
1.183188e+05 -2.479579e+04        0
       0        0        0

-4.472259e+05 1.086557e+05        0
1.086557e+05 -2.468702e+04        0
       0        0        0

-7.285612e+05 8.943866e+04        0
8.943866e+04 -2.469696e+04        0
       0        0        0

-1.009752e+06 6.076975e+04        0
6.076975e+04 -2.480002e+04        0
       0        0        0

-1.290923e+06 2.267276e+04        0
2.267276e+04 -2.489964e+04        0
       0        0        0

1.195903e+06 2.273920e+04        0
2.273920e+04 -2.922327e+04        0
       0        0        0

9.235712e+05 6.091462e+04        0
6.091462e+04 -2.915050e+04        0
       0        0        0

6.513593e+05 8.955774e+04        0
8.955774e+04 -2.910390e+04        0
       0        0        0

3.792149e+05 1.086760e+05        0
1.086760e+05 -2.904721e+04        0
       0        0        0

1.071093e+05 1.182390e+05        0
1.182390e+05 -2.897002e+04        0
       0        0        0

-1.649444e+05 1.182181e+05        0
1.182181e+05 -2.889903e+04        0
       0        0        0

-4.369128e+05 1.086186e+05        0
1.086186e+05 -2.887699e+04        0
       0        0        0

-7.087804e+05 8.947897e+04        0
8.947897e+04 -2.892827e+04        0
       0        0        0

-9.805714e+05 6.083980e+04        0
6.083980e+04 -2.903787e+04        0
       0        0        0

-1.252331e+06 2.270371e+04        0
2.270371e+04 -2.916305e+04        0
       0        0        0

1.148492e+06 2.274764e+04        0
2.274764e+04 -3.361531e+04        0
       0        0        0

8.858091e+05 6.093855e+04        0
6.093855e+04 -3.344418e+04        0
       0        0        0

6.231976e+05 8.957291e+04        0
8.957291e+04 -3.331678e+04        0
       0        0        0

3.606385e+05 1.086618e+05        0
1.086618e+05 -3.322149e+04        0
       0        0        0

9.811737e+04 1.181998e+05        0
1.181998e+05 -3.315419e+04        0
       0        0        0

-1.643652e+05 1.181797e+05        0
1.181797e+05 -3.312517e+04        0
       0        0        0

-4.268002e+05 1.086065e+05        0
1.086065e+05 -3.315085e+04        0
       0        0        0

-6.891848e+05 8.949689e+04        0
8.949689e+04 -3.323925e+04        0
       0        0        0

-9.515288e+05 6.086632e+04        0
6.086632e+04 -3.338186e+04        0
       0        0        0

-1.213845e+06 2.271338e+04        0
2.271338e+04 -3.356053e+04        0
       0        0        0

1.100961e+06 2.274843e+04        0
2.274843e+04 -3.812282e+04        0
       0        0        0

8.479292e+05 6.094464e+04        0
6.094464e+04 -3.787023e+04        0
       0        0        0

5.949324e+05 8.957769e+04        0
8.957769e+04 -3.767807e+04        0
       0        0        0

3.419636e+05 1.086574e+05        0
1.086574e+05 -3.754498e+04        0
       0        0        0

8.901560e+04 1.181868e+05        0
1.181868e+05 -3.747031e+04        0
       0        0        0

-1.639143e+05 1.181675e+05        0
1.181675e+05 -3.745772e+04        0
       0        0        0

-4.168255e+05 1.086040e+05        0
1.086040e+05 -3.751251e+04        0
       0        0        0

-6.697183e+05 8.950442e+04        0
8.950442e+04 -3.763612e+04        0
       0        0        0

-9.225956e+05 6.087502e+04        0
6.087502e+04 -3.782347e+04        0
       0        0        0

-1.175457e+06 2.271541e+04        0
2.271541e+04 -3.806662e+04        0
       0        0        0

1.053348e+06 2.274705e+04        0
2.274705e+04 -4.271425e+04        0
       0        0        0

8.099629e+05 6.094433e+04        0
6.094433e+04 -4.238870e+04        0
       0        0        0

5.665834e+05 8.957809e+04        0
8.957809e+04 -4.214005e+04        0
       0        0        0

3.232062e+05 1.086560e+05        0
1.086560e+05 -4.197072e+04        0
       0        0        0

7.982721e+04 1.181836e+05        0
1.181836e+05 -4.188175e+04        0
       0        0        0

-1.635564e+05 1.181649e+05        0
1.181649e+05 -4.187451e+04        0
       0        0        0

-4.069459e+05 1.086047e+05        0
1.086047e+05 -4.195012e+04        0
       0        0        0

-6.503420e+05 8.950759e+04        0
8.950759e+04 -4.210771e+04        0
       0        0        0

-8.937443e+05 6.087734e+04        0
6.087734e+04 -4.234386e+04        0
       0        0        0

-1.137149e+06 2.271528e+04        0
2.271528e+04 -4.265433e+04        0
       0        0        0

1.005683e+06 2.274541e+04        0
2.274541e+04 -4.736043e+04        0
       0        0        0

7.719397e+05 6.094223e+04        0
6.094223e+04 -4.696672e+04        0
       0        0        0

5.381758e+05 8.957687e+04        0
8.957687e+04 -4.666613e+04        0
       0        0        0

3.043895e+05 1.086554e+05        0
1.086554e+05 -4.646223e+04        0
       0        0        0

7.057817e+04 1.181833e+05        0
1.181833e+05 -4.635681e+04        0
       0        0        0

-1.632606e+05 1.181654e+05        0
1.181654e+05 -4.635063e+04        0
       0        0        0

-3.971280e+05 1.086060e+05        0
1.086060e+05 -4.644351e+04        0
       0        0        0

-6.310243e+05 8.950913e+04        0
8.950913e+04 -4.663398e+04        0
       0        0        0

-8.649477e+05 6.087787e+04        0
6.087787e+04 -4.691934e+04        0
       0        0        0

-1.098894e+06 2.271488e+04        0
2.271488e+04 -4.729642e+04        0
       0        0        0

9.579958e+05 2.274402e+04        0
2.274402e+04 -5.203386e+04        0
       0        0        0

7.338875e+05 6.093993e+04        0
6.093993e+04 -5.157530e+04        0
       0        0        0

5.097362e+05 8.957514e+04        0
8.957514e+04 -5.122571e+04        0
       0        0        0

2.855394e+05 1.086547e+05        0
1.086547e+05 -5.098885e+04        0
       0        0        0

6.129495e+04 1.181835e+05        0
1.181835e+05 -5.086680e+04        0
       0        0        0

-1.629990e+05 1.181664e+05        0
1.181664e+05 -5.086030e+04        0
       0        0        0

-3.873434e+05 1.086073e+05        0
1.086073e+05 -5.096892e+04        0
       0        0        0

-6.117376e+05 8.951017e+04        0
8.951017e+04 -5.119113e+04        0
       0        0        0

-8.361795e+05 6.087819e+04        0
6.087819e+04 -5.152454e+04        0
       0        0        0

-1.060665e+06 2.271474e+04        0
2.271474e+04 -5.196610e+04        0
       0        0        0

9.103105e+05 2.274291e+04        0
2.274291e+04 -5.670834e+04        0
       0        0        0

6.958329e+05 6.093784e+04        0
6.093784e+04 -5.618774e+04        0
       0        0        0

4.812909e+05 8.957333e+04        0
8.957333e+04 -5.579147e+04        0
       0        0        0

2.666818e+05 1.086537e+05        0
1.086537e+05 -5.552317e+04        0
       0        0        0

5.200353e+04 1.181836e+05        0
1.181836e+05 -5.538506e+04        0
       0        0        0

-1.627454e+05 1.181671e+05        0
1.181671e+05 -5.537795e+04        0
       0        0        0

-3.775655e+05 1.086084e+05        0
1.086084e+05 -5.550150e+04        0
       0        0        0

-5.924558e+05 8.951113e+04        0
8.951113e+04 -5.575427e+04        0
       0        0        0

-8.074140e+05 6.087874e+04        0
6.087874e+04 -5.613395e+04        0
       0        0        0

-1.022436e+06 2.271488e+04        0
2.271488e+04 -5.663741e+04        0
       0        0        0

8.626523e+05 2.274200e+04        0
2.274200e+04 -6.135884e+04        0
       0        0        0

6.578010e+05 6.093600e+04        0
6.093600e+04 -6.077888e+04        0
       0        0        0

4.528652e+05 8.957156e+04        0
8.957156e+04 -6.033801e+04        0
       0        0        0

2.478419e+05 1.086526e+05        0
1.086526e+05 -6.003977e+04        0
       0        0        0

4.272896e+04 1.181833e+05        0
1.181833e+05 -5.988636e+04        0
       0        0        0

-1.624748e+05 1.181676e+05        0
1.181676e+05 -5.987872e+04        0
       0        0        0

-3.677695e+05 1.086093e+05        0
1.086093e+05 -6.001662e+04        0
       0        0        0

-5.731542e+05 8.951212e+04        0
8.951212e+04 -6.029872e+04        0
       0        0        0

-7.786264e+05 6.087952e+04        0
6.087952e+04 -6.072272e+04        0
       0        0        0

-9.841824e+05 2.271521e+04        0
2.271521e+04 -6.128536e+04        0
       0        0        0

8.150449e+05 2.274120e+04        0
2.274120e+04 -6.596143e+04        0
       0        0        0

6.198159e+05 6.093433e+04        0
6.093433e+04 -6.532479e+04        0
       0        0        0

4.244832e+05 8.956984e+04        0
8.956984e+04 -6.484138e+04        0
       0        0        0

2.290437e+05 1.086514e+05        0
1.086514e+05 -6.451462e+04        0
       0        0        0

3.349526e+04 1.181829e+05        0
1.181829e+05 -6.434673e+04        0
       0        0        0

-1.621632e+05 1.181679e+05        0
1.181679e+05 -6.433871e+04        0
       0        0        0

-3.579316e+05 1.086101e+05        0
1.086101e+05 -6.449041e+04        0
       0        0        0

-5.538090e+05 8.951316e+04        0
8.951316e+04 -6.480058e+04        0
       0        0        0

-7.497928e+05 6.088047e+04        0
6.088047e+04 -6.526691e+04        0
       0        0        0

-9.458795e+05 2.271567e+04        0
2.271567e+04 -6.588602e+04        0
       0        0        0

7.675111e+05 2.274048e+04        0
2.274048e+04 -7.049325e+04        0
       0        0        0

5.819004e+05 6.093277e+04        0
6.093277e+04 -6.980267e+04        0
       0        0        0

3.961678e+05 8.956817e+04        0
8.956817e+04 -6.927877e+04        0
       0        0        0

2.103102e+05 1.086501e+05        0
1.086501e+05 -6.892492e+04        0
       0        0        0

2.432532e+04 1.181823e+05        0
1.181823e+05 -6.874333e+04        0
       0        0        0

-1.617878e+05 1.181680e+05        0
1.181680e+05 -6.873505e+04        0
       0        0        0

-3.480292e+05 1.086109e+05        0
1.086109e+05 -6.890000e+04        0
       0        0        0

-5.343975e+05 8.951426e+04        0
8.951426e+04 -6.923697e+04        0
       0        0        0

-7.208905e+05 6.088154e+04        0
6.088154e+04 -6.974363e+04        0
       0        0        0

-9.075044e+05 2.271618e+04        0
2.271618e+04 -7.041655e+04        0
       0        0        0

7.200725e+05 2.273979e+04        0
2.273979e+04 -7.493257e+04        0
       0        0        0

5.440764e+05 6.093129e+04        0
6.093129e+04 -7.419078e+04        0
       0        0        0

3.679411e+05 8.956653e+04        0
8.956653e+04 -7.362848e+04        0
       0        0        0

1.916633e+05 1.086488e+05        0
1.086488e+05 -7.324896e+04        0
       0        0        0

1.524094e+04 1.181815e+05        0
1.181815e+05 -7.305443e+04        0
       0        0        0

-1.613271e+05 1.181680e+05        0
1.181680e+05 -7.304597e+04        0
       0        0        0

-3.380405e+05 1.086116e+05        0
1.086116e+05 -7.322356e+04        0
       0        0        0

-5.148981e+05 8.951539e+04        0
8.951539e+04 -7.358604e+04        0
       0        0        0

-6.918976e+05 6.088269e+04        0
6.088269e+04 -7.413108e+04        0
       0        0        0

-8.690354e+05 2.271675e+04        0
2.271675e+04 -7.485518e+04        0
       0        0        0

6.727498e+05 2.273916e+04        0
2.273916e+04 -7.925871e+04        0
       0        0        0

5.063644e+05 6.092990e+04        0
6.092990e+04 -7.846850e+04        0
       0        0        0

3.398236e+05 8.956494e+04        0
8.956494e+04 -7.786990e+04        0
       0        0        0

1.731238e+05 1.086475e+05        0
1.086475e+05 -7.746612e+04        0
       0        0        0

6.262834e+03 1.181807e+05        0
1.181807e+05 -7.725936e+04        0
       0        0        0

-1.607602e+05 1.181679e+05        0
1.181679e+05 -7.725076e+04        0
       0        0        0

-3.279450e+05 1.086122e+05        0
1.086122e+05 -7.744037e+04        0
       0        0        0

-4.952902e+05 8.951656e+04        0
8.951656e+04 -7.782708e+04        0
       0        0        0

-6.627935e+05 6.088393e+04        0
6.088393e+04 -7.840856e+04        0
       0        0        0

-8.304516e+05 2.271736e+04        0
2.271736e+04 -7.918123e+04        0
       0        0        0

6.255624e+05 2.273861e+04        0
2.273861e+04 -8.345210e+04        0
       0        0        0

4.687843e+05 6.092864e+04        0
6.092864e+04 -8.261629e+04        0
       0        0        0

3.118351e+05 8.956340e+04        0
8.956340e+04 -8.198350e+04        0
       0        0        0

1.547113e+05 1.086460e+05        0
1.086460e+05 -8.155686e+04        0
       0        0        0

-2.589383e+03 1.181797e+05        0
1.181797e+05 -8.133857e+04        0
       0        0        0

-1.600677e+05 1.181677e+05        0
1.181677e+05 -8.132983e+04        0
       0        0        0

-3.177231e+05 1.086128e+05        0
1.086128e+05 -8.153081e+04        0
       0        0        0

-4.755543e+05 8.951778e+04        0
8.951778e+04 -8.194045e+04        0
       0        0        0

-6.335587e+05 6.088529e+04        0
6.088529e+04 -8.255643e+04        0
       0        0        0

-7.917335e+05 2.271805e+04        0
2.271805e+04 -8.337510e+04        0
       0        0        0

5.785287e+05 2.273819e+04        0
2.273819e+04 -8.749426e+04        0
       0        0        0

4.313543e+05 6.092755e+04        0
6.092755e+04 -8.661567e+04        0
       0        0        0

2.839942e+05 8.956190e+04        0
8.956190e+04 -8.595080e+04        0
       0        0        0

1.364444e+05 1.086445e+05        0
1.086445e+05 -8.550268e+04        0
       0        0        0

-1.129717e+04 1.181786e+05        0
1.181786e+05 -8.527355e+04        0
       0        0        0

-1.592311e+05 1.181672e+05        0
1.181672e+05 -8.526470e+04        0
       0        0        0

-3.073565e+05 1.086133e+05        0
1.086133e+05 -8.547638e+04        0
       0        0        0

-4.556719e+05 8.951905e+04        0
8.951905e+04 -8.590762e+04        0
       0        0        0

-6.041747e+05 6.088683e+04        0
6.088683e+04 -8.655617e+04        0
       0        0        0

-7.528622e+05 2.271888e+04        0
2.271888e+04 -8.741828e+04        0
       0        0        0

5.316659e+05 2.273796e+04        0
2.273796e+04 -9.136777e+04        0
       0        0        0

3.940922e+05 6.092666e+04        0
6.092666e+04 -9.044918e+04        0
       0        0        0

2.563185e+05 8.956039e+04        0
8.956039e+04 -8.975425e+04        0
       0        0        0

1.183407e+05 1.086428e+05        0
1.086428e+05 -8.928599e+04        0
       0        0        0

-1.984310e+04 1.181772e+05        0
1.181772e+05 -8.904682e+04        0
       0        0        0

-1.582330e+05 1.181666e+05        0
1.181666e+05 -8.903805e+04        0
       0        0        0

-2.968280e+05 1.086136e+05        0
1.086136e+05 -8.925986e+04        0
       0        0        0

-4.356259e+05 8.952031e+04        0
8.952031e+04 -8.971134e+04        0
       0        0        0

-5.746242e+05 6.088857e+04        0
6.088857e+04 -9.039040e+04        0
       0        0        0

-7.138203e+05 2.271990e+04        0
2.271990e+04 -9.129334e+04        0
       0        0        0

4.849901e+05 2.273797e+04        0
2.273797e+04 -9.505625e+04        0
       0        0        0

3.570143e+05 6.092580e+04        0
6.092580e+04 -9.410020e+04        0
       0        0        0

2.288244e+05 8.955866e+04        0
8.955866e+04 -9.337689e+04        0
       0        0        0

1.004164e+05 1.086409e+05        0
1.086409e+05 -9.288981e+04        0
       0        0        0

-2.821091e+04 1.181759e+05        0
1.181759e+05 -9.264178e+04        0
       0        0        0

-1.570571e+05 1.181661e+05        0
1.181661e+05 -9.263387e+04        0
       0        0        0

-2.861210e+05 1.086138e+05        0
1.086138e+05 -9.286563e+04        0
       0        0        0

-4.154001e+05 8.952134e+04        0
8.952134e+04 -9.333591e+04        0
       0        0        0

-5.448910e+05 6.089034e+04        0
6.089034e+04 -9.404307e+04        0
       0        0        0

-6.745911e+05 2.272115e+04        0
2.272115e+04 -9.498396e+04        0
       0        0        0

4.385166e+05 2.273799e+04        0
2.273799e+04 -9.854421e+04        0
       0        0        0

3.201365e+05 6.092416e+04        0
6.092416e+04 -9.755250e+04        0
       0        0        0

2.015270e+05 8.955608e+04        0
8.955608e+04 -9.680163e+04        0
       0        0        0

8.268601e+04 1.086394e+05        0
1.086394e+05 -9.629701e+04        0
       0        0        0

-3.638578e+04 1.181761e+05        0
1.181761e+05 -9.604242e+04        0
       0        0        0

-1.556879e+05 1.181670e+05        0
1.181670e+05 -9.603777e+04        0
       0        0        0

-2.752199e+05 1.086142e+05        0
1.086142e+05 -9.628039e+04        0
       0        0        0

-3.949791e+05 8.952153e+04        0
8.952153e+04 -9.676796e+04        0
       0        0        0

-5.149603e+05 6.089132e+04        0
6.089132e+04 -9.749988e+04        0
       0        0        0

-6.351593e+05 2.272242e+04        0
2.272242e+04 -9.847502e+04        0
       0        0        0

3.922608e+05 2.273706e+04        0
2.273706e+04 -1.018169e+05        0
       0        0        0

2.834737e+05 6.091920e+04        0
6.091920e+04 -1.007893e+05        0
       0        0        0

1.744389e+05 8.955107e+04        0
8.955107e+04 -1.000096e+05        0
       0        0        0

6.516108e+04 1.086394e+05        0
1.086394e+05 -9.948873e+04        0
       0        0        0

-4.435487e+04 1.181815e+05        0
1.181815e+05 -9.923265e+04        0
       0        0        0

-1.541099e+05 1.181730e+05        0
1.181730e+05 -9.923765e+04        0
       0        0        0

-2.641078e+05 1.086162e+05        0
1.086162e+05 -9.949480e+04        0
       0        0        0

-3.743472e+05 8.951927e+04        0
8.951927e+04 -9.999816e+04        0
       0        0        0

-4.848188e+05 6.088899e+04        0
6.088899e+04 -1.007492e+05        0
       0        0        0

-5.955118e+05 2.272273e+04        0
2.272273e+04 -1.017527e+05        0
       0        0        0

3.462408e+05 2.273214e+04        0
2.273214e+04 -1.048597e+05        0
       0        0        0

2.470402e+05 6.090437e+04        0
6.090437e+04 -1.037914e+05        0
       0        0        0

1.475678e+05 8.954001e+04        0
8.954001e+04 -1.029769e+05        0
       0        0        0

4.784700e+04 1.086447e+05        0
1.086447e+05 -1.024415e+05        0
       0        0        0

-5.210867e+04 1.182015e+05        0
1.182015e+05 -1.021951e+05        0
       0        0        0

-1.523067e+05 1.181938e+05        0
1.181938e+05 -1.022249e+05        0
       0        0        0

-2.527642e+05 1.086235e+05        0
1.086235e+05 -1.025065e+05        0
       0        0        0

-3.534862e+05 8.951099e+04        0
8.951099e+04 -1.030244e+05        0
       0        0        0

-4.544546e+05 6.087680e+04        0
6.087680e+04 -1.037843e+05        0
       0        0        0

-5.556399e+05 2.271906e+04        0
2.271906e+04 -1.048051e+05        0
       0        0        0

3.004822e+05 2.271540e+04        0
2.271540e+04 -1.076575e+05        0
       0        0        0

2.108492e+05 6.086439e+04        0
6.086439e+04 -1.065334e+05        0
       0        0        0

1.209111e+05 8.951550e+04        0
8.951550e+04 -1.056692e+05        0
       0        0        0

3.073686e+04 1.086641e+05        0
1.086641e+05 -1.051220e+05        0
       0        0        0

-5.964363e+04 1.182578e+05        0
1.182578e+05 -1.049092e+05        0
       0        0        0

-1.502581e+05 1.182509e+05        0
1.182509e+05 -1.049963e+05        0
       0        0        0

-2.411588e+05 1.086450e+05        0
1.086450e+05 -1.053250e+05        0
       0        0        0

-3.323701e+05 8.948924e+04        0
8.948924e+04 -1.058578e+05        0
       0        0        0

-4.238572e+05 6.083945e+04        0
6.083945e+04 -1.066066e+05        0
       0        0        0

-5.155450e+05 2.270358e+04        0
2.270358e+04 -1.076229e+05        0
       0        0        0

2.550301e+05 2.266862e+04        0
2.266862e+04 -1.101929e+05        0
       0        0        0

1.749112e+05 6.076691e+04        0
6.076691e+04 -1.089787e+05        0
       0        0        0

9.444389e+04 8.946366e+04        0
8.946366e+04 -1.080333e+05        0
       0        0        0

1.379922e+04 1.087177e+05        0
1.087177e+05 -1.074805e+05        0
       0        0        0

-6.696708e+04 1.183950e+05        0
1.183950e+05 -1.073482e+05        0
       0        0        0

-1.479346e+05 1.183888e+05        0
1.183888e+05 -1.075565e+05        0
       0        0        0

-2.292387e+05 1.087006e+05        0
1.087006e+05 -1.079790e+05        0
       0        0        0

-3.109537e+05 8.944017e+04        0
8.944017e+04 -1.085308e+05        0
       0        0        0

-3.930165e+05 6.074462e+04        0
6.074462e+04 -1.092324e+05        0
       0        0        0

-4.752499e+05 2.265806e+04        0
2.265806e+04 -1.102011e+05        0
       0        0        0

2.099706e+05 2.255312e+04        0
2.255312e+04 -1.124453e+05        0
       0        0        0

1.392275e+05 6.054968e+04        0
6.054968e+04 -1.110721e+05        0
       0        0        0

6.809776e+04 8.936204e+04        0
8.936204e+04 -1.099897e+05        0
       0        0        0

-3.042277e+03 1.088456e+05        0
1.088456e+05 -1.094457e+05        0
       0        0        0

-7.410485e+04 1.186962e+05        0
1.186962e+05 -1.094776e+05        0
       0        0        0

-1.452898e+05 1.186906e+05        0
1.186906e+05 -1.099194e+05        0
       0        0        0

-2.169087e+05 1.088304e+05        0
1.088304e+05 -1.105208e+05        0
       0        0        0

-2.891519e+05 8.934133e+04        0
8.934133e+04 -1.111066e+05        0
       0        0        0

-3.619184e+05 6.053007e+04        0
6.053007e+04 -1.117010e+05        0
       0        0        0

-4.348223e+05 2.254384e+04        0
2.254384e+04 -1.125422e+05        0
       0        0        0

1.654675e+05 2.229390e+04        0
2.229390e+04 -1.143895e+05        0
       0        0        0

1.037756e+05 6.010635e+04        0
6.010635e+04 -1.127379e+05        0
       0        0        0

4.172427e+04 8.918287e+04        0
8.918287e+04 -1.114370e+05        0
       0        0        0

-1.993682e+04 1.091212e+05        0
1.091212e+05 -1.109353e+05        0
       0        0        0

-8.111038e+04 1.192970e+05        0
1.192970e+05 -1.112605e+05        0
       0        0        0

-1.422486e+05 1.192922e+05        0
1.192922e+05 -1.121002e+05        0
       0        0        0

-2.040021e+05 1.091080e+05        0
1.091080e+05 -1.130151e+05        0
       0        0        0

-2.668048e+05 8.916495e+04        0
8.916495e+04 -1.136750e+05        0
       0        0        0

-3.305324e+05 6.008945e+04        0
6.008945e+04 -1.140807e+05        0
       0        0        0

-3.944154e+05 2.228593e+04        0
2.228593e+04 -1.146608e+05        0
       0        0        0

1.218143e+05 2.175988e+04        0
2.175988e+04 -1.160002e+05        0
       0        0        0

6.846983e+04 5.928776e+04        0
5.928776e+04 -1.139017e+05        0
       0        0        0

1.504768e+04 8.891655e+04        0
8.891655e+04 -1.123084e+05        0
       0        0        0

-3.712667e+04 1.096611e+05        0
1.096611e+05 -1.119238e+05        0
       0        0        0

-8.806585e+04 1.203706e+05        0
1.203706e+05 -1.126851e+05        0
       0        0        0

-1.387021e+05 1.203666e+05        0
1.203666e+05 -1.140840e+05        0
       0        0        0

-1.902584e+05 1.096500e+05        0
1.096500e+05 -1.154692e+05        0
       0        0        0

-2.436325e+05 8.890146e+04        0
8.890146e+04 -1.162986e+05        0
       0        0        0

-2.987811e+05 5.927362e+04        0
5.927362e+04 -1.164538e+05        0
       0        0        0

-3.543300e+05 2.175326e+04        0
2.175326e+04 -1.165895e+05        0
       0        0        0

7.947507e+04 2.075679e+04        0
2.075679e+04 -1.172822e+05        0
       0        0        0

3.307857e+04 5.797448e+04        0
5.797448e+04 -1.145900e+05        0
       0        0        0

-1.236402e+04 8.865061e+04        0
8.865061e+04 -1.127887e+05        0
       0        0        0

-5.490072e+04 1.106013e+05        0
1.106013e+05 -1.126578e+05        0
       0        0        0

-9.504956e+04 1.220074e+05        0
1.220074e+05 -1.138553e+05        0
       0        0        0

-1.345318e+05 1.220041e+05        0
1.220041e+05 -1.157268e+05        0
       0        0        0

-1.753640e+05 1.105923e+05        0
1.105923e+05 -1.176119e+05        0
       0        0        0

-2.192068e+05 8.863841e+04        0
8.863841e+04 -1.187963e+05        0
       0        0        0

-2.664685e+05 5.796313e+04        0
5.796313e+04 -1.188294e+05        0
       0        0        0

-3.150784e+05 2.075156e+04        0
2.075156e+04 -1.183720e+05        0
       0        0        0

3.901595e+04 1.910250e+04        0
1.910250e+04 -1.183312e+05        0
       0        0        0

-2.945890e+03 5.638065e+04        0
5.638065e+04 -1.153386e+05        0
       0        0        0

-4.097171e+04 8.874195e+04        0
8.874195e+04 -1.139164e+05        0
       0        0        0

-7.334326e+04 1.119428e+05        0
1.119428e+05 -1.141994e+05        0
       0        0        0

-1.020045e+05 1.238170e+05        0
1.238170e+05 -1.151848e+05        0
       0        0        0

-1.297258e+05 1.238147e+05        0
1.238147e+05 -1.165459e+05        0
       0        0        0

-1.591897e+05 1.119363e+05        0
1.119363e+05 -1.183360e+05        0
       0        0        0

-1.930734e+05 8.873287e+04        0
8.873287e+04 -1.201363e+05        0
       0        0        0

-2.331279e+05 5.637210e+04        0
5.637210e+04 -1.207526e+05        0
       0        0        0

-2.773665e+05 1.909865e+04        0
1.909865e+04 -1.200522e+05        0
       0        0        0

5.230922e+02 1.710271e+04        0
1.710271e+04 -1.199684e+05        0
       0        0        0

-4.055910e+04 5.592265e+04        0
5.592265e+04 -1.183224e+05        0
       0        0        0

-7.064233e+04 9.001307e+04        0
9.001307e+04 -1.192609e+05        0
       0        0        0

-9.160235e+04 1.128998e+05        0
1.128998e+05 -1.193452e+05        0
       0        0        0

-1.084794e+05 1.240404e+05        0
1.240404e+05 -1.176210e+05        0
       0        0        0

-1.246150e+05 1.240392e+05        0
1.240392e+05 -1.154735e+05        0
       0        0        0

-1.424955e+05 1.128964e+05        0
1.128964e+05 -1.147535e+05        0
       0        0        0

-1.653498e+05 9.000770e+04        0
9.000770e+04 -1.167342e+05        0
       0        0        0

-1.979385e+05 5.591692e+04        0
5.591692e+04 -1.201834e+05        0
       0        0        0

-2.416133e+05 1.710010e+04        0
1.710010e+04 -1.211411e+05        0
       0        0        0

-3.838766e+04 1.780089e+04        0
1.780089e+04 -1.241548e+05        0
       0        0        0

-8.056440e+04 6.133461e+04        0
6.133461e+04 -1.329180e+05        0
       0        0        0

-9.823387e+04 9.241439e+04        0
9.241439e+04 -1.376494e+05        0
       0        0        0

-1.069300e+05 1.101518e+05        0
1.101518e+05 -1.330248e+05        0
       0        0        0

-1.134904e+05 1.182691e+05        0
1.182691e+05 -1.226658e+05        0
       0        0        0

-1.199858e+05 1.182695e+05        0
1.182695e+05 -1.108103e+05        0
       0        0        0

-1.278481e+05 1.101526e+05        0
1.101526e+05 -1.017532e+05        0
       0        0        0

-1.390688e+05 9.241420e+04        0
9.241420e+04 -9.965338e+04        0
       0        0        0

-1.602171e+05 6.133242e+04        0
6.133242e+04 -1.078654e+05        0
       0        0        0

-2.060741e+05 1.779909e+04        0
1.779909e+04 -1.203166e+05        0
       0        0        0

-9.041237e+04 4.054631e+04        0
4.054631e+04 -1.562834e+05        0
       0        0        0

-1.138422e+05 7.593486e+04        0
7.593486e+04 -1.858540e+05        0
       0        0        0

-1.150719e+05 8.920336e+04        0
8.920336e+04 -1.817340e+05        0
       0        0        0

-1.153876e+05 9.571255e+04        0
9.571255e+04 -1.608398e+05        0
       0        0        0

-1.157490e+05 9.856240e+04        0
9.856240e+04 -1.317916e+05        0
       0        0        0

-1.168367e+05 9.856429e+04        0
9.856429e+04 -1.007938e+05        0
       0        0        0

-1.188660e+05 9.571772e+04        0
9.571772e+04 -7.341110e+04        0
       0        0        0

-1.225610e+05 8.921017e+04        0
8.921017e+04 -5.589338e+04        0
       0        0        0

-1.289066e+05 7.594048e+04        0
7.594048e+04 -5.688874e+04        0
       0        0        0

-1.586524e+05 4.054609e+04        0
4.054609e+04 -9.278148e+04        0
       0        0        0

POINT_DATA     451
VECTORS DISPLACEMENT_4.600000e-01 double
0.000000e+00    0.000000e+00    0.000000e+00
0.000000e+00    0.000000e+00    0.000000e+00
0.000000e+00    0.000000e+00    0.000000e+00
0.000000e+00    0.000000e+00    0.000000e+00
0.000000e+00    0.000000e+00    0.000000e+00
0.000000e+00    0.000000e+00    0.000000e+00
0.000000e+00    0.000000e+00    0.000000e+00
0.000000e+00    0.000000e+00    0.000000e+00
0.000000e+00    0.000000e+00    0.000000e+00
0.000000e+00    0.000000e+00    0.000000e+00
0.000000e+00    0.000000e+00    0.000000e+00
-1.141596e-06    -8.299607e-07    0.000000e+00
-7.233450e-07    -4.163096e-07    0.000000e+00
-5.161146e-07    -2.157262e-07    0.000000e+00
-3.332234e-07    -1.068319e-07    0.000000e+00
-1.642863e-07    -5.047429e-08    0.000000e+00
-3.641775e-20    -3.295147e-08    0.000000e+00
1.642863e-07    -5.047429e-08    0.000000e+00
3.332234e-07    -1.068319e-07    0.000000e+00
5.161146e-07    -2.157262e-07    0.000000e+00
7.233450e-07    -4.163096e-07    0.000000e+00
1.141596e-06    -8.299607e-07    0.000000e+00
-2.153941e-06    -1.380310e-06    0.000000e+00
-1.574436e-06    -9.987671e-07    0.000000e+00
-1.105093e-06    -7.015534e-07    0.000000e+00
-7.128294e-07    -5.177061e-07    0.000000e+00
-3.501024e-07    -4.175299e-07    0.000000e+00
-7.695509e-20    -3.857104e-07    0.000000e+00
3.501024e-07    -4.175299e-07    0.000000e+00
7.128294e-07    -5.177061e-07    0.000000e+00
1.105093e-06    -7.015534e-07    0.000000e+00
1.574436e-06    -9.987671e-07    0.000000e+00
2.153941e-06    -1.380310e-06    0.000000e+00
-3.132428e-06    -2.064635e-06    0.000000e+00
-2.394169e-06    -1.682258e-06    0.000000e+00
-1.722702e-06    -1.380761e-06    0.000000e+00
-1.115240e-06    -1.168097e-06    0.000000e+00
-5.487491e-07    -1.045521e-06    0.000000e+00
-1.210959e-19    -1.005593e-06    0.000000e+00
5.487491e-07    -1.045521e-06    0.000000e+00
1.115240e-06    -1.168097e-06    0.000000e+00
1.722702e-06    -1.380761e-06    0.000000e+00
2.394169e-06    -1.682258e-06    0.000000e+00
3.132428e-06    -2.064635e-06    0.000000e+00
-4.100077e-06    -2.909173e-06    0.000000e+00
-3.186877e-06    -2.535523e-06    0.000000e+00
-2.326959e-06    -2.239054e-06    0.000000e+00
-1.519409e-06    -2.025106e-06    0.000000e+00
-7.500559e-07    -1.896684e-06    0.000000e+00
-1.668655e-19    -1.854101e-06    0.000000e+00
7.500559e-07    -1.896684e-06    0.000000e+00
1.519409e-06    -2.025106e-06    0.000000e+00
2.326959e-06    -2.239054e-06    0.000000e+00
3.186877e-06    -2.535523e-06    0.000000e+00
4.100077e-06    -2.909173e-06    0.000000e+00
-5.051342e-06    -3.936655e-06    0.000000e+00
-3.956478e-06    -3.571726e-06    0.000000e+00
-2.911987e-06    -3.284209e-06    0.000000e+00
-1.912866e-06    -3.075890e-06    0.000000e+00
-9.475502e-07    -2.949778e-06    0.000000e+00
-2.136244e-19    -2.907565e-06    0.000000e+00
9.475502e-07    -2.949778e-06    0.000000e+00
1.912866e-06    -3.075890e-06    0.000000e+00
2.911987e-06    -3.284209e-06    0.000000e+00
3.956478e-06    -3.571726e-06    0.000000e+00
5.051342e-06    -3.936655e-06    0.000000e+00
-5.981874e-06    -5.149743e-06    0.000000e+00
-4.704514e-06    -4.794469e-06    0.000000e+00
-3.477740e-06    -4.516044e-06    0.000000e+00
-2.292922e-06    -4.315097e-06    0.000000e+00
-1.138484e-06    -4.193470e-06    0.000000e+00
-2.617464e-19    -4.152741e-06    0.000000e+00
1.138484e-06    -4.193470e-06    0.000000e+00
2.292922e-06    -4.315097e-06    0.000000e+00
3.477740e-06    -4.516044e-06    0.000000e+00
4.704514e-06    -4.794469e-06    0.000000e+00
5.981874e-06    -5.149743e-06    0.000000e+00
-6.888560e-06    -6.546378e-06    0.000000e+00
-5.431255e-06    -6.201156e-06    0.000000e+00
-4.025295e-06    -5.931592e-06    0.000000e+00
-2.659770e-06    -5.737831e-06    0.000000e+00
-1.322562e-06    -5.620888e-06    0.000000e+00
-3.065200e-19    -5.581771e-06    0.000000e+00
1.322562e-06    -5.620888e-06    0.000000e+00
2.659770e-06    -5.737831e-06    0.000000e+00
4.025295e-06    -5.931592e-06    0.000000e+00
5.431255e-06    -6.201156e-06    0.000000e+00
6.888560e-06    -6.546378e-06    0.000000e+00
-7.769678e-06    -8.122141e-06    0.000000e+00
-6.136611e-06    -7.787207e-06    0.000000e+00
-4.555510e-06    -7.526212e-06    0.000000e+00
-3.014227e-06    -7.339159e-06    0.000000e+00
-1.500174e-06    -7.226545e-06    0.000000e+00
-3.509363e-19    -7.188930e-06    0.000000e+00
1.500174e-06    -7.226545e-06    0.000000e+00
3.014227e-06    -7.339159e-06    0.000000e+00
4.555510e-06    -7.526212e-06    0.000000e+00
6.136611e-06    -7.787207e-06    0.000000e+00
7.769678e-06    -8.122141e-06    0.000000e+00
-8.624341e-06    -9.871841e-06    0.000000e+00
-6.820451e-06    -9.547303e-06    0.000000e+00
-5.068914e-06    -9.294679e-06    0.000000e+00
-3.356974e-06    -9.113938e-06    0.000000e+00
-1.671745e-06    -9.005303e-06    0.000000e+00
-3.969143e-19    -8.969051e-06    0.000000e+00
1.671745e-06    -9.005303e-06    0.000000e+00
3.356974e-06    -9.113938e-06    0.000000e+00
5.068914e-06    -9.294679e-06    0.000000e+00
6.820451e-06    -9.547303e-06    0.000000e+00
8.624341e-06    -9.871841e-06    0.000000e+00
-9.452131e-06    -1.179003e-05    0.000000e+00
-7.482680e-06    -1.147594e-05    0.000000e+00
-5.565792e-06    -1.123156e-05    0.000000e+00
-3.688438e-06    -1.105689e-05    0.000000e+00
-1.837569e-06    -1.095200e-05    0.000000e+00
-4.441100e-19    -1.091701e-05    0.000000e+00
1.837569e-06    -1.095200e-05    0.000000e+00
3.688438e-06    -1.105689e-05    0.000000e+00
5.565792e-06    -1.123156e-05    0.000000e+00
7.482680e-06    -1.147594e-05    0.000000e+00
9.452131e-06    -1.179003e-05    0.000000e+00
-1.025287e-05    -1.387121e-05    0.000000e+00
-8.123244e-06    -1.356758e-05    0.000000e+00
-6.046284e-06    -1.333140e-05    0.000000e+00
-4.008851e-06    -1.316265e-05    0.000000e+00
-1.997814e-06    -1.306137e-05    0.000000e+00
-4.841852e-19    -1.302760e-05    0.000000e+00
1.997814e-06    -1.306137e-05    0.000000e+00
4.008851e-06    -1.316265e-05    0.000000e+00
6.046284e-06    -1.333140e-05    0.000000e+00
8.123244e-06    -1.356758e-05    0.000000e+00
1.025287e-05    -1.387121e-05    0.000000e+00
-1.102649e-05    -1.610989e-05    0.000000e+00
-8.742115e-06    -1.581674e-05    0.000000e+00
-6.510454e-06    -1.558872e-05    0.000000e+00
-4.318326e-06    -1.542584e-05    0.000000e+00
-2.152567e-06    -1.532809e-05    0.000000e+00
-5.238899e-19    -1.529551e-05    0.000000e+00
2.152567e-06    -1.532809e-05    0.000000e+00
4.318326e-06    -1.542584e-05    0.000000e+00
6.510454e-06    -1.558872e-05    0.000000e+00
8.742115e-06    -1.581674e-05    0.000000e+00
1.102649e-05    -1.610989e-05    0.000000e+00
-1.177296e-05    -1.850062e-05    0.000000e+00
-9.339279e-06    -1.821794e-05    0.000000e+00
-6.958326e-06    -1.799807e-05    0.000000e+00
-4.616915e-06    -1.784102e-05    0.000000e+00
-2.301866e-06    -1.774678e-05    0.000000e+00
-5.710061e-19    -1.771537e-05    0.000000e+00
2.301866e-06    -1.774678e-05    0.000000e+00
4.616915e-06    -1.784102e-05    0.000000e+00
6.958326e-06    -1.799807e-05    0.000000e+00
9.339279e-06    -1.821794e-05    0.000000e+00
1.177296e-05    -1.850062e-05    0.000000e+00
-1.249228e-05    -2.103795e-05    0.000000e+00
-9.914730e-06    -2.076573e-05    0.000000e+00
-7.389911e-06    -2.055401e-05    0.000000e+00
-4.904638e-06    -2.040278e-05    0.000000e+00
-2.445728e-06    -2.031204e-05    0.000000e+00
-6.016052e-19    -2.028180e-05    0.000000e+00
2.445728e-06    -2.031204e-05    0.000000e+00
4.904638e-06    -2.040278e-05    0.000000e+00
7.389911e-06    -2.055401e-05    0.000000e+00
9.914730e-06    -2.076573e-05    0.000000e+00
1.249228e-05    -2.103795e-05    0.000000e+00
-1.318446e-05    -2.371642e-05    0.000000e+00
-1.046847e-05    -2.345468e-05    0.000000e+00
-7.805210e-06    -2.325110e-05    0.000000e+00
-5.181503e-06    -2.310569e-05    0.000000e+00
-2.584160e-06    -2.301844e-05    0.000000e+00
-6.297690e-19    -2.298936e-05    0.000000e+00
2.584160e-06    -2.301844e-05    0.000000e+00
5.181503e-06    -2.310569e-05    0.000000e+00
7.805210e-06    -2.325110e-05    0.000000e+00
1.046847e-05    -2.345468e-05    0.000000e+00
1.318446e-05    -2.371642e-05    0.000000e+00
-1.384949e-05    -2.653063e-05    0.000000e+00
-1.100049e-05    -2.627935e-05    0.000000e+00
-8.204224e-06    -2.608391e-05    0.000000e+00
-5.447511e-06    -2.594432e-05    0.000000e+00
-2.717164e-06    -2.586056e-05    0.000000e+00
-6.514742e-19    -2.583264e-05    0.000000e+00
2.717164e-06    -2.586056e-05    0.000000e+00
5.447511e-06    -2.594432e-05    0.000000e+00
8.204224e-06    -2.608391e-05    0.000000e+00
1.100049e-05    -2.627935e-05    0.000000e+00
1.384949e-05    -2.653063e-05    0.000000e+00
-1.448737e-05    -2.947512e-05    0.000000e+00
-1.151079e-05    -2.923431e-05    0.000000e+00
-8.586952e-06    -2.904702e-05    0.000000e+00
-5.702662e-06    -2.891324e-05    0.000000e+00
-2.844739e-06    -2.883297e-05    0.000000e+00
-6.593093e-19    -2.880622e-05    0.000000e+00
2.844739e-06    -2.883297e-05    0.000000e+00
5.702662e-06    -2.891324e-05    0.000000e+00
8.586952e-06    -2.904702e-05    0.000000e+00
1.151079e-05    -2.923431e-05    0.000000e+00
1.448737e-05    -2.947512e-05    0.000000e+00
-1.509811e-05    -3.254447e-05    0.000000e+00
-1.199939e-05    -3.231414e-05    0.000000e+00
-8.953395e-06    -3.213499e-05    0.000000e+00
-5.946957e-06    -3.200702e-05    0.000000e+00
-2.966886e-06    -3.193025e-05    0.000000e+00
-6.739206e-19    -3.190465e-05    0.000000e+00
2.966886e-06    -3.193025e-05    0.000000e+00
5.946957e-06    -3.200702e-05    0.000000e+00
8.953395e-06    -3.213499e-05    0.000000e+00
1.199939e-05    -3.231414e-05    0.000000e+00
1.509811e-05    -3.254447e-05    0.000000e+00
-1.568171e-05    -3.573326e-05    0.000000e+00
-1.246626e-05    -3.551339e-05    0.000000e+00
-9.303551e-06    -3.534239e-05    0.000000e+00
-6.180394e-06    -3.522024e-05    0.000000e+00
-3.083605e-06    -3.514695e-05    0.000000e+00
-7.029315e-19    -3.512252e-05    0.000000e+00
3.083605e-06    -3.514695e-05    0.000000e+00
6.180394e-06    -3.522024e-05    0.000000e+00
9.303551e-06    -3.534239e-05    0.000000e+00
1.246626e-05    -3.551339e-05    0.000000e+00
1.568171e-05    -3.573326e-05    0.000000e+00
-1.623816e-05    -3.903605e-05    0.000000e+00
-1.291142e-05    -3.882666e-05    0.000000e+00
-9.637421e-06    -3.866379e-05    0.000000e+00
-6.402974e-06    -3.854746e-05    0.000000e+00
-3.194895e-06    -3.847766e-05    0.000000e+00
-7.492006e-19    -3.845440e-05    0.000000e+00
3.194895e-06    -3.847766e-05    0.000000e+00
6.402974e-06    -3.854746e-05    0.000000e+00
9.637421e-06    -3.866379e-05    0.000000e+00
1.291142e-05    -3.882666e-05    0.000000e+00
1.623816e-05    -3.903605e-05    0.000000e+00
-1.676746e-05    -4.244742e-05    0.000000e+00
-1.333487e-05    -4.224849e-05    0.000000e+00
-9.955005e-06    -4.209377e-05    0.000000e+00
-6.614697e-06    -4.198326e-05    0.000000e+00
-3.300756e-06    -4.191695e-05    0.000000e+00
-8.152692e-19    -4.189485e-05    0.000000e+00
3.300756e-06    -4.191695e-05    0.000000e+00
6.614697e-06    -4.198326e-05    0.000000e+00
9.955005e-06    -4.209377e-05    0.000000e+00
1.333487e-05    -4.224849e-05    0.000000e+00
1.676746e-05    -4.244742e-05    0.000000e+00
-1.726963e-05    -4.596193e-05    0.000000e+00
-1.373660e-05    -4.577348e-05    0.000000e+00
-1.025630e-05    -4.562690e-05    0.000000e+00
-6.815562e-06    -4.552220e-05    0.000000e+00
-3.401189e-06    -4.545938e-05    0.000000e+00
-8.607972e-19    -4.543844e-05    0.000000e+00
3.401189e-06    -4.545938e-05    0.000000e+00
6.815562e-06    -4.552220e-05    0.000000e+00
1.025630e-05    -4.562690e-05    0.000000e+00
1.373660e-05    -4.577348e-05    0.000000e+00
1.726963e-05    -4.596193e-05    0.000000e+00
-1.774465e-05    -4.957417e-05    0.000000e+00
-1.411661e-05    -4.939618e-05    0.000000e+00
-1.054131e-05    -4.925775e-05    0.000000e+00
-7.005569e-06    -4.915887e-05    0.000000e+00
-3.496193e-06    -4.909954e-05    0.000000e+00
-8.915022e-19    -4.907976e-05    0.000000e+00
3.496193e-06    -4.909954e-05    0.000000e+00
7.005569e-06    -4.915887e-05    0.000000e+00
1.054131e-05    -4.925775e-05    0.000000e+00
1.411661e-05    -4.939618e-05    0.000000e+00
1.774465e-05    -4.957417e-05    0.000000e+00
-1.819252e-05    -5.327869e-05    0.000000e+00
-1.447491e-05    -5.311117e-05    0.000000e+00
-1.081004e-05    -5.298088e-05    0.000000e+00
-7.184720e-06    -5.288782e-05    0.000000e+00
-3.585768e-06    -5.283198e-05    0.000000e+00
-9.338538e-19    -5.281336e-05    0.000000e+00
3.585768e-06    -5.283198e-05    0.000000e+00
7.184720e-06    -5.288782e-05    0.000000e+00
1.081004e-05    -5.298088e-05    0.000000e+00
1.447491e-05    -5.311117e-05    0.000000e+00
1.819252e-05    -5.327869e-05    0.000000e+00
-1.861325e-05    -5.707007e-05    0.000000e+00
-1.481150e-05    -5.691303e-05    0.000000e+00
-1.106248e-05    -5.679088e-05    0.000000e+00
-7.353013e-06    -5.670363e-05    0.000000e+00
-3.669915e-06    -5.665128e-05    0.000000e+00
-9.495239e-19    -5.663383e-05    0.000000e+00
3.669915e-06    -5.665128e-05    0.000000e+00
7.353013e-06    -5.670363e-05    0.000000e+00
1.106248e-05    -5.679088e-05    0.000000e+00
1.481150e-05    -5.691303e-05    0.000000e+00
1.861325e-05    -5.707007e-05    0.000000e+00
-1.900684e-05    -6.094289e-05    0.000000e+00
-1.512636e-05    -6.079631e-05    0.000000e+00
-1.129863e-05    -6.068231e-05    0.000000e+00
-7.510450e-06    -6.060087e-05    0.000000e+00
-3.748633e-06    -6.055201e-05    0.000000e+00
-9.637117e-19    -6.053572e-05    0.000000e+00
3.748633e-06    -6.055201e-05    0.000000e+00
7.510450e-06    -6.060087e-05    0.000000e+00
1.129863e-05    -6.068231e-05    0.000000e+00
1.512636e-05    -6.079631e-05    0.000000e+00
1.900684e-05    -6.094289e-05    0.000000e+00
-1.937327e-05    -6.489170e-05    0.000000e+00
-1.541952e-05    -6.475560e-05    0.000000e+00
-1.151850e-05    -6.464973e-05    0.000000e+00
-7.657029e-06    -6.457412e-05    0.000000e+00
-3.821924e-06    -6.452875e-05    0.000000e+00
-9.711233e-19    -6.451362e-05    0.000000e+00
3.821924e-06    -6.452875e-05    0.000000e+00
7.657029e-06    -6.457412e-05    0.000000e+00
1.151850e-05    -6.464973e-05    0.000000e+00
1.541952e-05    -6.475560e-05    0.000000e+00
1.937327e-05    -6.489170e-05    0.000000e+00
-1.971257e-05    -6.891109e-05    0.000000e+00
-1.569096e-05    -6.878545e-05    0.000000e+00
-1.172208e-05    -6.868774e-05    0.000000e+00
-7.792752e-06    -6.861794e-05    0.000000e+00
-3.889784e-06    -6.857606e-05    0.000000e+00
-9.582060e-19    -6.856210e-05    0.000000e+00
3.889784e-06    -6.857606e-05    0.000000e+00
7.792752e-06    -6.861794e-05    0.000000e+00
1.172208e-05    -6.868774e-05    0.000000e+00
1.569096e-05    -6.878545e-05    0.000000e+00
1.971257e-05    -6.891109e-05    0.000000e+00
-2.002471e-05    -7.299561e-05    0.000000e+00
-1.594068e-05    -7.288045e-05    0.000000e+00
-1.190938e-05    -7.279087e-05    0.000000e+00
-7.917612e-06    -7.272690e-05    0.000000e+00
-3.952213e-06    -7.268853e-05    0.000000e+00
-9.565120e-19    -7.267573e-05    0.000000e+00
3.952213e-06    -7.268853e-05    0.000000e+00
7.917612e-06    -7.272690e-05    0.000000e+00
1.190938e-05    -7.279087e-05    0.000000e+00
1.594068e-05    -7.288045e-05    0.000000e+00
2.002471e-05    -7.299561e-05    0.000000e+00
-2.030971e-05    -7.713983e-05    0.000000e+00
-1.616870e-05    -7.703513e-05    0.000000e+00
-1.208038e-05    -7.695372e-05    0.000000e+00
-8.031601e-06    -7.689559e-05    0.000000e+00
-4.009199e-06    -7.686073e-05    0.000000e+00
-9.893345e-19    -7.684911e-05    0.000000e+00
4.009199e-06    -7.686073e-05    0.000000e+00
8.031601e-06    -7.689559e-05    0.000000e+00
1.208038e-05    -7.695372e-05    0.000000e+00
1.616870e-05    -7.703513e-05    0.000000e+00
2.030971e-05    -7.713983e-05    0.000000e+00
-2.056757e-05    -8.133829e-05    0.000000e+00
-1.637501e-05    -8.124406e-05    0.000000e+00
-1.223508e-05    -8.117081e-05    0.000000e+00
-8.134687e-06    -8.111857e-05    0.000000e+00
-4.060720e-06    -8.108727e-05    0.000000e+00
-1.023639e-18    -8.107684e-05    0.000000e+00
4.060720e-06    -8.108727e-05    0.000000e+00
8.134687e-06    -8.111857e-05    0.000000e+00
1.223508e-05    -8.117081e-05    0.000000e+00
1.637501e-05    -8.124406e-05    0.000000e+00
2.056757e-05    -8.133829e-05    0.000000e+00
-2.079834e-05    -8.558552e-05    0.000000e+00
-1.655964e-05    -8.550175e-05    0.000000e+00
-1.237344e-05    -8.543672e-05    0.000000e+00
-8.226804e-06    -8.539043e-05    0.000000e+00
-4.106725e-06    -8.536278e-05    0.000000e+00
-1.090978e-18    -8.535358e-05    0.000000e+00
4.106725e-06    -8.536278e-05    0.000000e+00
8.226804e-06    -8.539043e-05    0.000000e+00
1.237344e-05    -8.543672e-05    0.000000e+00
1.655964e-05    -8.550175e-05    0.000000e+00
2.079834e-05    -8.558552e-05    0.000000e+00
-2.100211e-05    -8.987605e-05    0.000000e+00
-1.672261e-05    -8.980271e-05    0.000000e+00
-1.249537e-05    -8.974596e-05    0.000000e+00
-8.307809e-06    -8.970580e-05    0.000000e+00
-4.147108e-06    -8.968194e-05    0.000000e+00
-1.155776e-18    -8.967403e-05    0.000000e+00
4.147108e-06    -8.968194e-05    0.000000e+00
8.307809e-06    -8.970580e-05    0.000000e+00
1.249537e-05    -8.974596e-05    0.000000e+00
1.672261e-05    -8.980271e-05    0.000000e+00
2.100211e-05    -8.987605e-05    0.000000e+00
-2.117913e-05    -9.420441e-05    0.000000e+00
-1.686399e-05    -9.414144e-05    0.000000e+00
-1.260070e-05    -9.409310e-05    0.000000e+00
-8.377429e-06    -9.405933e-05    0.000000e+00
-4.181680e-06    -9.403951e-05    0.000000e+00
-1.190928e-18    -9.403299e-05    0.000000e+00
4.181680e-06    -9.403951e-05    0.000000e+00
8.377429e-06    -9.405933e-05    0.000000e+00
1.260070e-05    -9.409310e-05    0.000000e+00
1.686399e-05    -9.414144e-05    0.000000e+00
2.117913e-05    -9.420441e-05    0.000000e+00
-2.132994e-05    -9.856526e-05    0.000000e+00
-1.698388e-05    -9.851251e-05    0.000000e+00
-1.268909e-05    -9.847278e-05    0.000000e+00
-8.435207e-06    -9.844577e-05    0.000000e+00
-4.210142e-06    -9.843029e-05    0.000000e+00
-1.254032e-18    -9.842526e-05    0.000000e+00
4.210142e-06    -9.843029e-05    0.000000e+00
8.435207e-06    -9.844577e-05    0.000000e+00
1.268909e-05    -9.847278e-05    0.000000e+00
1.698388e-05    -9.851251e-05    0.000000e+00
2.132994e-05    -9.856526e-05    0.000000e+00
-2.145563e-05    -1.029537e-04    0.000000e+00
-1.708235e-05    -1.029109e-04    0.000000e+00
-1.275997e-05    -1.028800e-04    0.000000e+00
-8.480519e-06    -1.028600e-04    0.000000e+00
-4.232144e-06    -1.028490e-04    0.000000e+00
-1.319677e-18    -1.028454e-04    0.000000e+00
4.232144e-06    -1.028490e-04    0.000000e+00
8.480519e-06    -1.028600e-04    0.000000e+00
1.275997e-05    -1.028800e-04    0.000000e+00
1.708235e-05    -1.029109e-04    0.000000e+00
2.145563e-05    -1.029537e-04    0.000000e+00
-2.155818e-05    -1.073660e-04    0.000000e+00
-1.715935e-05    -1.073327e-04    0.000000e+00
-1.281259e-05    -1.073106e-04    0.000000e+00
-8.512905e-06    -1.072970e-04    0.000000e+00
-4.247580e-06    -1.072895e-04    0.000000e+00
-1.270973e-18    -1.072870e-04    0.000000e+00
4.247580e-06    -1.072895e-04    0.000000e+00
8.512905e-06    -1.072970e-04    0.000000e+00
1.281259e-05    -1.073106e-04    0.000000e+00
1.715935e-05    -1.073327e-04    0.000000e+00
2.155818e-05    -1.073660e-04    0.000000e+00
-2.164068e-05    -1.118023e-04    0.000000e+00
-1.721430e-05    -1.117773e-04    0.000000e+00
-1.284671e-05    -1.117621e-04    0.000000e+00
-8.533272e-06    -1.117511e-04    0.000000e+00
-4.257282e-06    -1.117436e-04    0.000000e+00
-1.188387e-18    -1.117409e-04    0.000000e+00
4.257282e-06    -1.117436e-04    0.000000e+00
8.533272e-06    -1.117511e-04    0.000000e+00
1.284671e-05    -1.117621e-04    0.000000e+00
1.721430e-05    -1.117773e-04    0.000000e+00
2.164068e-05    -1.118023e-04    0.000000e+00
-2.170513e-05    -1.162704e-04    0.000000e+00
-1.724616e-05    -1.162524e-04    0.000000e+00
-1.286626e-05    -1.162338e-04    0.000000e+00
-8.546208e-06    -1.162132e-04    0.000000e+00
-4.263866e-06    -1.161979e-04    0.000000e+00
-1.175682e-18    -1.161922e-04    0.000000e+00
4.263866e-06    -1.161979e-04    0.000000e+00
8.546208e-06    -1.162132e-04    0.000000e+00
1.286626e-05    -1.162338e-04    0.000000e+00
1.724616e-05    -1.162524e-04    0.000000e+00
2.170513e-05    -1.162704e-04    0.000000e+00
-2.173924e-05    -1.208106e-04    0.000000e+00
-1.726634e-05    -1.207758e-04    0.000000e+00
-1.288608e-05    -1.207173e-04    0.000000e+00
-8.561323e-06    -1.206645e-04    0.000000e+00
-4.272040e-06    -1.206293e-04    0.000000e+00
-1.169329e-18    -1.206170e-04    0.000000e+00
4.272040e-06    -1.206293e-04    0.000000e+00
8.561323e-06    -1.206645e-04    0.000000e+00
1.288608e-05    -1.207173e-04    0.000000e+00
1.726634e-05    -1.207758e-04    0.000000e+00
2.173924e-05    -1.208106e-04    0.000000e+00

CELL_DATA      400
TENSORS Element_Stress4.600000e-01 double
1.820598e+06 2.551813e+05        0
2.551813e+05 4.163490e+05        0
       0        0        0

1.243720e+06 1.308538e+05        0
1.308538e+05 3.566179e+05        0
       0        0        0

8.651187e+05 4.301034e+04        0
4.301034e+04 2.749959e+05        0
       0        0        0

5.100064e+05 -3.578354e+03        0
-3.578354e+03 1.690094e+05        0
       0        0        0

1.688541e+05 -2.488323e+04        0
-2.488323e+04 5.694969e+04        0
       0        0        0

-1.688184e+05 -2.487711e+04        0
-2.487711e+04 -5.695776e+04        0
       0        0        0

-5.095307e+05 -3.579103e+03        0
-3.579103e+03 -1.688448e+05        0
       0        0        0

-8.637079e+05 4.293853e+04        0
4.293853e+04 -2.744672e+05        0
       0        0        0

-1.240734e+06 1.305652e+05        0
1.305652e+05 -3.554741e+05        0
       0        0        0

-1.814375e+06 2.543708e+05        0
2.543708e+05 -4.141971e+05        0
       0        0        0

1.642071e+06 4.159749e+04        0
4.159749e+04 4.234800e+03        0
       0        0        0

1.322354e+06 1.206454e+05        0
1.206454e+05 1.286843e+05        0
       0        0        0

9.082524e+05 9.900758e+04        0
9.900758e+04 1.315192e+05        0
       0        0        0

5.364026e+05 7.580681e+04        0
7.580681e+04 9.193314e+04        0
       0        0        0

1.768172e+05 6.321710e+04        0
6.321710e+04 3.207758e+04        0
       0        0        0

-1.778550e+05 6.319876e+04        0
6.319876e+04 -3.316897e+04        0
       0        0        0

-5.369365e+05 7.574136e+04        0
7.574136e+04 -9.284493e+04        0
       0        0        0

-9.077063e+05 9.886741e+04        0
9.886741e+04 -1.320380e+05        0
       0        0        0

-1.319831e+06 1.204079e+05        0
1.204079e+05 -1.284324e+05        0
       0        0        0

-1.637467e+06 4.151084e+04        0
4.151084e+04 -3.136556e+03        0
       0        0        0

1.584953e+06 1.541640e+04        0
1.541640e+04 6.615318e+03        0
       0        0        0

1.271592e+06 6.833112e+04        0
6.833112e+04 1.757729e+04        0
       0        0        0

9.146416e+05 1.015639e+05        0
1.015639e+05 4.237688e+04        0
       0        0        0

5.430827e+05 1.074765e+05        0
1.074765e+05 3.592347e+04        0
       0        0        0

1.791459e+05 1.074055e+05        0
1.074055e+05 1.272037e+04        0
       0        0        0

-1.824791e+05 1.073775e+05        0
1.073775e+05 -1.611191e+04        0
       0        0        0

-5.458839e+05 1.073934e+05        0
1.073934e+05 -3.912504e+04        0
       0        0        0

-9.163120e+05 1.014348e+05        0
1.014348e+05 -4.515294e+04        0
       0        0        0

-1.271565e+06 6.821625e+04        0
6.821625e+04 -1.966894e+04        0
       0        0        0

-1.582978e+06 1.538449e+04        0
1.538449e+04 -7.911809e+03        0
       0        0        0

1.546130e+06 1.427370e+04        0
1.427370e+04 -3.975754e+03        0
       0        0        0

1.226683e+06 5.548210e+04        0
5.548210e+04 -1.953362e+03        0
       0        0        0

8.865540e+05 9.245028e+04        0
9.245028e+04 2.933169e+03        0
       0        0        0

5.331316e+05 1.146030e+05        0
1.146030e+05 5.877771e+03        0
       0        0        0

1.753741e+05 1.233579e+05        0
1.233579e+05 6.880619e+02        0
       0        0        0

-1.820438e+05 1.233284e+05        0
1.233284e+05 -7.415937e+03        0
       0        0        0

-5.392753e+05 1.145213e+05        0
1.145213e+05 -1.241206e+04        0
       0        0        0

-8.916352e+05 9.234266e+04        0
9.234266e+04 -9.058369e+03        0
       0        0        0

-1.230189e+06 5.539390e+04        0
5.539390e+04 -3.528933e+03        0
       0        0        0

-1.547533e+06 1.424569e+04        0
1.424569e+04 -5.504394e+02        0
       0        0        0

1.509428e+06 1.713064e+04        0
1.713064e+04 -5.567252e+03        0
       0        0        0

1.185340e+06 5.448735e+04        0
5.448735e+04 -8.577655e+03        0
       0        0        0

8.541563e+05 8.905472e+04        0
8.905472e+04 -8.329309e+03        0
       0        0        0

5.137341e+05 1.136409e+05        0
1.136409e+05 -6.745283e+03        0
       0        0        0

1.681056e+05 1.258450e+05        0
1.258450e+05 -5.639047e+03        0
       0        0        0

-1.789903e+05 1.258167e+05        0
1.258167e+05 -5.300822e+03        0
       0        0        0

-5.241239e+05 1.135646e+05        0
1.135646e+05 -4.010291e+03        0
       0        0        0

-8.635545e+05 8.895615e+04        0
8.895615e+04 -2.042814e+03        0
       0        0        0

-1.193245e+06 5.440411e+04        0
5.440411e+04 -1.179543e+03        0
       0        0        0

-1.515273e+06 1.709767e+04        0
1.709767e+04 -3.264827e+03        0
       0        0        0

1.469672e+06 1.958964e+04        0
1.958964e+04 -7.911535e+03        0
       0        0        0

1.147077e+06 5.644561e+04        0
5.644561e+04 -1.054799e+04        0
       0        0        0

8.224153e+05 8.838597e+04        0
8.838597e+04 -1.192775e+04        0
       0        0        0

4.928621e+05 1.117722e+05        0
1.117722e+05 -1.113899e+04        0
       0        0        0

1.594066e+05 1.239614e+05        0
1.239614e+05 -9.157853e+03        0
       0        0        0

-1.752704e+05 1.239348e+05        0
1.239348e+05 -6.757346e+03        0
       0        0        0

-5.082718e+05 1.117003e+05        0
1.117003e+05 -4.611026e+03        0
       0        0        0

-8.369140e+05 8.829174e+04        0
8.829174e+04 -3.479959e+03        0
       0        0        0

-1.160194e+06 5.636193e+04        0
5.636193e+04 -4.312367e+03        0
       0        0        0

-1.480880e+06 1.955285e+04        0
1.955285e+04 -6.139557e+03        0
       0        0        0

1.427069e+06 2.114429e+04        0
2.114429e+04 -1.052965e+04        0
       0        0        0

1.109854e+06 5.834960e+04        0
5.834960e+04 -1.236662e+04        0
       0        0        0

7.924053e+05 8.864131e+04        0
8.864131e+04 -1.362108e+04        0
       0        0        0

4.726278e+05 1.103428e+05        0
1.103428e+05 -1.337051e+04        0
       0        0        0

1.506200e+05 1.216736e+05        0
1.216736e+05 -1.181697e+04        0
       0        0        0

-1.721469e+05 1.216483e+05        0
1.216483e+05 -9.757745e+03        0
       0        0        0

-4.937484e+05 1.102742e+05        0
1.102742e+05 -8.067263e+03        0
       0        0        0

-8.127096e+05 8.854976e+04        0
8.854976e+04 -7.533913e+03        0
       0        0        0

-1.128918e+06 5.826555e+04        0
5.826555e+04 -8.339740e+03        0
       0        0        0

-1.444434e+06 2.110562e+04        0
2.110562e+04 -9.528615e+03        0
       0        0        0

1.382472e+06 2.200182e+04        0
2.200182e+04 -1.363723e+04        0
       0        0        0

1.072891e+06 5.961400e+04        0
5.961400e+04 -1.472184e+04        0
       0        0        0

7.635787e+05 8.901011e+04        0
8.901011e+04 -1.557415e+04        0
       0        0        0

4.533126e+05 1.094858e+05        0
1.094858e+05 -1.552413e+04        0
       0        0        0

1.419522e+05 1.200358e+05        0
1.200358e+05 -1.458785e+04        0
       0        0        0

-1.697603e+05 1.200117e+05        0
1.200117e+05 -1.326480e+04        0
       0        0        0

-4.807668e+05 1.094199e+05        0
1.094199e+05 -1.222642e+04        0
       0        0        0

-7.903214e+05 8.892094e+04        0
8.892094e+04 -1.196594e+04        0
       0        0        0

-1.098554e+06 5.953062e+04        0
5.953062e+04 -1.248636e+04        0
       0        0        0

-1.406666e+06 2.196271e+04        0
2.196271e+04 -1.309847e+04        0
       0        0        0

1.336650e+06 2.243104e+04        0
2.243104e+04 -1.712976e+04        0
       0        0        0

1.035846e+06 6.032511e+04        0
6.032511e+04 -1.770735e+04        0
       0        0        0

7.353692e+05 8.928004e+04        0
8.928004e+04 -1.819358e+04        0
       0        0        0

4.345843e+05 1.090315e+05        0
1.090315e+05 -1.820575e+04        0
       0        0        0

1.333511e+05 1.190752e+05        0
1.190752e+05 -1.770720e+04        0
       0        0        0

-1.679949e+05 1.190520e+05        0
1.190520e+05 -1.697819e+04        0
       0        0        0

-4.689287e+05 1.089678e+05        0
1.089678e+05 -1.641606e+04        0
       0        0        0

-7.691118e+05 8.919333e+04        0
8.919333e+04 -1.629668e+04        0
       0        0        0

-1.068677e+06 6.024327e+04        0
6.024327e+04 -1.657481e+04        0
       0        0        0

-1.368247e+06 2.239236e+04        0
2.239236e+04 -1.685618e+04        0
       0        0        0

1.290108e+06 2.262770e+04        0
2.262770e+04 -2.093371e+04        0
       0        0        0

9.986147e+05 6.068322e+04        0
6.068322e+04 -2.119242e+04        0
       0        0        0

7.073841e+05 8.943851e+04        0
8.943851e+04 -2.142409e+04        0
       0        0        0

4.161154e+05 1.088122e+05        0
1.088122e+05 -2.143280e+04        0
       0        0        0

1.247137e+05 1.185759e+05        0
1.185759e+05 -2.118595e+04        0
       0        0        0

-1.666835e+05 1.185536e+05        0
1.185536e+05 -2.082275e+04        0
       0        0        0

-4.578409e+05 1.087507e+05        0
1.087507e+05 -2.055220e+04        0
       0        0        0

-7.486183e+05 8.935436e+04        0
8.935436e+04 -2.051029e+04        0
       0        0        0

-1.039105e+06 6.060348e+04        0
6.060348e+04 -2.065827e+04        0
       0        0        0

-1.329592e+06 2.258991e+04        0
2.258991e+04 -2.079208e+04        0
       0        0        0

1.243138e+06 2.270944e+04        0
2.270944e+04 -2.498211e+04        0
       0        0        0

9.611831e+05 6.084709e+04        0
6.084709e+04 -2.504188e+04        0
       0        0        0

6.794121e+05 8.952010e+04        0
8.952010e+04 -2.510677e+04        0
       0        0        0

3.976943e+05 1.087151e+05        0
1.087151e+05 -2.508706e+04        0
       0        0        0

1.159751e+05 1.183403e+05        0
1.183403e+05 -2.496215e+04        0
       0        0        0

-1.656967e+05 1.183187e+05        0
1.183187e+05 -2.479578e+04        0
       0        0        0

-4.472258e+05 1.086557e+05        0
1.086557e+05 -2.468700e+04        0
       0        0        0

-7.285610e+05 8.943862e+04        0
8.943862e+04 -2.469695e+04        0
       0        0        0

-1.009752e+06 6.076973e+04        0
6.076973e+04 -2.480001e+04        0
       0        0        0

-1.290922e+06 2.267275e+04        0
2.267275e+04 -2.489963e+04        0
       0        0        0

1.195902e+06 2.273919e+04        0
2.273919e+04 -2.922325e+04        0
       0        0        0

9.235710e+05 6.091460e+04        0
6.091460e+04 -2.915048e+04        0
       0        0        0

6.513592e+05 8.955770e+04        0
8.955770e+04 -2.910388e+04        0
       0        0        0

3.792148e+05 1.086760e+05        0
1.086760e+05 -2.904720e+04        0
       0        0        0

1.071092e+05 1.182389e+05        0
1.182389e+05 -2.897001e+04        0
       0        0        0

-1.649444e+05 1.182181e+05        0
1.182181e+05 -2.889902e+04        0
       0        0        0

-4.369127e+05 1.086186e+05        0
1.086186e+05 -2.887698e+04        0
       0        0        0

-7.087802e+05 8.947894e+04        0
8.947894e+04 -2.892825e+04        0
       0        0        0

-9.805711e+05 6.083977e+04        0
6.083977e+04 -2.903785e+04        0
       0        0        0

-1.252331e+06 2.270370e+04        0
2.270370e+04 -2.916303e+04        0
       0        0        0

1.148491e+06 2.274764e+04        0
2.274764e+04 -3.361529e+04        0
       0        0        0

8.858089e+05 6.093853e+04        0
6.093853e+04 -3.344416e+04        0
       0        0        0

6.231975e+05 8.957288e+04        0
8.957288e+04 -3.331677e+04        0
       0        0        0

3.606385e+05 1.086618e+05        0
1.086618e+05 -3.322147e+04        0
       0        0        0

9.811736e+04 1.181998e+05        0
1.181998e+05 -3.315418e+04        0
       0        0        0

-1.643651e+05 1.181797e+05        0
1.181797e+05 -3.312515e+04        0
       0        0        0

-4.268001e+05 1.086064e+05        0
1.086064e+05 -3.315083e+04        0
       0        0        0

-6.891846e+05 8.949686e+04        0
8.949686e+04 -3.323924e+04        0
       0        0        0

-9.515286e+05 6.086629e+04        0
6.086629e+04 -3.338184e+04        0
       0        0        0

-1.213844e+06 2.271337e+04        0
2.271337e+04 -3.356051e+04        0
       0        0        0

1.100960e+06 2.274842e+04        0
2.274842e+04 -3.812280e+04        0
       0        0        0

8.479291e+05 6.094462e+04        0
6.094462e+04 -3.787021e+04        0
       0        0        0

5.949323e+05 8.957766e+04        0
8.957766e+04 -3.767805e+04        0
       0        0        0

3.419636e+05 1.086573e+05        0
1.086573e+05 -3.754496e+04        0
       0        0        0

8.901559e+04 1.181868e+05        0
1.181868e+05 -3.747029e+04        0
       0        0        0

-1.639143e+05 1.181674e+05        0
1.181674e+05 -3.745770e+04        0
       0        0        0

-4.168254e+05 1.086039e+05        0
1.086039e+05 -3.751249e+04        0
       0        0        0

-6.697182e+05 8.950439e+04        0
8.950439e+04 -3.763610e+04        0
       0        0        0

-9.225954e+05 6.087500e+04        0
6.087500e+04 -3.782345e+04        0
       0        0        0

-1.175457e+06 2.271540e+04        0
2.271540e+04 -3.806660e+04        0
       0        0        0

1.053347e+06 2.274704e+04        0
2.274704e+04 -4.271423e+04        0
       0        0        0

8.099628e+05 6.094431e+04        0
6.094431e+04 -4.238868e+04        0
       0        0        0

5.665833e+05 8.957806e+04        0
8.957806e+04 -4.214002e+04        0
       0        0        0

3.232061e+05 1.086560e+05        0
1.086560e+05 -4.197070e+04        0
       0        0        0

7.982720e+04 1.181835e+05        0
1.181835e+05 -4.188173e+04        0
       0        0        0

-1.635563e+05 1.181649e+05        0
1.181649e+05 -4.187449e+04        0
       0        0        0

-4.069458e+05 1.086046e+05        0
1.086046e+05 -4.195010e+04        0
       0        0        0

-6.503418e+05 8.950756e+04        0
8.950756e+04 -4.210769e+04        0
       0        0        0

-8.937440e+05 6.087732e+04        0
6.087732e+04 -4.234384e+04        0
       0        0        0

-1.137149e+06 2.271527e+04        0
2.271527e+04 -4.265431e+04        0
       0        0        0

1.005683e+06 2.274540e+04        0
2.274540e+04 -4.736041e+04        0
       0        0        0

7.719396e+05 6.094221e+04        0
6.094221e+04 -4.696669e+04        0
       0        0        0

5.381757e+05 8.957684e+04        0
8.957684e+04 -4.666610e+04        0
       0        0        0

3.043895e+05 1.086553e+05        0
1.086553e+05 -4.646221e+04        0
       0        0        0

7.057816e+04 1.181833e+05        0
1.181833e+05 -4.635678e+04        0
       0        0        0

-1.632605e+05 1.181654e+05        0
1.181654e+05 -4.635061e+04        0
       0        0        0

-3.971279e+05 1.086060e+05        0
1.086060e+05 -4.644349e+04        0
       0        0        0

-6.310242e+05 8.950910e+04        0
8.950910e+04 -4.663396e+04        0
       0        0        0

-8.649475e+05 6.087785e+04        0
6.087785e+04 -4.691932e+04        0
       0        0        0

-1.098893e+06 2.271488e+04        0
2.271488e+04 -4.729640e+04        0
       0        0        0

9.579956e+05 2.274401e+04        0
2.274401e+04 -5.203383e+04        0
       0        0        0

7.338874e+05 6.093991e+04        0
6.093991e+04 -5.157527e+04        0
       0        0        0

5.097361e+05 8.957511e+04        0
8.957511e+04 -5.122569e+04        0
       0        0        0

2.855394e+05 1.086546e+05        0
1.086546e+05 -5.098883e+04        0
       0        0        0

6.129495e+04 1.181835e+05        0
1.181835e+05 -5.086678e+04        0
       0        0        0

-1.629990e+05 1.181663e+05        0
1.181663e+05 -5.086028e+04        0
       0        0        0

-3.873433e+05 1.086073e+05        0
1.086073e+05 -5.096889e+04        0
       0        0        0

-6.117375e+05 8.951014e+04        0
8.951014e+04 -5.119111e+04        0
       0        0        0

-8.361793e+05 6.087817e+04        0
6.087817e+04 -5.152451e+04        0
       0        0        0

-1.060664e+06 2.271473e+04        0
2.271473e+04 -5.196608e+04        0
       0        0        0

9.103104e+05 2.274290e+04        0
2.274290e+04 -5.670832e+04        0
       0        0        0

6.958328e+05 6.093782e+04        0
6.093782e+04 -5.618771e+04        0
       0        0        0

4.812908e+05 8.957331e+04        0
8.957331e+04 -5.579144e+04        0
       0        0        0

2.666818e+05 1.086537e+05        0
1.086537e+05 -5.552315e+04        0
       0        0        0

5.200353e+04 1.181835e+05        0
1.181835e+05 -5.538503e+04        0
       0        0        0

-1.627454e+05 1.181671e+05        0
1.181671e+05 -5.537793e+04        0
       0        0        0

-3.775654e+05 1.086084e+05        0
1.086084e+05 -5.550147e+04        0
       0        0        0

-5.924557e+05 8.951110e+04        0
8.951110e+04 -5.575425e+04        0
       0        0        0

-8.074138e+05 6.087872e+04        0
6.087872e+04 -5.613393e+04        0
       0        0        0

-1.022436e+06 2.271487e+04        0
2.271487e+04 -5.663738e+04        0
       0        0        0

8.626522e+05 2.274199e+04        0
2.274199e+04 -6.135881e+04        0
       0        0        0

6.578009e+05 6.093598e+04        0
6.093598e+04 -6.077885e+04        0
       0        0        0

4.528651e+05 8.957153e+04        0
8.957153e+04 -6.033798e+04        0
       0        0        0

2.478418e+05 1.086526e+05        0
1.086526e+05 -6.003974e+04        0
       0        0        0

4.272897e+04 1.181833e+05        0
1.181833e+05 -5.988633e+04        0
       0        0        0

-1.624747e+05 1.181676e+05        0
1.181676e+05 -5.987870e+04        0
       0        0        0

-3.677694e+05 1.086093e+05        0
1.086093e+05 -6.001659e+04        0
       0        0        0

-5.731540e+05 8.951209e+04        0
8.951209e+04 -6.029869e+04        0
       0        0        0

-7.786262e+05 6.087950e+04        0
6.087950e+04 -6.072269e+04        0
       0        0        0

-9.841822e+05 2.271521e+04        0
2.271521e+04 -6.128533e+04        0
       0        0        0

8.150448e+05 2.274120e+04        0
2.274120e+04 -6.596139e+04        0
       0        0        0

6.198158e+05 6.093431e+04        0
6.093431e+04 -6.532476e+04        0
       0        0        0

4.244831e+05 8.956981e+04        0
8.956981e+04 -6.484135e+04        0
       0        0        0

2.290436e+05 1.086514e+05        0
1.086514e+05 -6.451459e+04        0
       0        0        0

3.349527e+04 1.181828e+05        0
1.181828e+05 -6.434670e+04        0
       0        0        0

-1.621631e+05 1.181679e+05        0
1.181679e+05 -6.433868e+04        0
       0        0        0

-3.579316e+05 1.086101e+05        0
1.086101e+05 -6.449038e+04        0
       0        0        0

-5.538089e+05 8.951314e+04        0
8.951314e+04 -6.480055e+04        0
       0        0        0

-7.497927e+05 6.088045e+04        0
6.088045e+04 -6.526688e+04        0
       0        0        0

-9.458793e+05 2.271566e+04        0
2.271566e+04 -6.588599e+04        0
       0        0        0

7.675110e+05 2.274047e+04        0
2.274047e+04 -7.049322e+04        0
       0        0        0

5.819003e+05 6.093275e+04        0
6.093275e+04 -6.980263e+04        0
       0        0        0

3.961678e+05 8.956814e+04        0
8.956814e+04 -6.927874e+04        0
       0        0        0

2.103102e+05 1.086501e+05        0
1.086501e+05 -6.892489e+04        0
       0        0        0

2.432533e+04 1.181822e+05        0
1.181822e+05 -6.874330e+04        0
       0        0        0

-1.617878e+05 1.181680e+05        0
1.181680e+05 -6.873502e+04        0
       0        0        0

-3.480291e+05 1.086108e+05        0
1.086108e+05 -6.889997e+04        0
       0        0        0

-5.343974e+05 8.951423e+04        0
8.951423e+04 -6.923693e+04        0
       0        0        0

-7.208903e+05 6.088152e+04        0
6.088152e+04 -6.974360e+04        0
       0        0        0

-9.075042e+05 2.271618e+04        0
2.271618e+04 -7.041652e+04        0
       0        0        0

7.200724e+05 2.273979e+04        0
2.273979e+04 -7.493253e+04        0
       0        0        0

5.440763e+05 6.093127e+04        0
6.093127e+04 -7.419074e+04        0
       0        0        0

3.679410e+05 8.956651e+04        0
8.956651e+04 -7.362844e+04        0
       0        0        0

1.916633e+05 1.086488e+05        0
1.086488e+05 -7.324893e+04        0
       0        0        0

1.524096e+04 1.181815e+05        0
1.181815e+05 -7.305439e+04        0
       0        0        0

-1.613270e+05 1.181680e+05        0
1.181680e+05 -7.304593e+04        0
       0        0        0

-3.380404e+05 1.086115e+05        0
1.086115e+05 -7.322353e+04        0
       0        0        0

-5.148980e+05 8.951536e+04        0
8.951536e+04 -7.358601e+04        0
       0        0        0

-6.918974e+05 6.088267e+04        0
6.088267e+04 -7.413105e+04        0
       0        0        0

-8.690352e+05 2.271674e+04        0
2.271674e+04 -7.485515e+04        0
       0        0        0

6.727497e+05 2.273916e+04        0
2.273916e+04 -7.925867e+04        0
       0        0        0

5.063644e+05 6.092988e+04        0
6.092988e+04 -7.846847e+04        0
       0        0        0

3.398236e+05 8.956492e+04        0
8.956492e+04 -7.786986e+04        0
       0        0        0

1.731238e+05 1.086474e+05        0
1.086474e+05 -7.746609e+04        0
       0        0        0

6.262856e+03 1.181807e+05        0
1.181807e+05 -7.725932e+04        0
       0        0        0

-1.607601e+05 1.181679e+05        0
1.181679e+05 -7.725072e+04        0
       0        0        0

-3.279449e+05 1.086122e+05        0
1.086122e+05 -7.744034e+04        0
       0        0        0

-4.952901e+05 8.951654e+04        0
8.951654e+04 -7.782705e+04        0
       0        0        0

-6.627934e+05 6.088391e+04        0
6.088391e+04 -7.840852e+04        0
       0        0        0

-8.304515e+05 2.271735e+04        0
2.271735e+04 -7.918119e+04        0
       0        0        0

6.255623e+05 2.273860e+04        0
2.273860e+04 -8.345207e+04        0
       0        0        0

4.687842e+05 6.092862e+04        0
6.092862e+04 -8.261625e+04        0
       0        0        0

3.118351e+05 8.956337e+04        0
8.956337e+04 -8.198346e+04        0
       0        0        0

1.547113e+05 1.086460e+05        0
1.086460e+05 -8.155682e+04        0
       0        0        0

-2.589358e+03 1.181797e+05        0
1.181797e+05 -8.133853e+04        0
       0        0        0

-1.600676e+05 1.181677e+05        0
1.181677e+05 -8.132980e+04        0
       0        0        0

-3.177230e+05 1.086128e+05        0
1.086128e+05 -8.153077e+04        0
       0        0        0

-4.755542e+05 8.951776e+04        0
8.951776e+04 -8.194041e+04        0
       0        0        0

-6.335586e+05 6.088527e+04        0
6.088527e+04 -8.255639e+04        0
       0        0        0

-7.917333e+05 2.271805e+04        0
2.271805e+04 -8.337506e+04        0
       0        0        0

5.785286e+05 2.273818e+04        0
2.273818e+04 -8.749422e+04        0
       0        0        0

4.313543e+05 6.092753e+04        0
6.092753e+04 -8.661563e+04        0
       0        0        0

2.839942e+05 8.956188e+04        0
8.956188e+04 -8.595076e+04        0
       0        0        0

1.364444e+05 1.086444e+05        0
1.086444e+05 -8.550264e+04        0
       0        0        0

-1.129714e+04 1.181785e+05        0
1.181785e+05 -8.527351e+04        0
       0        0        0

-1.592310e+05 1.181672e+05        0
1.181672e+05 -8.526466e+04        0
       0        0        0

-3.073565e+05 1.086132e+05        0
1.086132e+05 -8.547634e+04        0
       0        0        0

-4.556718e+05 8.951902e+04        0
8.951902e+04 -8.590758e+04        0
       0        0        0

-6.041746e+05 6.088682e+04        0
6.088682e+04 -8.655613e+04        0
       0        0        0

-7.528621e+05 2.271887e+04        0
2.271887e+04 -8.741824e+04        0
       0        0        0

5.316658e+05 2.273796e+04        0
2.273796e+04 -9.136773e+04        0
       0        0        0

3.940921e+05 6.092665e+04        0
6.092665e+04 -9.044914e+04        0
       0        0        0

2.563185e+05 8.956037e+04        0
8.956037e+04 -8.975420e+04        0
       0        0        0

1.183407e+05 1.086427e+05        0
1.086427e+05 -8.928595e+04        0
       0        0        0

-1.984307e+04 1.181772e+05        0
1.181772e+05 -8.904678e+04        0
       0        0        0

-1.582330e+05 1.181666e+05        0
1.181666e+05 -8.903801e+04        0
       0        0        0

-2.968279e+05 1.086135e+05        0
1.086135e+05 -8.925982e+04        0
       0        0        0

-4.356258e+05 8.952028e+04        0
8.952028e+04 -8.971130e+04        0
       0        0        0

-5.746241e+05 6.088856e+04        0
6.088856e+04 -9.039036e+04        0
       0        0        0

-7.138202e+05 2.271989e+04        0
2.271989e+04 -9.129329e+04        0
       0        0        0

4.849900e+05 2.273797e+04        0
2.273797e+04 -9.505620e+04        0
       0        0        0

3.570143e+05 6.092579e+04        0
6.092579e+04 -9.410016e+04        0
       0        0        0

2.288244e+05 8.955864e+04        0
8.955864e+04 -9.337684e+04        0
       0        0        0

1.004164e+05 1.086409e+05        0
1.086409e+05 -9.288977e+04        0
       0        0        0

-2.821088e+04 1.181759e+05        0
1.181759e+05 -9.264174e+04        0
       0        0        0

-1.570571e+05 1.181660e+05        0
1.181660e+05 -9.263383e+04        0
       0        0        0

-2.861210e+05 1.086137e+05        0
1.086137e+05 -9.286559e+04        0
       0        0        0

-4.154000e+05 8.952132e+04        0
8.952132e+04 -9.333587e+04        0
       0        0        0

-5.448909e+05 6.089032e+04        0
6.089032e+04 -9.404303e+04        0
       0        0        0

-6.745909e+05 2.272115e+04        0
2.272115e+04 -9.498392e+04        0
       0        0        0

4.385166e+05 2.273799e+04        0
2.273799e+04 -9.854417e+04        0
       0        0        0

3.201365e+05 6.092414e+04        0
6.092414e+04 -9.755246e+04        0
       0        0        0

2.015270e+05 8.955606e+04        0
8.955606e+04 -9.680158e+04        0
       0        0        0

8.268603e+04 1.086394e+05        0
1.086394e+05 -9.629696e+04        0
       0        0        0

-3.638574e+04 1.181761e+05        0
1.181761e+05 -9.604238e+04        0
       0        0        0

-1.556878e+05 1.181669e+05        0
1.181669e+05 -9.603773e+04        0
       0        0        0

-2.752198e+05 1.086142e+05        0
1.086142e+05 -9.628035e+04        0
       0        0        0

-3.949790e+05 8.952151e+04        0
8.952151e+04 -9.676792e+04        0
       0        0        0

-5.149602e+05 6.089131e+04        0
6.089131e+04 -9.749984e+04        0
       0        0        0

-6.351591e+05 2.272242e+04        0
2.272242e+04 -9.847497e+04        0
       0        0        0

3.922608e+05 2.273705e+04        0
2.273705e+04 -1.018168e+05        0
       0        0        0

2.834737e+05 6.091919e+04        0
6.091919e+04 -1.007893e+05        0
       0        0        0

1.744389e+05 8.955105e+04        0
8.955105e+04 -1.000095e+05        0
       0        0        0

6.516110e+04 1.086394e+05        0
1.086394e+05 -9.948869e+04        0
       0        0        0

-4.435483e+04 1.181814e+05        0
1.181814e+05 -9.923260e+04        0
       0        0        0

-1.541099e+05 1.181730e+05        0
1.181730e+05 -9.923760e+04        0
       0        0        0

-2.641077e+05 1.086162e+05        0
1.086162e+05 -9.949476e+04        0
       0        0        0

-3.743471e+05 8.951925e+04        0
8.951925e+04 -9.999812e+04        0
       0        0        0

-4.848187e+05 6.088898e+04        0
6.088898e+04 -1.007492e+05        0
       0        0        0

-5.955117e+05 2.272272e+04        0
2.272272e+04 -1.017527e+05        0
       0        0        0

3.462408e+05 2.273213e+04        0
2.273213e+04 -1.048597e+05        0
       0        0        0

2.470402e+05 6.090436e+04        0
6.090436e+04 -1.037913e+05        0
       0        0        0

1.475679e+05 8.954000e+04        0
8.954000e+04 -1.029768e+05        0
       0        0        0

4.784703e+04 1.086446e+05        0
1.086446e+05 -1.024414e+05        0
       0        0        0

-5.210863e+04 1.182015e+05        0
1.182015e+05 -1.021951e+05        0
       0        0        0

-1.523067e+05 1.181938e+05        0
1.181938e+05 -1.022248e+05        0
       0        0        0

-2.527642e+05 1.086235e+05        0
1.086235e+05 -1.025064e+05        0
       0        0        0

-3.534862e+05 8.951097e+04        0
8.951097e+04 -1.030244e+05        0
       0        0        0

-4.544545e+05 6.087678e+04        0
6.087678e+04 -1.037842e+05        0
       0        0        0

-5.556398e+05 2.271906e+04        0
2.271906e+04 -1.048051e+05        0
       0        0        0

3.004822e+05 2.271540e+04        0
2.271540e+04 -1.076574e+05        0
       0        0        0

2.108492e+05 6.086438e+04        0
6.086438e+04 -1.065334e+05        0
       0        0        0

1.209111e+05 8.951548e+04        0
8.951548e+04 -1.056691e+05        0
       0        0        0

3.073689e+04 1.086641e+05        0
1.086641e+05 -1.051219e+05        0
       0        0        0

-5.964359e+04 1.182578e+05        0
1.182578e+05 -1.049091e+05        0
       0        0        0

-1.502580e+05 1.182509e+05        0
1.182509e+05 -1.049962e+05        0
       0        0        0

-2.411587e+05 1.086450e+05        0
1.086450e+05 -1.053250e+05        0
       0        0        0

-3.323701e+05 8.948922e+04        0
8.948922e+04 -1.058577e+05        0
       0        0        0

-4.238571e+05 6.083944e+04        0
6.083944e+04 -1.066065e+05        0
       0        0        0

-5.155449e+05 2.270357e+04        0
2.270357e+04 -1.076228e+05        0
       0        0        0

2.550301e+05 2.266861e+04        0
2.266861e+04 -1.101929e+05        0
       0        0        0

1.749112e+05 6.076690e+04        0
6.076690e+04 -1.089786e+05        0
       0        0        0

9.444391e+04 8.946364e+04        0
8.946364e+04 -1.080333e+05        0
       0        0        0

1.379926e+04 1.087177e+05        0
1.087177e+05 -1.074804e+05        0
       0        0        0

-6.696703e+04 1.183950e+05        0
1.183950e+05 -1.073481e+05        0
       0        0        0

-1.479346e+05 1.183887e+05        0
1.183887e+05 -1.075565e+05        0
       0        0        0

-2.292386e+05 1.087006e+05        0
1.087006e+05 -1.079790e+05        0
       0        0        0

-3.109537e+05 8.944015e+04        0
8.944015e+04 -1.085307e+05        0
       0        0        0

-3.930165e+05 6.074461e+04        0
6.074461e+04 -1.092323e+05        0
       0        0        0

-4.752499e+05 2.265805e+04        0
2.265805e+04 -1.102010e+05        0
       0        0        0

2.099706e+05 2.255312e+04        0
2.255312e+04 -1.124452e+05        0
       0        0        0

1.392276e+05 6.054967e+04        0
6.054967e+04 -1.110721e+05        0
       0        0        0

6.809779e+04 8.936203e+04        0
8.936203e+04 -1.099897e+05        0
       0        0        0

-3.042239e+03 1.088455e+05        0
1.088455e+05 -1.094456e+05        0
       0        0        0

-7.410480e+04 1.186961e+05        0
1.186961e+05 -1.094776e+05        0
       0        0        0

-1.452898e+05 1.186906e+05        0
1.186906e+05 -1.099193e+05        0
       0        0        0

-2.169086e+05 1.088304e+05        0
1.088304e+05 -1.105208e+05        0
       0        0        0

-2.891518e+05 8.934131e+04        0
8.934131e+04 -1.111065e+05        0
       0        0        0

-3.619183e+05 6.053006e+04        0
6.053006e+04 -1.117009e+05        0
       0        0        0

-4.348223e+05 2.254384e+04        0
2.254384e+04 -1.125422e+05        0
       0        0        0

1.654675e+05 2.229389e+04        0
2.229389e+04 -1.143894e+05        0
       0        0        0

1.037756e+05 6.010634e+04        0
6.010634e+04 -1.127379e+05        0
       0        0        0

4.172431e+04 8.918286e+04        0
8.918286e+04 -1.114370e+05        0
       0        0        0

-1.993678e+04 1.091212e+05        0
1.091212e+05 -1.109352e+05        0
       0        0        0

-8.111033e+04 1.192970e+05        0
1.192970e+05 -1.112604e+05        0
       0        0        0

-1.422485e+05 1.192922e+05        0
1.192922e+05 -1.121002e+05        0
       0        0        0

-2.040020e+05 1.091080e+05        0
1.091080e+05 -1.130151e+05        0
       0        0        0

-2.668048e+05 8.916494e+04        0
8.916494e+04 -1.136749e+05        0
       0        0        0

-3.305324e+05 6.008945e+04        0
6.008945e+04 -1.140807e+05        0
       0        0        0

-3.944154e+05 2.228593e+04        0
2.228593e+04 -1.146608e+05        0
       0        0        0

1.218143e+05 2.175987e+04        0
2.175987e+04 -1.160001e+05        0
       0        0        0

6.846987e+04 5.928775e+04        0
5.928775e+04 -1.139016e+05        0
       0        0        0

1.504772e+04 8.891654e+04        0
8.891654e+04 -1.123084e+05        0
       0        0        0

-3.712662e+04 1.096611e+05        0
1.096611e+05 -1.119238e+05        0
       0        0        0

-8.806581e+04 1.203706e+05        0
1.203706e+05 -1.126851e+05        0
       0        0        0

-1.387020e+05 1.203666e+05        0
1.203666e+05 -1.140839e+05        0
       0        0        0

-1.902584e+05 1.096500e+05        0
1.096500e+05 -1.154692e+05        0
       0        0        0

-2.436325e+05 8.890145e+04        0
8.890145e+04 -1.162985e+05        0
       0        0        0

-2.987811e+05 5.927361e+04        0
5.927361e+04 -1.164538e+05        0
       0        0        0

-3.543299e+05 2.175326e+04        0
2.175326e+04 -1.165895e+05        0
       0        0        0

7.947511e+04 2.075679e+04        0
2.075679e+04 -1.172821e+05        0
       0        0        0

3.307861e+04 5.797448e+04        0
5.797448e+04 -1.145899e+05        0
       0        0        0

-1.236398e+04 8.865060e+04        0
8.865060e+04 -1.127886e+05        0
       0        0        0

-5.490067e+04 1.106013e+05        0
1.106013e+05 -1.126577e+05        0
       0        0        0

-9.504951e+04 1.220074e+05        0
1.220074e+05 -1.138552e+05        0
       0        0        0

-1.345317e+05 1.220041e+05        0
1.220041e+05 -1.157268e+05        0
       0        0        0

-1.753640e+05 1.105923e+05        0
1.105923e+05 -1.176119e+05        0
       0        0        0

-2.192067e+05 8.863841e+04        0
8.863841e+04 -1.187962e+05        0
       0        0        0

-2.664684e+05 5.796313e+04        0
5.796313e+04 -1.188293e+05        0
       0        0        0

-3.150783e+05 2.075156e+04        0
2.075156e+04 -1.183719e+05        0
       0        0        0

3.901599e+04 1.910250e+04        0
1.910250e+04 -1.183311e+05        0
       0        0        0

-2.945846e+03 5.638064e+04        0
5.638064e+04 -1.153386e+05        0
       0        0        0

-4.097166e+04 8.874194e+04        0
8.874194e+04 -1.139164e+05        0
       0        0        0

-7.334321e+04 1.119428e+05        0
1.119428e+05 -1.141994e+05        0
       0        0        0

-1.020045e+05 1.238170e+05        0
1.238170e+05 -1.151847e+05        0
       0        0        0

-1.297257e+05 1.238147e+05        0
1.238147e+05 -1.165458e+05        0
       0        0        0

-1.591896e+05 1.119363e+05        0
1.119363e+05 -1.183359e+05        0
       0        0        0

-1.930733e+05 8.873286e+04        0
8.873286e+04 -1.201363e+05        0
       0        0        0

-2.331279e+05 5.637210e+04        0
5.637210e+04 -1.207526e+05        0
       0        0        0

-2.773665e+05 1.909865e+04        0
1.909865e+04 -1.200521e+05        0
       0        0        0

5.231397e+02 1.710271e+04        0
1.710271e+04 -1.199684e+05        0
       0        0        0

-4.055905e+04 5.592265e+04        0
5.592265e+04 -1.183223e+05        0
       0        0        0

-7.064229e+04 9.001307e+04        0
9.001307e+04 -1.192609e+05        0
       0        0        0

-9.160230e+04 1.128998e+05        0
1.128998e+05 -1.193451e+05        0
       0        0        0

-1.084794e+05 1.240404e+05        0
1.240404e+05 -1.176210e+05        0
       0        0        0

-1.246150e+05 1.240392e+05        0
1.240392e+05 -1.154735e+05        0
       0        0        0

-1.424954e+05 1.128964e+05        0
1.128964e+05 -1.147535e+05        0
       0        0        0

-1.653498e+05 9.000769e+04        0
9.000769e+04 -1.167342e+05        0
       0        0        0

-1.979384e+05 5.591692e+04        0
5.591692e+04 -1.201834e+05        0
       0        0        0

-2.416133e+05 1.710010e+04        0
1.710010e+04 -1.211411e+05        0
       0        0        0

-3.838761e+04 1.780089e+04        0
1.780089e+04 -1.241547e+05        0
       0        0        0

-8.056436e+04 6.133461e+04        0
6.133461e+04 -1.329180e+05        0
       0        0        0

-9.823382e+04 9.241439e+04        0
9.241439e+04 -1.376493e+05        0
       0        0        0

-1.069300e+05 1.101518e+05        0
1.101518e+05 -1.330247e+05        0
       0        0        0

-1.134903e+05 1.182691e+05        0
1.182691e+05 -1.226658e+05        0
       0        0        0

-1.199857e+05 1.182695e+05        0
1.182695e+05 -1.108102e+05        0
       0        0        0

-1.278480e+05 1.101525e+05        0
1.101525e+05 -1.017531e+05        0
       0        0        0

-1.390688e+05 9.241419e+04        0
9.241419e+04 -9.965333e+04        0
       0        0        0

-1.602170e+05 6.133242e+04        0
6.133242e+04 -1.078653e+05        0
       0        0        0

-2.060740e+05 1.779909e+04        0
1.779909e+04 -1.203165e+05        0
       0        0        0

-9.041232e+04 4.054631e+04        0
4.054631e+04 -1.562834e+05        0
       0        0        0

-1.138421e+05 7.593486e+04        0
7.593486e+04 -1.858540e+05        0
       0        0        0

-1.150719e+05 8.920336e+04        0
8.920336e+04 -1.817339e+05        0
       0        0        0

-1.153875e+05 9.571255e+04        0
9.571255e+04 -1.608398e+05        0
       0        0        0

-1.157490e+05 9.856240e+04        0
9.856240e+04 -1.317916e+05        0
       0        0        0

-1.168367e+05 9.856429e+04        0
9.856429e+04 -1.007938e+05        0
       0        0        0

-1.188659e+05 9.571772e+04        0
9.571772e+04 -7.341105e+04        0
       0        0        0

-1.225609e+05 8.921016e+04        0
8.921016e+04 -5.589333e+04        0
       0        0        0

-1.289065e+05 7.594047e+04        0
7.594047e+04 -5.688869e+04        0
       0        0        0

-1.586523e+05 4.054609e+04        0
4.054609e+04 -9.278143e+04        0
       0        0        0

POINT_DATA     451
VECTORS DISPLACEMENT_4.800000e-01 double
0.000000e+00    0.000000e+00    0.000000e+00
0.000000e+00    0.000000e+00    0.000000e+00
0.000000e+00    0.000000e+00    0.000000e+00
0.000000e+00    0.000000e+00    0.000000e+00
0.000000e+00    0.000000e+00    0.000000e+00
0.000000e+00    0.000000e+00    0.000000e+00
0.000000e+00    0.000000e+00    0.000000e+00
0.000000e+00    0.000000e+00    0.000000e+00
0.000000e+00    0.000000e+00    0.000000e+00
0.000000e+00    0.000000e+00    0.000000e+00
0.000000e+00    0.000000e+00    0.000000e+00
-1.141595e-06    -8.299606e-07    0.000000e+00
-7.233448e-07    -4.163095e-07    0.000000e+00
-5.161145e-07    -2.157261e-07    0.000000e+00
-3.332233e-07    -1.068319e-07    0.000000e+00
-1.642863e-07    -5.047427e-08    0.000000e+00
-3.929800e-20    -3.295146e-08    0.000000e+00
1.642863e-07    -5.047427e-08    0.000000e+00
3.332233e-07    -1.068319e-07    0.000000e+00
5.161145e-07    -2.157261e-07    0.000000e+00
7.233448e-07    -4.163095e-07    0.000000e+00
1.141595e-06    -8.299606e-07    0.000000e+00
-2.153941e-06    -1.380310e-06    0.000000e+00
-1.574436e-06    -9.987669e-07    0.000000e+00
-1.105093e-06    -7.015533e-07    0.000000e+00
-7.128293e-07    -5.177060e-07    0.000000e+00
-3.501023e-07    -4.175298e-07    0.000000e+00
-8.310932e-20    -3.857103e-07    0.000000e+00
3.501023e-07    -4.175298e-07    0.000000e+00
7.128293e-07    -5.177060e-07    0.000000e+00
1.105093e-06    -7.015533e-07    0.000000e+00
1.574436e-06    -9.987669e-07    0.000000e+00
2.153941e-06    -1.380310e-06    0.000000e+00
-3.132427e-06    -2.064635e-06    0.000000e+00
-2.394168e-06    -1.682258e-06    0.000000e+00
-1.722702e-06    -1.380761e-06    0.000000e+00
-1.115240e-06    -1.168097e-06    0.000000e+00
-5.487490e-07    -1.045521e-06    0.000000e+00
-1.308534e-19    -1.005593e-06    0.000000e+00
5.487490e-07    -1.045521e-06    0.000000e+00
1.115240e-06    -1.168097e-06    0.000000e+00
1.722702e-06    -1.380761e-06    0.000000e+00
2.394168e-06    -1.682258e-06    0.000000e+00
3.132427e-06    -2.064635e-06    0.000000e+00
-4.100077e-06    -2.909173e-06    0.000000e+00
-3.186876e-06    -2.535523e-06    0.000000e+00
-2.326959e-06    -2.239053e-06    0.000000e+00
-1.519409e-06    -2.025105e-06    0.000000e+00
-7.500557e-07    -1.896684e-06    0.000000e+00
-1.806562e-19    -1.854101e-06    0.000000e+00
7.500557e-07    -1.896684e-06    0.000000e+00
1.519409e-06    -2.025105e-06    0.000000e+00
2.326959e-06    -2.239053e-06    0.000000e+00
3.186876e-06    -2.535523e-06    0.000000e+00
4.100077e-06    -2.909173e-06    0.000000e+00
-5.051341e-06    -3.936655e-06    0.000000e+00
-3.956477e-06    -3.571726e-06    0.000000e+00
-2.911987e-06    -3.284208e-06    0.000000e+00
-1.912866e-06    -3.075890e-06    0.000000e+00
-9.475501e-07    -2.949778e-06    0.000000e+00
-2.316238e-19    -2.907564e-06    0.000000e+00
9.475501e-07    -2.949778e-06    0.000000e+00
1.912866e-06    -3.075890e-06    0.000000e+00
2.911987e-06    -3.284208e-06    0.000000e+00
3.956477e-06    -3.571726e-06    0.000000e+00
5.051341e-06    -3.936655e-06    0.000000e+00
-5.981873e-06    -5.149742e-06    0.000000e+00
-4.704513e-06    -4.794468e-06    0.000000e+00
-3.477740e-06    -4.516043e-06    0.000000e+00
-2.292922e-06    -4.315096e-06    0.000000e+00
-1.138484e-06    -4.193469e-06    0.000000e+00
-2.838487e-19    -4.152740e-06    0.000000e+00
1.138484e-06    -4.193469e-06    0.000000e+00
2.292922e-06    -4.315096e-06    0.000000e+00
3.477740e-06    -4.516043e-06    0.000000e+00
4.704513e-06    -4.794468e-06    0.000000e+00
5.981873e-06    -5.149742e-06    0.000000e+00
-6.888559e-06    -6.546377e-06    0.000000e+00
-5.431254e-06    -6.201155e-06    0.000000e+00
-4.025295e-06    -5.931590e-06    0.000000e+00
-2.659769e-06    -5.737829e-06    0.000000e+00
-1.322562e-06    -5.620886e-06    0.000000e+00
-3.336516e-19    -5.581770e-06    0.000000e+00
1.322562e-06    -5.620886e-06    0.000000e+00
2.659769e-06    -5.737829e-06    0.000000e+00
4.025295e-06    -5.931590e-06    0.000000e+00
5.431254e-06    -6.201155e-06    0.000000e+00
6.888559e-06    -6.546377e-06    0.000000e+00
-7.769677e-06    -8.122140e-06    0.000000e+00
-6.136610e-06    -7.787206e-06    0.000000e+00
-4.555510e-06    -7.526211e-06    0.000000e+00
-3.014227e-06    -7.339158e-06    0.000000e+00
-1.500173e-06    -7.226544e-06    0.000000e+00
-3.825677e-19    -7.188928e-06    0.000000e+00
1.500173e-06    -7.226544e-06    0.000000e+00
3.014227e-06    -7.339158e-06    0.000000e+00
4.555510e-06    -7.526211e-06    0.000000e+00
6.136610e-06    -7.787206e-06    0.000000e+00
7.769677e-06    -8.122140e-06    0.000000e+00
-8.624339e-06    -9.871839e-06    0.000000e+00
-6.820450e-06    -9.547302e-06    0.000000e+00
-5.068913e-06    -9.294677e-06    0.000000e+00
-3.356974e-06    -9.113936e-06    0.000000e+00
-1.671744e-06    -9.005301e-06    0.000000e+00
-4.323044e-19    -8.969050e-06    0.000000e+00
1.671744e-06    -9.005301e-06    0.000000e+00
3.356974e-06    -9.113936e-06    0.000000e+00
5.068913e-06    -9.294677e-06    0.000000e+00
6.820450e-06    -9.547302e-06    0.000000e+00
8.624339e-06    -9.871839e-06    0.000000e+00
-9.452129e-06    -1.179003e-05    0.000000e+00
-7.482679e-06    -1.147593e-05    0.000000e+00
-5.565791e-06    -1.123156e-05    0.000000e+00
-3.688437e-06    -1.105689e-05    0.000000e+00
-1.837569e-06    -1.095199e-05    0.000000e+00
-4.822794e-19    -1.091701e-05    0.000000e+00
1.837569e-06    -1.095199e-05    0.000000e+00
3.688437e-06    -1.105689e-05    0.000000e+00
5.565791e-06    -1.123156e-05    0.000000e+00
7.482679e-06    -1.147593e-05    0.000000e+00
9.452129e-06    -1.179003e-05    0.000000e+00
-1.025287e-05    -1.387121e-05    0.000000e+00
-8.123243e-06    -1.356758e-05    0.000000e+00
-6.046283e-06    -1.333140e-05    0.000000e+00
-4.008850e-06    -1.316265e-05    0.000000e+00
-1.997814e-06    -1.306137e-05    0.000000e+00
-5.258486e-19    -1.302760e-05    0.000000e+00
1.997814e-06    -1.306137e-05    0.000000e+00
4.008850e-06    -1.316265e-05    0.000000e+00
6.046283e-06    -1.333140e-05    0.000000e+00
8.123243e-06    -1.356758e-05    0.000000e+00
1.025287e-05    -1.387121e-05    0.000000e+00
-1.102648e-05    -1.610989e-05    0.000000e+00
-8.742113e-06    -1.581673e-05    0.000000e+00
-6.510453e-06    -1.558872e-05    0.000000e+00
-4.318325e-06    -1.542583e-05    0.000000e+00
-2.152566e-06    -1.532809e-05    0.000000e+00
-5.720649e-19    -1.529551e-05    0.000000e+00
2.152566e-06    -1.532809e-05    0.000000e+00
4.318325e-06    -1.542583e-05    0.000000e+00
6.510453e-06    -1.558872e-05    0.000000e+00
8.742113e-06    -1.581673e-05    0.000000e+00
1.102648e-05    -1.610989e-05    0.000000e+00
-1.177296e-05    -1.850062e-05    0.000000e+00
-9.339277e-06    -1.821793e-05    0.000000e+00
-6.958325e-06    -1.799807e-05    0.000000e+00
-4.616914e-06    -1.784102e-05    0.000000e+00
-2.301865e-06    -1.774678e-05    0.000000e+00
-6.215104e-19    -1.771537e-05    0.000000e+00
2.301865e-06    -1.774678e-05    0.000000e+00
4.616914e-06    -1.784102e-05    0.000000e+00
6.958325e-06    -1.799807e-05    0.000000e+00
9.339277e-06    -1.821793e-05    0.000000e+00
1.177296e-05    -1.850062e-05    0.000000e+00
-1.249228e-05    -2.103794e-05    0.000000e+00
-9.914728e-06    -2.076573e-05    0.000000e+00
-7.389910e-06    -2.055400e-05    0.000000e+00
-4.904637e-06    -2.040278e-05    0.000000e+00
-2.445728e-06    -2.031204e-05    0.000000e+00
-6.564505e-19    -2.028179e-05    0.000000e+00
2.445728e-06    -2.031204e-05    0.000000e+00
4.904637e-06    -2.040278e-05    0.000000e+00
7.389910e-06    -2.055400e-05    0.000000e+00
9.914728e-06    -2.076573e-05    0.000000e+00
1.249228e-05    -2.103794e-05    0.000000e+00
-1.318446e-05    -2.371642e-05    0.000000e+00
-1.046846e-05    -2.345468e-05    0.000000e+00
-7.805209e-06    -2.325110e-05    0.000000e+00
-5.181502e-06    -2.310568e-05    0.000000e+00
-2.584160e-06    -2.301844e-05    0.000000e+00
-6.889554e-19    -2.298936e-05    0.000000e+00
2.584160e-06    -2.301844e-05    0.000000e+00
5.181502e-06    -2.310568e-05    0.000000e+00
7.805209e-06    -2.325110e-05    0.000000e+00
1.046846e-05    -2.345468e-05    0.000000e+00
1.318446e-05    -2.371642e-05    0.000000e+00
-1.384949e-05    -2.653062e-05    0.000000e+00
-1.100049e-05    -2.627935e-05    0.000000e+00
-8.204222e-06    -2.608391e-05    0.000000e+00
-5.447510e-06    -2.594431e-05    0.000000e+00
-2.717163e-06    -2.586056e-05    0.000000e+00
-7.144723e-19    -2.583264e-05    0.000000e+00
2.717163e-06    -2.586056e-05    0.000000e+00
5.447510e-06    -2.594431e-05    0.000000e+00
8.204222e-06    -2.608391e-05    0.000000e+00
1.100049e-05    -2.627935e-05    0.000000e+00
1.384949e-05    -2.653062e-05    0.000000e+00
-1.448737e-05    -2.947511e-05    0.000000e+00
-1.151079e-05    -2.923431e-05    0.000000e+00
-8.586951e-06    -2.904701e-05    0.000000e+00
-5.702661e-06    -2.891323e-05    0.000000e+00
-2.844739e-06    -2.883297e-05    0.000000e+00
-7.245308e-19    -2.880621e-05    0.000000e+00
2.844739e-06    -2.883297e-05    0.000000e+00
5.702661e-06    -2.891323e-05    0.000000e+00
8.586951e-06    -2.904701e-05    0.000000e+00
1.151079e-05    -2.923431e-05    0.000000e+00
1.448737e-05    -2.947511e-05    0.000000e+00
-1.509811e-05    -3.254447e-05    0.000000e+00
-1.199938e-05    -3.231413e-05    0.000000e+00
-8.953393e-06    -3.213498e-05    0.000000e+00
-5.946956e-06    -3.200702e-05    0.000000e+00
-2.966886e-06    -3.193024e-05    0.000000e+00
-7.420009e-19    -3.190465e-05    0.000000e+00
2.966886e-06    -3.193024e-05    0.000000e+00
5.946956e-06    -3.200702e-05    0.000000e+00
8.953393e-06    -3.213498e-05    0.000000e+00
1.199938e-05    -3.231413e-05    0.000000e+00
1.509811e-05    -3.254447e-05    0.000000e+00
-1.568171e-05    -3.573325e-05    0.000000e+00
-1.246626e-05    -3.551339e-05    0.000000e+00
-9.303550e-06    -3.534238e-05    0.000000e+00
-6.180393e-06    -3.522023e-05    0.000000e+00
-3.083604e-06    -3.514695e-05    0.000000e+00
-7.736587e-19    -3.512252e-05    0.000000e+00
3.083604e-06    -3.514695e-05    0.000000e+00
6.180393e-06    -3.522023e-05    0.000000e+00
9.303550e-06    -3.534238e-05    0.000000e+00
1.246626e-05    -3.551339e-05    0.000000e+00
1.568171e-05    -3.573325e-05    0.000000e+00
-1.623816e-05    -3.903605e-05    0.000000e+00
-1.291142e-05    -3.882665e-05    0.000000e+00
-9.637420e-06    -3.866379e-05    0.000000e+00
-6.402973e-06    -3.854746e-05    0.000000e+00
-3.194894e-06    -3.847766e-05    0.000000e+00
-8.277629e-19    -3.845439e-05    0.000000e+00
3.194894e-06    -3.847766e-05    0.000000e+00
6.402973e-06    -3.854746e-05    0.000000e+00
9.637420e-06    -3.866379e-05    0.000000e+00
1.291142e-05    -3.882665e-05    0.000000e+00
1.623816e-05    -3.903605e-05    0.000000e+00
-1.676746e-05    -4.244741e-05    0.000000e+00
-1.333486e-05    -4.224849e-05    0.000000e+00
-9.955004e-06    -4.209377e-05    0.000000e+00
-6.614696e-06    -4.198325e-05    0.000000e+00
-3.300756e-06    -4.191694e-05    0.000000e+00
-9.023018e-19    -4.189484e-05    0.000000e+00
3.300756e-06    -4.191694e-05    0.000000e+00
6.614696e-06    -4.198325e-05    0.000000e+00
9.955004e-06    -4.209377e-05    0.000000e+00
1.333486e-05    -4.224849e-05    0.000000e+00
1.676746e-05    -4.244741e-05    0.000000e+00
-1.726962e-05    -4.596193e-05    0.000000e+00
-1.373659e-05    -4.577347e-05    0.000000e+00
-1.025630e-05    -4.562689e-05    0.000000e+00
-6.815561e-06    -4.552220e-05    0.000000e+00
-3.401188e-06    -4.545938e-05    0.000000e+00
-9.592648e-19    -4.543844e-05    0.000000e+00
3.401188e-06    -4.545938e-05    0.000000e+00
6.815561e-06    -4.552220e-05    0.000000e+00
1.025630e-05    -4.562689e-05    0.000000e+00
1.373659e-05    -4.577347e-05    0.000000e+00
1.726962e-05    -4.596193e-05    0.000000e+00
-1.774464e-05    -4.957416e-05    0.000000e+00
-1.411661e-05    -4.939617e-05    0.000000e+00
-1.054131e-05    -4.925774e-05    0.000000e+00
-7.005568e-06    -4.915886e-05    0.000000e+00
-3.496192e-06    -4.909953e-05    0.000000e+00
-1.002040e-18    -4.907975e-05    0.000000e+00
3.496192e-06    -4.909953e-05    0.000000e+00
7.005568e-06    -4.915886e-05    0.000000e+00
1.054131e-05    -4.925774e-05    0.000000e+00
1.411661e-05    -4.939617e-05    0.000000e+00
1.774464e-05    -4.957416e-05    0.000000e+00
-1.819252e-05    -5.327868e-05    0.000000e+00
-1.447491e-05    -5.311116e-05    0.000000e+00
-1.081004e-05    -5.298087e-05    0.000000e+00
-7.184719e-06    -5.288781e-05    0.000000e+00
-3.585768e-06    -5.283197e-05    0.000000e+00
-1.052015e-18    -5.281336e-05    0.000000e+00
3.585768e-06    -5.283197e-05    0.000000e+00
7.184719e-06    -5.288781e-05    0.000000e+00
1.081004e-05    -5.298087e-05    0.000000e+00
1.447491e-05    -5.311116e-05    0.000000e+00
1.819252e-05    -5.327868e-05    0.000000e+00
-1.861325e-05    -5.707006e-05    0.000000e+00
-1.481149e-05    -5.691302e-05    0.000000e+00
-1.106248e-05    -5.679087e-05    0.000000e+00
-7.353012e-06    -5.670362e-05    0.000000e+00
-3.669914e-06    -5.665127e-05    0.000000e+00
-1.067685e-18    -5.663382e-05    0.000000e+00
3.669914e-06    -5.665127e-05    0.000000e+00
7.353012e-06    -5.670362e-05    0.000000e+00
1.106248e-05    -5.679087e-05    0.000000e+00
1.481149e-05    -5.691302e-05    0.000000e+00
1.861325e-05    -5.707006e-05    0.000000e+00
-1.900683e-05    -6.094288e-05    0.000000e+00
-1.512636e-05    -6.079630e-05    0.000000e+00
-1.129863e-05    -6.068230e-05    0.000000e+00
-7.510449e-06    -6.060086e-05    0.000000e+00
-3.748633e-06    -6.055200e-05    0.000000e+00
-1.089073e-18    -6.053571e-05    0.000000e+00
3.748633e-06    -6.055200e-05    0.000000e+00
7.510449e-06    -6.060086e-05    0.000000e+00
1.129863e-05    -6.068230e-05    0.000000e+00
1.512636e-05    -6.079630e-05    0.000000e+00
1.900683e-05    -6.094288e-05    0.000000e+00
-1.937327e-05    -6.489169e-05    0.000000e+00
-1.541952e-05    -6.475559e-05    0.000000e+00
-1.151850e-05    -6.464972e-05    0.000000e+00
-7.657028e-06    -6.457411e-05    0.000000e+00
-3.821923e-06    -6.452874e-05    0.000000e+00
-1.106649e-18    -6.451361e-05    0.000000e+00
3.821923e-06    -6.452874e-05    0.000000e+00
7.657028e-06    -6.457411e-05    0.000000e+00
1.151850e-05    -6.464972e-05    0.000000e+00
1.541952e-05    -6.475559e-05    0.000000e+00
1.937327e-05    -6.489169e-05    0.000000e+00
-1.971256e-05    -6.891108e-05    0.000000e+00
-1.569096e-05    -6.878544e-05    0.000000e+00
-1.172208e-05    -6.868772e-05    0.000000e+00
-7.792750e-06    -6.861793e-05    0.000000e+00
-3.889784e-06    -6.857605e-05    0.000000e+00
-1.099237e-18    -6.856209e-05    0.000000e+00
3.889784e-06    -6.857605e-05    0.000000e+00
7.792750e-06    -6.861793e-05    0.000000e+00
1.172208e-05    -6.868772e-05    0.000000e+00
1.569096e-05    -6.878544e-05    0.000000e+00
1.971256e-05    -6.891108e-05    0.000000e+00
-2.002471e-05    -7.299560e-05    0.000000e+00
-1.594068e-05    -7.288043e-05    0.000000e+00
-1.190938e-05    -7.279086e-05    0.000000e+00
-7.917611e-06    -7.272689e-05    0.000000e+00
-3.952212e-06    -7.268851e-05    0.000000e+00
-1.100931e-18    -7.267572e-05    0.000000e+00
3.952212e-06    -7.268851e-05    0.000000e+00
7.917611e-06    -7.272689e-05    0.000000e+00
1.190938e-05    -7.279086e-05    0.000000e+00
1.594068e-05    -7.288043e-05    0.000000e+00
2.002471e-05    -7.299560e-05    0.000000e+00
-2.030971e-05    -7.713982e-05    0.000000e+00
-1.616870e-05    -7.703512e-05    0.000000e+00
-1.208038e-05    -7.695370e-05    0.000000e+00
-8.031600e-06    -7.689557e-05    0.000000e+00
-4.009199e-06    -7.686071e-05    0.000000e+00
-1.142647e-18    -7.684910e-05    0.000000e+00
4.009199e-06    -7.686071e-05    0.000000e+00
8.031600e-06    -7.689557e-05    0.000000e+00
1.208038e-05    -7.695370e-05    0.000000e+00
1.616870e-05    -7.703512e-05    0.000000e+00
2.030971e-05    -7.713982e-05    0.000000e+00
-2.056757e-05    -8.133827e-05    0.000000e+00
-1.637501e-05    -8.124405e-05    0.000000e+00
-1.223508e-05    -8.117080e-05    0.000000e+00
-8.134686e-06    -8.111855e-05    0.000000e+00
-4.060720e-06    -8.108725e-05    0.000000e+00
-1.184576e-18    -8.107683e-05    0.000000e+00
4.060720e-06    -8.108725e-05    0.000000e+00
8.134686e-06    -8.111855e-05    0.000000e+00
1.223508e-05    -8.117080e-05    0.000000e+00
1.637501e-05    -8.124405e-05    0.000000e+00
2.056757e-05    -8.133827e-05    0.000000e+00
-2.079834e-05    -8.558551e-05    0.000000e+00
-1.655963e-05    -8.550174e-05    0.000000e+00
-1.237344e-05    -8.543670e-05    0.000000e+00
-8.226803e-06    -8.539042e-05    0.000000e+00
-4.106724e-06    -8.536276e-05    0.000000e+00
-1.258267e-18    -8.535357e-05    0.000000e+00
4.106724e-06    -8.536276e-05    0.000000e+00
8.226803e-06    -8.539042e-05    0.000000e+00
1.237344e-05    -8.543670e-05    0.000000e+00
1.655963e-05    -8.550174e-05    0.000000e+00
2.079834e-05    -8.558551e-05    0.000000e+00
-2.100211e-05    -8.987604e-05    0.000000e+00
-1.672261e-05    -8.980270e-05    0.000000e+00
-1.249537e-05    -8.974594e-05    0.000000e+00
-8.307808e-06    -8.970578e-05    0.000000e+00
-4.147108e-06    -8.968192e-05    0.000000e+00
-1.330689e-18    -8.967402e-05    0.000000e+00
4.147108e-06    -8.968192e-05    0.000000e+00
8.307808e-06    -8.970578e-05    0.000000e+00
1.249537e-05    -8.974594e-05    0.000000e+00
1.672261e-05    -8.980270e-05    0.000000e+00
2.100211e-05    -8.987604e-05    0.000000e+00
-2.117913e-05    -9.420440e-05    0.000000e+00
-1.686399e-05    -9.414142e-05    0.000000e+00
-1.260070e-05    -9.409308e-05    0.000000e+00
-8.377428e-06    -9.405931e-05    0.000000e+00
-4.181679e-06    -9.403949e-05    0.000000e+00
-1.365841e-18    -9.403297e-05    0.000000e+00
4.181679e-06    -9.403949e-05    0.000000e+00
8.377428e-06    -9.405931e-05    0.000000e+00
1.260070e-05    -9.409308e-05    0.000000e+00
1.686399e-05    -9.414142e-05    0.000000e+00
2.117913e-05    -9.420440e-05    0.000000e+00
-2.132994e-05    -9.856524e-05    0.000000e+00
-1.698388e-05    -9.851249e-05    0.000000e+00
-1.268909e-05    -9.847277e-05    0.000000e+00
-8.435206e-06    -9.844576e-05    0.000000e+00
-4.210141e-06    -9.843027e-05    0.000000e+00
-1.415816e-18    -9.842524e-05    0.000000e+00
4.210141e-06    -9.843027e-05    0.000000e+00
8.435206e-06    -9.844576e-05    0.000000e+00
1.268909e-05    -9.847277e-05    0.000000e+00
1.698388e-05    -9.851249e-05    0.000000e+00
2.132994e-05    -9.856524e-05    0.000000e+00
-2.145563e-05    -1.029537e-04    0.000000e+00
-1.708235e-05    -1.029109e-04    0.000000e+00
-1.275997e-05    -1.028800e-04    0.000000e+00
-8.480518e-06    -1.028600e-04    0.000000e+00
-4.232143e-06    -1.028489e-04    0.000000e+00
-1.469179e-18    -1.028454e-04    0.000000e+00
4.232143e-06    -1.028489e-04    0.000000e+00
8.480518e-06    -1.028600e-04    0.000000e+00
1.275997e-05    -1.028800e-04    0.000000e+00
1.708235e-05    -1.029109e-04    0.000000e+00
2.145563e-05    -1.029537e-04    0.000000e+00
-2.155817e-05    -1.073660e-04    0.000000e+00
-1.715935e-05    -1.073327e-04    0.000000e+00
-1.281259e-05    -1.073105e-04    0.000000e+00
-8.512904e-06    -1.072970e-04    0.000000e+00
-4.247580e-06    -1.072895e-04    0.000000e+00
-1.413274e-18    -1.072870e-04    0.000000e+00
4.247580e-06    -1.072895e-04    0.000000e+00
8.512904e-06    -1.072970e-04    0.000000e+00
1.281259e-05    -1.073105e-04    0.000000e+00
1.715935e-05    -1.073327e-04    0.000000e+00
2.155817e-05    -1.073660e-04    0.000000e+00
-2.164067e-05    -1.118023e-04    0.000000e+00
-1.721429e-05    -1.117772e-04    0.000000e+00
-1.284671e-05    -1.117621e-04    0.000000e+00
-8.533271e-06    -1.117511e-04    0.000000e+00
-4.257281e-06    -1.117436e-04    0.000000e+00
-1.337889e-18    -1.117409e-04    0.000000e+00
4.257281e-06    -1.117436e-04    0.000000e+00
8.533271e-06    -1.117511e-04    0.000000e+00
1.284671e-05    -1.117621e-04    0.000000e+00
1.721429e-05    -1.117772e-04    0.000000e+00
2.164067e-05    -1.118023e-04    0.000000e+00
-2.170513e-05    -1.162704e-04    0.000000e+00
-1.724616e-05    -1.162523e-04    0.000000e+00
-1.286626e-05    -1.162338e-04    0.000000e+00
-8.546207e-06    -1.162132e-04    0.000000e+00
-4.263866e-06    -1.161978e-04    0.000000e+00
-1.340430e-18    -1.161922e-04    0.000000e+00
4.263866e-06    -1.161978e-04    0.000000e+00
8.546207e-06    -1.162132e-04    0.000000e+00
1.286626e-05    -1.162338e-04    0.000000e+00
1.724616e-05    -1.162523e-04    0.000000e+00
2.170513e-05    -1.162704e-04    0.000000e+00
-2.173924e-05    -1.208105e-04    0.000000e+00
-1.726634e-05    -1.207758e-04    0.000000e+00
-1.288608e-05    -1.207173e-04    0.000000e+00
-8.561322e-06    -1.206645e-04    0.000000e+00
-4.272040e-06    -1.206293e-04    0.000000e+00
-1.348265e-18    -1.206170e-04    0.000000e+00
4.272040e-06    -1.206293e-04    0.000000e+00
8.561322e-06    -1.206645e-04    0.000000e+00
1.288608e-05    -1.207173e-04    0.000000e+00
1.726634e-05    -1.207758e-04    0.000000e+00
2.173924e-05    -1.208105e-04    0.000000e+00

CELL_DATA      400
TENSORS Element_Stress4.800000e-01 double
1.820598e+06 2.551812e+05        0
2.551812e+05 4.163489e+05        0
       0        0        0

1.243720e+06 1.308538e+05        0
1.308538e+05 3.566179e+05        0
       0        0        0

8.651186e+05 4.301033e+04        0
4.301033e+04 2.749959e+05        0
       0        0        0

5.100063e+05 -3.578360e+03        0
-3.578360e+03 1.690094e+05        0
       0        0        0

1.688541e+05 -2.488323e+04        0
-2.488323e+04 5.694968e+04        0
       0        0        0

-1.688184e+05 -2.487711e+04        0
-2.487711e+04 -5.695775e+04        0
       0        0        0

-5.095306e+05 -3.579108e+03        0
-3.579108e+03 -1.688448e+05        0
       0        0        0

-8.637077e+05 4.293852e+04        0
4.293852e+04 -2.744672e+05        0
       0        0        0

-1.240734e+06 1.305652e+05        0
1.305652e+05 -3.554740e+05        0
       0        0        0

-1.814375e+06 2.543707e+05        0
2.543707e+05 -4.141971e+05        0
       0        0        0

1.642070e+06 4.159749e+04        0
4.159749e+04 4.234799e+03        0
       0        0        0

1.322354e+06 1.206454e+05        0
1.206454e+05 1.286843e+05        0
       0        0        0

9.082522e+05 9.900756e+04        0
9.900756e+04 1.315191e+05        0
       0        0        0

5.364025e+05 7.580679e+04        0
7.580679e+04 9.193312e+04        0
       0        0        0

1.768172e+05 6.321708e+04        0
6.321708e+04 3.207757e+04        0
       0        0        0

-1.778550e+05 6.319874e+04        0
6.319874e+04 -3.316896e+04        0
       0        0        0

-5.369364e+05 7.574134e+04        0
7.574134e+04 -9.284491e+04        0
       0        0        0

-9.077062e+05 9.886739e+04        0
9.886739e+04 -1.320379e+05        0
       0        0        0

-1.319831e+06 1.204079e+05        0
1.204079e+05 -1.284324e+05        0
       0        0        0

-1.637466e+06 4.151083e+04        0
4.151083e+04 -3.136555e+03        0
       0        0        0

1.584953e+06 1.541639e+04        0
1.541639e+04 6.615316e+03        0
       0        0        0

1.271592e+06 6.833110e+04        0
6.833110e+04 1.757728e+04        0
       0        0        0

9.146414e+05 1.015639e+05        0
1.015639e+05 4.237687e+04        0
       0        0        0

5.430826e+05 1.074765e+05        0
1.074765e+05 3.592346e+04        0
       0        0        0

1.791459e+05 1.074054e+05        0
1.074054e+05 1.272037e+04        0
       0        0        0

-1.824790e+05 1.073775e+05        0
1.073775e+05 -1.611191e+04        0
       0        0        0

-5.458838e+05 1.073933e+05        0
1.073933e+05 -3.912503e+04        0
       0        0        0

-9.163118e+05 1.014348e+05        0
1.014348e+05 -4.515293e+04        0
       0        0        0

-1.271565e+06 6.821623e+04        0
6.821623e+04 -1.966893e+04        0
       0        0        0

-1.582978e+06 1.538448e+04        0
1.538448e+04 -7.911808e+03        0
       0        0        0

1.546129e+06 1.427370e+04        0
1.427370e+04 -3.975753e+03        0
       0        0        0

1.226683e+06 5.548209e+04        0
5.548209e+04 -1.953362e+03        0
       0        0        0

8.865539e+05 9.245026e+04        0
9.245026e+04 2.933169e+03        0
       0        0        0

5.331315e+05 1.146030e+05        0
1.146030e+05 5.877770e+03        0
       0        0        0

1.753740e+05 1.233579e+05        0
1.233579e+05 6.880622e+02        0
       0        0        0

-1.820438e+05 1.233283e+05        0
1.233283e+05 -7.415935e+03        0
       0        0        0

-5.392753e+05 1.145213e+05        0
1.145213e+05 -1.241206e+04        0
       0        0        0

-8.916351e+05 9.234264e+04        0
9.234264e+04 -9.058366e+03        0
       0        0        0

-1.230189e+06 5.539389e+04        0
5.539389e+04 -3.528931e+03        0
       0        0        0

-1.547533e+06 1.424568e+04        0
1.424568e+04 -5.504388e+02        0
       0        0        0

1.509428e+06 1.713064e+04        0
1.713064e+04 -5.567251e+03        0
       0        0        0

1.185340e+06 5.448733e+04        0
5.448733e+04 -8.577653e+03        0
       0        0        0

8.541562e+05 8.905470e+04        0
8.905470e+04 -8.329307e+03        0
       0        0        0

5.137340e+05 1.136408e+05        0
1.136408e+05 -6.745281e+03        0
       0        0        0

1.681056e+05 1.258450e+05        0
1.258450e+05 -5.639045e+03        0
       0        0        0

-1.789903e+05 1.258166e+05        0
1.258166e+05 -5.300821e+03        0
       0        0        0

-5.241238e+05 1.135646e+05        0
1.135646e+05 -4.010289e+03        0
       0        0        0

-8.635543e+05 8.895613e+04        0
8.895613e+04 -2.042813e+03        0
       0        0        0

-1.193244e+06 5.440410e+04        0
5.440410e+04 -1.179542e+03        0
       0        0        0

-1.515273e+06 1.709766e+04        0
1.709766e+04 -3.264825e+03        0
       0        0        0

1.469671e+06 1.958964e+04        0
1.958964e+04 -7.911532e+03        0
       0        0        0

1.147077e+06 5.644560e+04        0
5.644560e+04 -1.054799e+04        0
       0        0        0

8.224152e+05 8.838595e+04        0
8.838595e+04 -1.192774e+04        0
       0        0        0

4.928620e+05 1.117722e+05        0
1.117722e+05 -1.113899e+04        0
       0        0        0

1.594065e+05 1.239614e+05        0
1.239614e+05 -9.157850e+03        0
       0        0        0

-1.752704e+05 1.239348e+05        0
1.239348e+05 -6.757344e+03        0
       0        0        0

-5.082717e+05 1.117003e+05        0
1.117003e+05 -4.611023e+03        0
       0        0        0

-8.369139e+05 8.829172e+04        0
8.829172e+04 -3.479957e+03        0
       0        0        0

-1.160194e+06 5.636192e+04        0
5.636192e+04 -4.312365e+03        0
       0        0        0

-1.480879e+06 1.955285e+04        0
1.955285e+04 -6.139555e+03        0
       0        0        0

1.427069e+06 2.114429e+04        0
2.114429e+04 -1.052964e+04        0
       0        0        0

1.109854e+06 5.834959e+04        0
5.834959e+04 -1.236661e+04        0
       0        0        0

7.924052e+05 8.864129e+04        0
8.864129e+04 -1.362108e+04        0
       0        0        0

4.726277e+05 1.103428e+05        0
1.103428e+05 -1.337051e+04        0
       0        0        0

1.506199e+05 1.216735e+05        0
1.216735e+05 -1.181697e+04        0
       0        0        0

-1.721469e+05 1.216483e+05        0
1.216483e+05 -9.757742e+03        0
       0        0        0

-4.937483e+05 1.102742e+05        0
1.102742e+05 -8.067260e+03        0
       0        0        0

-8.127095e+05 8.854974e+04        0
8.854974e+04 -7.533910e+03        0
       0        0        0

-1.128918e+06 5.826554e+04        0
5.826554e+04 -8.339737e+03        0
       0        0        0

-1.444434e+06 2.110561e+04        0
2.110561e+04 -9.528611e+03        0
       0        0        0

1.382471e+06 2.200181e+04        0
2.200181e+04 -1.363723e+04        0
       0        0        0

1.072891e+06 5.961399e+04        0
5.961399e+04 -1.472184e+04        0
       0        0        0

7.635786e+05 8.901008e+04        0
8.901008e+04 -1.557415e+04        0
       0        0        0

4.533126e+05 1.094858e+05        0
1.094858e+05 -1.552412e+04        0
       0        0        0

1.419522e+05 1.200358e+05        0
1.200358e+05 -1.458784e+04        0
       0        0        0

-1.697603e+05 1.200117e+05        0
1.200117e+05 -1.326479e+04        0
       0        0        0

-4.807667e+05 1.094199e+05        0
1.094199e+05 -1.222642e+04        0
       0        0        0

-7.903212e+05 8.892092e+04        0
8.892092e+04 -1.196593e+04        0
       0        0        0

-1.098554e+06 5.953061e+04        0
5.953061e+04 -1.248636e+04        0
       0        0        0

-1.406666e+06 2.196271e+04        0
2.196271e+04 -1.309846e+04        0
       0        0        0

1.336650e+06 2.243103e+04        0
2.243103e+04 -1.712976e+04        0
       0        0        0

1.035846e+06 6.032509e+04        0
6.032509e+04 -1.770734e+04        0
       0        0        0

7.353690e+05 8.928002e+04        0
8.928002e+04 -1.819357e+04        0
       0        0        0

4.345842e+05 1.090314e+05        0
1.090314e+05 -1.820574e+04        0
       0        0        0

1.333510e+05 1.190751e+05        0
1.190751e+05 -1.770719e+04        0
       0        0        0

-1.679948e+05 1.190520e+05        0
1.190520e+05 -1.697819e+04        0
       0        0        0

-4.689287e+05 1.089678e+05        0
1.089678e+05 -1.641605e+04        0
       0        0        0

-7.691117e+05 8.919331e+04        0
8.919331e+04 -1.629667e+04        0
       0        0        0

-1.068676e+06 6.024326e+04        0
6.024326e+04 -1.657480e+04        0
       0        0        0

-1.368246e+06 2.239236e+04        0
2.239236e+04 -1.685617e+04        0
       0        0        0

1.290108e+06 2.262770e+04        0
2.262770e+04 -2.093370e+04        0
       0        0        0

9.986146e+05 6.068321e+04        0
6.068321e+04 -2.119241e+04        0
       0        0        0

7.073840e+05 8.943848e+04        0
8.943848e+04 -2.142408e+04        0
       0        0        0

4.161154e+05 1.088122e+05        0
1.088122e+05 -2.143279e+04        0
       0        0        0

1.247137e+05 1.185759e+05        0
1.185759e+05 -2.118594e+04        0
       0        0        0

-1.666835e+05 1.185536e+05        0
1.185536e+05 -2.082274e+04        0
       0        0        0

-4.578409e+05 1.087507e+05        0
1.087507e+05 -2.055219e+04        0
       0        0        0

-7.486182e+05 8.935434e+04        0
8.935434e+04 -2.051029e+04        0
       0        0        0

-1.039105e+06 6.060346e+04        0
6.060346e+04 -2.065826e+04        0
       0        0        0

-1.329592e+06 2.258991e+04        0
2.258991e+04 -2.079207e+04        0
       0        0        0

1.243138e+06 2.270943e+04        0
2.270943e+04 -2.498210e+04        0
       0        0        0

9.611830e+05 6.084708e+04        0
6.084708e+04 -2.504188e+04        0
       0        0        0

6.794120e+05 8.952008e+04        0
8.952008e+04 -2.510676e+04        0
       0        0        0

3.976942e+05 1.087151e+05        0
1.087151e+05 -2.508705e+04        0
       0        0        0

1.159751e+05 1.183403e+05        0
1.183403e+05 -2.496214e+04        0
       0        0        0

-1.656966e+05 1.183187e+05        0
1.183187e+05 -2.479577e+04        0
       0        0        0

-4.472257e+05 1.086557e+05        0
1.086557e+05 -2.468700e+04        0
       0        0        0

-7.285609e+05 8.943860e+04        0
8.943860e+04 -2.469694e+04        0
       0        0        0

-1.009752e+06 6.076972e+04        0
6.076972e+04 -2.480000e+04        0
       0        0        0

-1.290922e+06 2.267274e+04        0
2.267274e+04 -2.489962e+04        0
       0        0        0

1.195902e+06 2.273919e+04        0
2.273919e+04 -2.922324e+04        0
       0        0        0

9.235709e+05 6.091459e+04        0
6.091459e+04 -2.915047e+04        0
       0        0        0

6.513591e+05 8.955768e+04        0
8.955768e+04 -2.910387e+04        0
       0        0        0

3.792147e+05 1.086759e+05        0
1.086759e+05 -2.904719e+04        0
       0        0        0

1.071092e+05 1.182389e+05        0
1.182389e+05 -2.897000e+04        0
       0        0        0

-1.649443e+05 1.182181e+05        0
1.182181e+05 -2.889901e+04        0
       0        0        0

-4.369126e+05 1.086185e+05        0
1.086185e+05 -2.887697e+04        0
       0        0        0

-7.087801e+05 8.947892e+04        0
8.947892e+04 -2.892824e+04        0
       0        0        0

-9.805710e+05 6.083976e+04        0
6.083976e+04 -2.903784e+04        0
       0        0        0

-1.252331e+06 2.270369e+04        0
2.270369e+04 -2.916302e+04        0
       0        0        0

1.148491e+06 2.274763e+04        0
2.274763e+04 -3.361528e+04        0
       0        0        0

8.858088e+05 6.093852e+04        0
6.093852e+04 -3.344415e+04        0
       0        0        0

6.231974e+05 8.957286e+04        0
8.957286e+04 -3.331675e+04        0
       0        0        0

3.606384e+05 1.086618e+05        0
1.086618e+05 -3.322146e+04        0
       0        0        0

9.811735e+04 1.181997e+05        0
1.181997e+05 -3.315417e+04        0
       0        0        0

-1.643651e+05 1.181796e+05        0
1.181796e+05 -3.312514e+04        0
       0        0        0

-4.268000e+05 1.086064e+05        0
1.086064e+05 -3.315082e+04        0
       0        0        0

-6.891845e+05 8.949684e+04        0
8.949684e+04 -3.323923e+04        0
       0        0        0

-9.515284e+05 6.086628e+04        0
6.086628e+04 -3.338183e+04        0
       0        0        0

-1.213844e+06 2.271337e+04        0
2.271337e+04 -3.356050e+04        0
       0        0        0

1.100960e+06 2.274842e+04        0
2.274842e+04 -3.812279e+04        0
       0        0        0

8.479289e+05 6.094460e+04        0
6.094460e+04 -3.787020e+04        0
       0        0        0

5.949322e+05 8.957764e+04        0
8.957764e+04 -3.767804e+04        0
       0        0        0

3.419635e+05 1.086573e+05        0
1.086573e+05 -3.754495e+04        0
       0        0        0

8.901558e+04 1.181867e+05        0
1.181867e+05 -3.747028e+04        0
       0        0        0

-1.639143e+05 1.181674e+05        0
1.181674e+05 -3.745769e+04        0
       0        0        0

-4.168253e+05 1.086039e+05        0
1.086039e+05 -3.751248e+04        0
       0        0        0

-6.697181e+05 8.950437e+04        0
8.950437e+04 -3.763609e+04        0
       0        0        0

-9.225953e+05 6.087498e+04        0
6.087498e+04 -3.782344e+04        0
       0        0        0

-1.175457e+06 2.271540e+04        0
2.271540e+04 -3.806658e+04        0
       0        0        0

1.053347e+06 2.274703e+04        0
2.274703e+04 -4.271421e+04        0
       0        0        0

8.099627e+05 6.094430e+04        0
6.094430e+04 -4.238867e+04        0
       0        0        0

5.665832e+05 8.957804e+04        0
8.957804e+04 -4.214001e+04        0
       0        0        0

3.232061e+05 1.086560e+05        0
1.086560e+05 -4.197068e+04        0
       0        0        0

7.982720e+04 1.181835e+05        0
1.181835e+05 -4.188172e+04        0
       0        0        0

-1.635563e+05 1.181649e+05        0
1.181649e+05 -4.187448e+04        0
       0        0        0

-4.069457e+05 1.086046e+05        0
1.086046e+05 -4.195008e+04        0
       0        0        0

-6.503417e+05 8.950754e+04        0
8.950754e+04 -4.210767e+04        0
       0        0        0

-8.937439e+05 6.087731e+04        0
6.087731e+04 -4.234382e+04        0
       0        0        0

-1.137148e+06 2.271526e+04        0
2.271526e+04 -4.265429e+04        0
       0        0        0

1.005683e+06 2.274540e+04        0
2.274540e+04 -4.736039e+04        0
       0        0        0

7.719395e+05 6.094220e+04        0
6.094220e+04 -4.696668e+04        0
       0        0        0

5.381756e+05 8.957682e+04        0
8.957682e+04 -4.666609e+04        0
       0        0        0

3.043894e+05 1.086553e+05        0
1.086553e+05 -4.646219e+04        0
       0        0        0

7.057816e+04 1.181832e+05        0
1.181832e+05 -4.635677e+04        0
       0        0        0

-1.632605e+05 1.181653e+05        0
1.181653e+05 -4.635059e+04        0
       0        0        0

-3.971279e+05 1.086060e+05        0
1.086060e+05 -4.644348e+04        0
       0        0        0

-6.310241e+05 8.950908e+04        0
8.950908e+04 -4.663394e+04        0
       0        0        0

-8.649474e+05 6.087783e+04        0
6.087783e+04 -4.691930e+04        0
       0        0        0

-1.098893e+06 2.271487e+04        0
2.271487e+04 -4.729638e+04        0
       0        0        0

9.579955e+05 2.274401e+04        0
2.274401e+04 -5.203382e+04        0
       0        0        0

7.338873e+05 6.093990e+04        0
6.093990e+04 -5.157526e+04        0
       0        0        0

5.097360e+05 8.957509e+04        0
8.957509e+04 -5.122567e+04        0
       0        0        0

2.855393e+05 1.086546e+05        0
1.086546e+05 -5.098881e+04        0
       0        0        0

6.129495e+04 1.181835e+05        0
1.181835e+05 -5.086676e+04        0
       0        0        0

-1.629989e+05 1.181663e+05        0
1.181663e+05 -5.086026e+04        0
       0        0        0

-3.873432e+05 1.086073e+05        0
1.086073e+05 -5.096888e+04        0
       0        0        0

-6.117374e+05 8.951012e+04        0
8.951012e+04 -5.119109e+04        0
       0        0        0

-8.361792e+05 6.087816e+04        0
6.087816e+04 -5.152449e+04        0
       0        0        0

-1.060664e+06 2.271473e+04        0
2.271473e+04 -5.196606e+04        0
       0        0        0

9.103102e+05 2.274290e+04        0
2.274290e+04 -5.670830e+04        0
       0        0        0

6.958327e+05 6.093781e+04        0
6.093781e+04 -5.618769e+04        0
       0        0        0

4.812908e+05 8.957329e+04        0
8.957329e+04 -5.579142e+04        0
       0        0        0

2.666818e+05 1.086537e+05        0
1.086537e+05 -5.552313e+04        0
       0        0        0

5.200353e+04 1.181835e+05        0
1.181835e+05 -5.538501e+04        0
       0        0        0

-1.627453e+05 1.181671e+05        0
1.181671e+05 -5.537791e+04        0
       0        0        0

-3.775653e+05 1.086084e+05        0
1.086084e+05 -5.550145e+04        0
       0        0        0

-5.924556e+05 8.951108e+04        0
8.951108e+04 -5.575423e+04        0
       0        0        0

-8.074137e+05 6.087870e+04        0
6.087870e+04 -5.613391e+04        0
       0        0        0

-1.022436e+06 2.271487e+04        0
2.271487e+04 -5.663736e+04        0
       0        0        0

8.626521e+05 2.274199e+04        0
2.274199e+04 -6.135879e+04        0
       0        0        0

6.578008e+05 6.093597e+04        0
6.093597e+04 -6.077883e+04        0
       0        0        0

4.528651e+05 8.957151e+04        0
8.957151e+04 -6.033797e+04        0
       0        0        0

2.478418e+05 1.086526e+05        0
1.086526e+05 -6.003972e+04        0
       0        0        0

4.272898e+04 1.181833e+05        0
1.181833e+05 -5.988631e+04        0
       0        0        0

-1.624747e+05 1.181676e+05        0
1.181676e+05 -5.987868e+04        0
       0        0        0

-3.677693e+05 1.086093e+05        0
1.086093e+05 -6.001657e+04        0
       0        0        0

-5.731540e+05 8.951207e+04        0
8.951207e+04 -6.029867e+04        0
       0        0        0

-7.786261e+05 6.087949e+04        0
6.087949e+04 -6.072267e+04        0
       0        0        0

-9.841820e+05 2.271520e+04        0
2.271520e+04 -6.128531e+04        0
       0        0        0

8.150447e+05 2.274119e+04        0
2.274119e+04 -6.596137e+04        0
       0        0        0

6.198157e+05 6.093429e+04        0
6.093429e+04 -6.532474e+04        0
       0        0        0

4.244831e+05 8.956979e+04        0
8.956979e+04 -6.484133e+04        0
       0        0        0

2.290436e+05 1.086514e+05        0
1.086514e+05 -6.451457e+04        0
       0        0        0

3.349528e+04 1.181828e+05        0
1.181828e+05 -6.434668e+04        0
       0        0        0

-1.621631e+05 1.181678e+05        0
1.181678e+05 -6.433866e+04        0
       0        0        0

-3.579315e+05 1.086101e+05        0
1.086101e+05 -6.449036e+04        0
       0        0        0

-5.538088e+05 8.951312e+04        0
8.951312e+04 -6.480053e+04        0
       0        0        0

-7.497925e+05 6.088044e+04        0
6.088044e+04 -6.526686e+04        0
       0        0        0

-9.458791e+05 2.271565e+04        0
2.271565e+04 -6.588597e+04        0
       0        0        0

7.675109e+05 2.274046e+04        0
2.274046e+04 -7.049320e+04        0
       0        0        0

5.819002e+05 6.093274e+04        0
6.093274e+04 -6.980261e+04        0
       0        0        0

3.961678e+05 8.956812e+04        0
8.956812e+04 -6.927871e+04        0
       0        0        0

2.103102e+05 1.086501e+05        0
1.086501e+05 -6.892487e+04        0
       0        0        0

2.432534e+04 1.181822e+05        0
1.181822e+05 -6.874328e+04        0
       0        0        0

-1.617878e+05 1.181679e+05        0
1.181679e+05 -6.873500e+04        0
       0        0        0

-3.480291e+05 1.086108e+05        0
1.086108e+05 -6.889995e+04        0
       0        0        0

-5.343973e+05 8.951421e+04        0
8.951421e+04 -6.923691e+04        0
       0        0        0

-7.208902e+05 6.088151e+04        0
6.088151e+04 -6.974358e+04        0
       0        0        0

-9.075041e+05 2.271617e+04        0
2.271617e+04 -7.041650e+04        0
       0        0        0

7.200724e+05 2.273978e+04        0
2.273978e+04 -7.493251e+04        0
       0        0        0

5.440762e+05 6.093126e+04        0
6.093126e+04 -7.419072e+04        0
       0        0        0

3.679410e+05 8.956649e+04        0
8.956649e+04 -7.362842e+04        0
       0        0        0

1.916633e+05 1.086488e+05        0
1.086488e+05 -7.324891e+04        0
       0        0        0

1.524097e+04 1.181815e+05        0
1.181815e+05 -7.305437e+04        0
       0        0        0

-1.613270e+05 1.181680e+05        0
1.181680e+05 -7.304591e+04        0
       0        0        0

-3.380404e+05 1.086115e+05        0
1.086115e+05 -7.322350e+04        0
       0        0        0

-5.148980e+05 8.951534e+04        0
8.951534e+04 -7.358599e+04        0
       0        0        0

-6.918973e+05 6.088266e+04        0
6.088266e+04 -7.413103e+04        0
       0        0        0

-8.690351e+05 2.271674e+04        0
2.271674e+04 -7.485512e+04        0
       0        0        0

6.727496e+05 2.273915e+04        0
2.273915e+04 -7.925865e+04        0
       0        0        0

5.063643e+05 6.092987e+04        0
6.092987e+04 -7.846844e+04        0
       0        0        0

3.398235e+05 8.956490e+04        0
8.956490e+04 -7.786984e+04        0
       0        0        0

1.731238e+05 1.086474e+05        0
1.086474e+05 -7.746606e+04        0
       0        0        0

6.262871e+03 1.181807e+05        0
1.181807e+05 -7.725930e+04        0
       0        0        0

-1.607601e+05 1.181679e+05        0
1.181679e+05 -7.725070e+04        0
       0        0        0

-3.279449e+05 1.086122e+05        0
1.086122e+05 -7.744031e+04        0
       0        0        0

-4.952900e+05 8.951652e+04        0
8.951652e+04 -7.782703e+04        0
       0        0        0

-6.627933e+05 6.088390e+04        0
6.088390e+04 -7.840850e+04        0
       0        0        0

-8.304514e+05 2.271735e+04        0
2.271735e+04 -7.918117e+04        0
       0        0        0

6.255623e+05 2.273860e+04        0
2.273860e+04 -8.345204e+04        0
       0        0        0

4.687842e+05 6.092861e+04        0
6.092861e+04 -8.261623e+04        0
       0        0        0

3.118351e+05 8.956336e+04        0
8.956336e+04 -8.198344e+04        0
       0        0        0

1.547113e+05 1.086460e+05        0
1.086460e+05 -8.155680e+04        0
       0        0        0

-2.589342e+03 1.181797e+05        0
1.181797e+05 -8.133850e+04        0
       0        0        0

-1.600676e+05 1.181676e+05        0
1.181676e+05 -8.132977e+04        0
       0        0        0

-3.177230e+05 1.086127e+05        0
1.086127e+05 -8.153075e+04        0
       0        0        0

-4.755541e+05 8.951774e+04        0
8.951774e+04 -8.194039e+04        0
       0        0        0

-6.335585e+05 6.088526e+04        0
6.088526e+04 -8.255637e+04        0
       0        0        0

-7.917332e+05 2.271804e+04        0
2.271804e+04 -8.337503e+04        0
       0        0        0

5.785286e+05 2.273818e+04        0
2.273818e+04 -8.749420e+04        0
       0        0        0

4.313543e+05 6.092752e+04        0
6.092752e+04 -8.661561e+04        0
       0        0        0

2.839942e+05 8.956186e+04        0
8.956186e+04 -8.595074e+04        0
       0        0        0

1.364444e+05 1.086444e+05        0
1.086444e+05 -8.550261e+04        0
       0        0        0

-1.129713e+04 1.181785e+05        0
1.181785e+05 -8.527348e+04        0
       0        0        0

-1.592310e+05 1.181672e+05        0
1.181672e+05 -8.526464e+04        0
       0        0        0

-3.073564e+05 1.086132e+05        0
1.086132e+05 -8.547631e+04        0
       0        0        0

-4.556717e+05 8.951901e+04        0
8.951901e+04 -8.590756e+04        0
       0        0        0

-6.041745e+05 6.088681e+04        0
6.088681e+04 -8.655611e+04        0
       0        0        0

-7.528620e+05 2.271887e+04        0
2.271887e+04 -8.741821e+04        0
       0        0        0

5.316658e+05 2.273795e+04        0
2.273795e+04 -9.136770e+04        0
       0        0        0

3.940921e+05 6.092664e+04        0
6.092664e+04 -9.044911e+04        0
       0        0        0

2.563185e+05 8.956035e+04        0
8.956035e+04 -8.975418e+04        0
       0        0        0

1.183407e+05 1.086427e+05        0
1.086427e+05 -8.928592e+04        0
       0        0        0

-1.984305e+04 1.181771e+05        0
1.181771e+05 -8.904675e+04        0
       0        0        0

-1.582329e+05 1.181665e+05        0
1.181665e+05 -8.903799e+04        0
       0        0        0

-2.968278e+05 1.086135e+05        0
1.086135e+05 -8.925980e+04        0
       0        0        0

-4.356258e+05 8.952027e+04        0
8.952027e+04 -8.971127e+04        0
       0        0        0

-5.746240e+05 6.088855e+04        0
6.088855e+04 -9.039034e+04        0
       0        0        0

-7.138201e+05 2.271989e+04        0
2.271989e+04 -9.129327e+04        0
       0        0        0

4.849900e+05 2.273796e+04        0
2.273796e+04 -9.505617e+04        0
       0        0        0

3.570143e+05 6.092578e+04        0
6.092578e+04 -9.410013e+04        0
       0        0        0

2.288244e+05 8.955863e+04        0
8.955863e+04 -9.337682e+04        0
       0        0        0

1.004164e+05 1.086409e+05        0
1.086409e+05 -9.288974e+04        0
       0        0        0

-2.821086e+04 1.181759e+05        0
1.181759e+05 -9.264171e+04        0
       0        0        0

-1.570571e+05 1.181660e+05        0
1.181660e+05 -9.263380e+04        0
       0        0        0

-2.861209e+05 1.086137e+05        0
1.086137e+05 -9.286556e+04        0
       0        0        0

-4.154000e+05 8.952131e+04        0
8.952131e+04 -9.333584e+04        0
       0        0        0

-5.448908e+05 6.089031e+04        0
6.089031e+04 -9.404301e+04        0
       0        0        0

-6.745909e+05 2.272114e+04        0
2.272114e+04 -9.498389e+04        0
       0        0        0

4.385165e+05 2.273799e+04        0
2.273799e+04 -9.854414e+04        0
       0        0        0

3.201365e+05 6.092413e+04        0
6.092413e+04 -9.755243e+04        0
       0        0        0

2.015270e+05 8.955605e+04        0
8.955605e+04 -9.680155e+04        0
       0        0        0

8.268604e+04 1.086394e+05        0
1.086394e+05 -9.629693e+04        0
       0        0        0

-3.638572e+04 1.181761e+05        0
1.181761e+05 -9.604235e+04        0
       0        0        0

-1.556878e+05 1.181669e+05        0
1.181669e+05 -9.603770e+04        0
       0        0        0

-2.752198e+05 1.086142e+05        0
1.086142e+05 -9.628032e+04        0
       0        0        0

-3.949789e+05 8.952149e+04        0
8.952149e+04 -9.676789e+04        0
       0        0        0

-5.149602e+05 6.089130e+04        0
6.089130e+04 -9.749981e+04        0
       0        0        0

-6.351591e+05 2.272241e+04        0
2.272241e+04 -9.847494e+04        0
       0        0        0

3.922608e+05 2.273705e+04        0
2.273705e+04 -1.018168e+05        0
       0        0        0

2.834737e+05 6.091918e+04        0
6.091918e+04 -1.007892e+05        0
       0        0        0

1.744389e+05 8.955103e+04        0
8.955103e+04 -1.000095e+05        0
       0        0        0

6.516111e+04 1.086394e+05        0
1.086394e+05 -9.948866e+04        0
       0        0        0

-4.435480e+04 1.181814e+05        0
1.181814e+05 -9.923257e+04        0
       0        0        0

-1.541098e+05 1.181730e+05        0
1.181730e+05 -9.923757e+04        0
       0        0        0

-2.641077e+05 1.086162e+05        0
1.086162e+05 -9.949473e+04        0
       0        0        0

-3.743471e+05 8.951924e+04        0
8.951924e+04 -9.999809e+04        0
       0        0        0

-4.848186e+05 6.088897e+04        0
6.088897e+04 -1.007492e+05        0
       0        0        0

-5.955116e+05 2.272272e+04        0
2.272272e+04 -1.017527e+05        0
       0        0        0

3.462408e+05 2.273213e+04        0
2.273213e+04 -1.048596e+05        0
       0        0        0

2.470402e+05 6.090435e+04        0
6.090435e+04 -1.037913e+05        0
       0        0        0

1.475679e+05 8.953998e+04        0
8.953998e+04 -1.029768e+05        0
       0        0        0

4.784705e+04 1.086446e+05        0
1.086446e+05 -1.024414e+05        0
       0        0        0

-5.210860e+04 1.182015e+05        0
1.182015e+05 -1.021950e+05        0
       0        0        0

-1.523066e+05 1.181938e+05        0
1.181938e+05 -1.022248e+05        0
       0        0        0

-2.527641e+05 1.086235e+05        0
1.086235e+05 -1.025064e+05        0
       0        0        0

-3.534861e+05 8.951096e+04        0
8.951096e+04 -1.030244e+05        0
       0        0        0

-4.544544e+05 6.087677e+04        0
6.087677e+04 -1.037842e+05        0
       0        0        0

-5.556398e+05 2.271905e+04        0
2.271905e+04 -1.048050e+05        0
       0        0        0

3.004822e+05 2.271539e+04        0
2.271539e+04 -1.076574e+05        0
       0        0        0

2.108492e+05 6.086437e+04        0
6.086437e+04 -1.065333e+05        0
       0        0        0

1.209111e+05 8.951547e+04        0
8.951547e+04 -1.056691e+05        0
       0        0        0

3.073691e+04 1.086641e+05        0
1.086641e+05 -1.051219e+05        0
       0        0        0

-5.964356e+04 1.182578e+05        0
1.182578e+05 -1.049091e+05        0
       0        0        0

-1.502580e+05 1.182509e+05        0
1.182509e+05 -1.049962e+05        0
       0        0        0

-2.411586e+05 1.086450e+05        0
1.086450e+05 -1.053250e+05        0
       0        0        0

-3.323700e+05 8.948921e+04        0
8.948921e+04 -1.058577e+05        0
       0        0        0

-4.238571e+05 6.083943e+04        0
6.083943e+04 -1.066065e+05        0
       0        0        0

-5.155449e+05 2.270357e+04        0
2.270357e+04 -1.076228e+05        0
       0        0        0

2.550302e+05 2.266861e+04        0
2.266861e+04 -1.101929e+05        0
       0        0        0

1.749112e+05 6.076689e+04        0
6.076689e+04 -1.089786e+05        0
       0        0        0

9.444393e+04 8.946363e+04        0
8.946363e+04 -1.080333e+05        0
       0        0        0

1.379928e+04 1.087177e+05        0
1.087177e+05 -1.074804e+05        0
       0        0        0

-6.696700e+04 1.183950e+05        0
1.183950e+05 -1.073481e+05        0
       0        0        0

-1.479346e+05 1.183887e+05        0
1.183887e+05 -1.075565e+05        0
       0        0        0

-2.292386e+05 1.087005e+05        0
1.087005e+05 -1.079789e+05        0
       0        0        0

-3.109536e+05 8.944014e+04        0
8.944014e+04 -1.085307e+05        0
       0        0        0

-3.930164e+05 6.074461e+04        0
6.074461e+04 -1.092323e+05        0
       0        0        0

-4.752498e+05 2.265805e+04        0
2.265805e+04 -1.102010e+05        0
       0        0        0

2.099707e+05 2.255312e+04        0
2.255312e+04 -1.124452e+05        0
       0        0        0

1.392276e+05 6.054967e+04        0
6.054967e+04 -1.110721e+05        0
       0        0        0

6.809781e+04 8.936202e+04        0
8.936202e+04 -1.099896e+05        0
       0        0        0

-3.042215e+03 1.088455e+05        0
1.088455e+05 -1.094456e+05        0
       0        0        0

-7.410477e+04 1.186961e+05        0
1.186961e+05 -1.094776e+05        0
       0        0        0

-1.452897e+05 1.186906e+05        0
1.186906e+05 -1.099193e+05        0
       0        0        0

-2.169086e+05 1.088304e+05        0
1.088304e+05 -1.105207e+05        0
       0        0        0

-2.891518e+05 8.934131e+04        0
8.934131e+04 -1.111065e+05        0
       0        0        0

-3.619182e+05 6.053006e+04        0
6.053006e+04 -1.117009e+05        0
       0        0        0

-4.348222e+05 2.254384e+04        0
2.254384e+04 -1.125422e+05        0
       0        0        0

1.654675e+05 2.229389e+04        0
2.229389e+04 -1.143894e+05        0
       0        0        0

1.037757e+05 6.010634e+04        0
6.010634e+04 -1.127378e+05        0
       0        0        0

4.172433e+04 8.918285e+04        0
8.918285e+04 -1.114370e+05        0
       0        0        0

-1.993675e+04 1.091211e+05        0
1.091211e+05 -1.109352e+05        0
       0        0        0

-8.111030e+04 1.192969e+05        0
1.192969e+05 -1.112604e+05        0
       0        0        0

-1.422485e+05 1.192922e+05        0
1.192922e+05 -1.121001e+05        0
       0        0        0

-2.040020e+05 1.091080e+05        0
1.091080e+05 -1.130151e+05        0
       0        0        0

-2.668047e+05 8.916493e+04        0
8.916493e+04 -1.136749e+05        0
       0        0        0

-3.305323e+05 6.008944e+04        0
6.008944e+04 -1.140807e+05        0
       0        0        0

-3.944153e+05 2.228592e+04        0
2.228592e+04 -1.146607e+05        0
       0        0        0

1.218143e+05 2.175987e+04        0
2.175987e+04 -1.160001e+05        0
       0        0        0

6.846989e+04 5.928775e+04        0
5.928775e+04 -1.139016e+05        0
       0        0        0

1.504775e+04 8.891654e+04        0
8.891654e+04 -1.123083e+05        0
       0        0        0

-3.712660e+04 1.096611e+05        0
1.096611e+05 -1.119237e+05        0
       0        0        0

-8.806578e+04 1.203706e+05        0
1.203706e+05 -1.126851e+05        0
       0        0        0

-1.387020e+05 1.203666e+05        0
1.203666e+05 -1.140839e+05        0
       0        0        0

-1.902583e+05 1.096500e+05        0
1.096500e+05 -1.154692e+05        0
       0        0        0

-2.436324e+05 8.890144e+04        0
8.890144e+04 -1.162985e+05        0
       0        0        0

-2.987810e+05 5.927361e+04        0
5.927361e+04 -1.164537e+05        0
       0        0        0

-3.543298e+05 2.175326e+04        0
2.175326e+04 -1.165895e+05        0
       0        0        0

7.947514e+04 2.075678e+04        0
2.075678e+04 -1.172821e+05        0
       0        0        0

3.307864e+04 5.797447e+04        0
5.797447e+04 -1.145899e+05        0
       0        0        0

-1.236395e+04 8.865059e+04        0
8.865059e+04 -1.127886e+05        0
       0        0        0

-5.490065e+04 1.106013e+05        0
1.106013e+05 -1.126577e+05        0
       0        0        0

-9.504948e+04 1.220074e+05        0
1.220074e+05 -1.138552e+05        0
       0        0        0

-1.345317e+05 1.220041e+05        0
1.220041e+05 -1.157267e+05        0
       0        0        0

-1.753640e+05 1.105923e+05        0
1.105923e+05 -1.176118e+05        0
       0        0        0

-2.192067e+05 8.863840e+04        0
8.863840e+04 -1.187962e+05        0
       0        0        0

-2.664684e+05 5.796312e+04        0
5.796312e+04 -1.188293e+05        0
       0        0        0

-3.150783e+05 2.075156e+04        0
2.075156e+04 -1.183719e+05        0
       0        0        0

3.901602e+04 1.910250e+04        0
1.910250e+04 -1.183311e+05        0
       0        0        0

-2.945817e+03 5.638064e+04        0
5.638064e+04 -1.153385e+05        0
       0        0        0

-4.097163e+04 8.874194e+04        0
8.874194e+04 -1.139164e+05        0
       0        0        0

-7.334318e+04 1.119428e+05        0
1.119428e+05 -1.141994e+05        0
       0        0        0

-1.020044e+05 1.238170e+05        0
1.238170e+05 -1.151847e+05        0
       0        0        0

-1.297257e+05 1.238146e+05        0
1.238146e+05 -1.165458e+05        0
       0        0        0

-1.591896e+05 1.119363e+05        0
1.119363e+05 -1.183359e+05        0
       0        0        0

-1.930733e+05 8.873286e+04        0
8.873286e+04 -1.201362e+05        0
       0        0        0

-2.331278e+05 5.637209e+04        0
5.637209e+04 -1.207525e+05        0
       0        0        0

-2.773664e+05 1.909865e+04        0
1.909865e+04 -1.200521e+05        0
       0        0        0

5.231707e+02 1.710271e+04        0
1.710271e+04 -1.199683e+05        0
       0        0        0

-4.055902e+04 5.592265e+04        0
5.592265e+04 -1.183223e+05        0
       0        0        0

-7.064226e+04 9.001307e+04        0
9.001307e+04 -1.192608e+05        0
       0        0        0

-9.160227e+04 1.128998e+05        0
1.128998e+05 -1.193451e+05        0
       0        0        0

-1.084793e+05 1.240404e+05        0
1.240404e+05 -1.176209e+05        0
       0        0        0

-1.246149e+05 1.240392e+05        0
1.240392e+05 -1.154735e+05        0
       0        0        0

-1.424954e+05 1.128964e+05        0
1.128964e+05 -1.147534e+05        0
       0        0        0

-1.653498e+05 9.000769e+04        0
9.000769e+04 -1.167342e+05        0
       0        0        0

-1.979384e+05 5.591692e+04        0
5.591692e+04 -1.201834e+05        0
       0        0        0

-2.416132e+05 1.710010e+04        0
1.710010e+04 -1.211410e+05        0
       0        0        0

-3.838758e+04 1.780089e+04        0
1.780089e+04 -1.241547e+05        0
       0        0        0

-8.056432e+04 6.133461e+04        0
6.133461e+04 -1.329180e+05        0
       0        0        0

-9.823379e+04 9.241439e+04        0
9.241439e+04 -1.376493e+05        0
       0        0        0

-1.069300e+05 1.101518e+05        0
1.101518e+05 -1.330247e+05        0
       0        0        0

-1.134903e+05 1.182691e+05        0
1.182691e+05 -1.226657e+05        0
       0        0        0

-1.199857e+05 1.182695e+05        0
1.182695e+05 -1.108102e+05        0
       0        0        0

-1.278480e+05 1.101525e+05        0
1.101525e+05 -1.017531e+05        0
       0        0        0

-1.390687e+05 9.241419e+04        0
9.241419e+04 -9.965330e+04        0
       0        0        0

-1.602170e+05 6.133242e+04        0
6.133242e+04 -1.078653e+05        0
       0        0        0

-2.060740e+05 1.779909e+04        0
1.779909e+04 -1.203165e+05        0
       0        0        0

-9.041229e+04 4.054631e+04        0
4.054631e+04 -1.562834e+05        0
       0        0        0

-1.138421e+05 7.593486e+04        0
7.593486e+04 -1.858539e+05        0
       0        0        0

-1.150719e+05 8.920336e+04        0
8.920336e+04 -1.817339e+05        0
       0        0        0

-1.153875e+05 9.571255e+04        0
9.571255e+04 -1.608397e+05        0
       0        0        0

-1.157490e+05 9.856239e+04        0
9.856239e+04 -1.317915e+05        0
       0        0        0

-1.168367e+05 9.856429e+04        0
9.856429e+04 -1.007938e+05        0
       0        0        0

-1.188659e+05 9.571771e+04        0
9.571771e+04 -7.341102e+04        0
       0        0        0

-1.225609e+05 8.921016e+04        0
8.921016e+04 -5.589330e+04        0
       0        0        0

-1.289065e+05 7.594047e+04        0
7.594047e+04 -5.688866e+04        0
       0        0        0

-1.586523e+05 4.054609e+04        0
4.054609e+04 -9.278140e+04        0
       0        0        0

POINT_DATA     451
VECTORS DISPLACEMENT_5.000000e-01 double
0.000000e+00    0.000000e+00    0.000000e+00
0.000000e+00    0.000000e+00    0.000000e+00
0.000000e+00    0.000000e+00    0.000000e+00
0.000000e+00    0.000000e+00    0.000000e+00
0.000000e+00    0.000000e+00    0.000000e+00
0.000000e+00    0.000000e+00    0.000000e+00
0.000000e+00    0.000000e+00    0.000000e+00
0.000000e+00    0.000000e+00    0.000000e+00
0.000000e+00    0.000000e+00    0.000000e+00
0.000000e+00    0.000000e+00    0.000000e+00
0.000000e+00    0.000000e+00    0.000000e+00
-1.141595e-06    -8.299605e-07    0.000000e+00
-7.233448e-07    -4.163095e-07    0.000000e+00
-5.161145e-07    -2.157261e-07    0.000000e+00
-3.332233e-07    -1.068318e-07    0.000000e+00
-1.642863e-07    -5.047426e-08    0.000000e+00
-3.984890e-20    -3.295145e-08    0.000000e+00
1.642863e-07    -5.047426e-08    0.000000e+00
3.332233e-07    -1.068318e-07    0.000000e+00
5.161145e-07    -2.157261e-07    0.000000e+00
7.233448e-07    -4.163095e-07    0.000000e+00
1.141595e-06    -8.299605e-07    0.000000e+00
-2.153941e-06    -1.380310e-06    0.000000e+00
-1.574436e-06    -9.987668e-07    0.000000e+00
-1.105093e-06    -7.015532e-07    0.000000e+00
-7.128292e-07    -5.177059e-07    0.000000e+00
-3.501023e-07    -4.175298e-07    0.000000e+00
-8.422353e-20    -3.857103e-07    0.000000e+00
3.501023e-07    -4.175298e-07    0.000000e+00
7.128292e-07    -5.177059e-07    0.000000e+00
1.105093e-06    -7.015532e-07    0.000000e+00
1.574436e-06    -9.987668e-07    0.000000e+00
2.153941e-06    -1.380310e-06    0.000000e+00
-3.132427e-06    -2.064635e-06    0.000000e+00
-2.394168e-06    -1.682257e-06    0.000000e+00
-1.722702e-06    -1.380761e-06    0.000000e+00
-1.115240e-06    -1.168096e-06    0.000000e+00
-5.487490e-07    -1.045521e-06    0.000000e+00
-1.324812e-19    -1.005593e-06    0.000000e+00
5.487490e-07    -1.045521e-06    0.000000e+00
1.115240e-06    -1.168096e-06    0.000000e+00
1.722702e-06    -1.380761e-06    0.000000e+00
2.394168e-06    -1.682257e-06    0.000000e+00
3.132427e-06    -2.064635e-06    0.000000e+00
-4.100076e-06    -2.909172e-06    0.000000e+00
-3.186876e-06    -2.535523e-06    0.000000e+00
-2.326958e-06    -2.239053e-06    0.000000e+00
-1.519408e-06    -2.025105e-06    0.000000e+00
-7.500557e-07    -1.896684e-06    0.000000e+00
-1.826878e-19    -1.854101e-06    0.000000e+00
7.500557e-07    -1.896684e-06    0.000000e+00
1.519408e-06    -2.025105e-06    0.000000e+00
2.326958e-06    -2.239053e-06    0.000000e+00
3.186876e-06    -2.535523e-06    0.000000e+00
4.100076e-06    -2.909172e-06    0.000000e+00
-5.051341e-06    -3.936654e-06    0.000000e+00
-3.956477e-06    -3.571725e-06    0.000000e+00
-2.911986e-06    -3.284208e-06    0.000000e+00
-1.912866e-06    -3.075890e-06    0.000000e+00
-9.475500e-07    -2.949778e-06    0.000000e+00
-2.346943e-19    -2.907564e-06    0.000000e+00
9.475500e-07    -2.949778e-06    0.000000e+00
1.912866e-06    -3.075890e-06    0.000000e+00
2.911986e-06    -3.284208e-06    0.000000e+00
3.956477e-06    -3.571725e-06    0.000000e+00
5.051341e-06    -3.936654e-06    0.000000e+00
-5.981873e-06    -5.149742e-06    0.000000e+00
-4.704513e-06    -4.794468e-06    0.000000e+00
-3.477740e-06    -4.516043e-06    0.000000e+00
-2.292922e-06    -4.315096e-06    0.000000e+00
-1.138484e-06    -4.193469e-06    0.000000e+00
-2.871309e-19    -4.152740e-06    0.000000e+00
1.138484e-06    -4.193469e-06    0.000000e+00
2.292922e-06    -4.315096e-06    0.000000e+00
3.477740e-06    -4.516043e-06    0.000000e+00
4.704513e-06    -4.794468e-06    0.000000e+00
5.981873e-06    -5.149742e-06    0.000000e+00
-6.888558e-06    -6.546376e-06    0.000000e+00
-5.431254e-06    -6.201154e-06    0.000000e+00
-4.025294e-06    -5.931590e-06    0.000000e+00
-2.659769e-06    -5.737829e-06    0.000000e+00
-1.322562e-06    -5.620886e-06    0.000000e+00
-3.364574e-19    -5.581770e-06    0.000000e+00
1.322562e-06    -5.620886e-06    0.000000e+00
2.659769e-06    -5.737829e-06    0.000000e+00
4.025294e-06    -5.931590e-06    0.000000e+00
5.431254e-06    -6.201154e-06    0.000000e+00
6.888558e-06    -6.546376e-06    0.000000e+00
-7.769676e-06    -8.122139e-06    0.000000e+00
-6.136610e-06    -7.787205e-06    0.000000e+00
-4.555509e-06    -7.526210e-06    0.000000e+00
-3.014227e-06    -7.339157e-06    0.000000e+00
-1.500173e-06    -7.226543e-06    0.000000e+00
-3.840765e-19    -7.188928e-06    0.000000e+00
1.500173e-06    -7.226543e-06    0.000000e+00
3.014227e-06    -7.339157e-06    0.000000e+00
4.555509e-06    -7.526210e-06    0.000000e+00
6.136610e-06    -7.787205e-06    0.000000e+00
7.769676e-06    -8.122139e-06    0.000000e+00
-8.624338e-06    -9.871838e-06    0.000000e+00
-6.820449e-06    -9.547301e-06    0.000000e+00
-5.068913e-06    -9.294677e-06    0.000000e+00
-3.356974e-06    -9.113935e-06    0.000000e+00
-1.671744e-06    -9.005301e-06    0.000000e+00
-4.341573e-19    -8.969049e-06    0.000000e+00
1.671744e-06    -9.005301e-06    0.000000e+00
3.356974e-06    -9.113935e-06    0.000000e+00
5.068913e-06    -9.294677e-06    0.000000e+00
6.820449e-06    -9.547301e-06    0.000000e+00
8.624338e-06    -9.871838e-06    0.000000e+00
-9.452129e-06    -1.179003e-05    0.000000e+00
-7.482678e-06    -1.147593e-05    0.000000e+00
-5.565791e-06    -1.123156e-05    0.000000e+00
-3.688437e-06    -1.105688e-05    0.000000e+00
-1.837569e-06    -1.095199e-05    0.000000e+00
-4.841323e-19    -1.091701e-05    0.000000e+00
1.837569e-06    -1.095199e-05    0.000000e+00
3.688437e-06    -1.105688e-05    0.000000e+00
5.565791e-06    -1.123156e-05    0.000000e+00
7.482678e-06    -1.147593e-05    0.000000e+00
9.452129e-06    -1.179003e-05    0.000000e+00
-1.025287e-05    -1.387120e-05    0.000000e+00
-8.123242e-06    -1.356758e-05    0.000000e+00
-6.046283e-06    -1.333140e-05    0.000000e+00
-4.008850e-06    -1.316265e-05    0.000000e+00
-1.997814e-06    -1.306137e-05    0.000000e+00
-5.278603e-19    -1.302760e-05    0.000000e+00
1.997814e-06    -1.306137e-05    0.000000e+00
4.008850e-06    -1.316265e-05    0.000000e+00
6.046283e-06    -1.333140e-05    0.000000e+00
8.123242e-06    -1.356758e-05    0.000000e+00
1.025287e-05    -1.387120e-05    0.000000e+00
-1.102648e-05    -1.610989e-05    0.000000e+00
-8.742113e-06    -1.581673e-05    0.000000e+00
-6.510452e-06    -1.558872e-05    0.000000e+00
-4.318325e-06    -1.542583e-05    0.000000e+00
-2.152566e-06    -1.532809e-05    0.000000e+00
-5.716414e-19    -1.529550e-05    0.000000e+00
2.152566e-06    -1.532809e-05    0.000000e+00
4.318325e-06    -1.542583e-05    0.000000e+00
6.510452e-06    -1.558872e-05    0.000000e+00
8.742113e-06    -1.581673e-05    0.000000e+00
1.102648e-05    -1.610989e-05    0.000000e+00
-1.177296e-05    -1.850062e-05    0.000000e+00
-9.339276e-06    -1.821793e-05    0.000000e+00
-6.958325e-06    -1.799807e-05    0.000000e+00
-4.616914e-06    -1.784101e-05    0.000000e+00
-2.301865e-06    -1.774678e-05    0.000000e+00
-6.186517e-19    -1.771537e-05    0.000000e+00
2.301865e-06    -1.774678e-05    0.000000e+00
4.616914e-06    -1.784101e-05    0.000000e+00
6.958325e-06    -1.799807e-05    0.000000e+00
9.339276e-06    -1.821793e-05    0.000000e+00
1.177296e-05    -1.850062e-05    0.000000e+00
-1.249228e-05    -2.103794e-05    0.000000e+00
-9.914728e-06    -2.076573e-05    0.000000e+00
-7.389909e-06    -2.055400e-05    0.000000e+00
-4.904637e-06    -2.040277e-05    0.000000e+00
-2.445728e-06    -2.031204e-05    0.000000e+00
-6.524271e-19    -2.028179e-05    0.000000e+00
2.445728e-06    -2.031204e-05    0.000000e+00
4.904637e-06    -2.040277e-05    0.000000e+00
7.389909e-06    -2.055400e-05    0.000000e+00
9.914728e-06    -2.076573e-05    0.000000e+00
1.249228e-05    -2.103794e-05    0.000000e+00
-1.318446e-05    -2.371642e-05    0.000000e+00
-1.046846e-05    -2.345467e-05    0.000000e+00
-7.805208e-06    -2.325110e-05    0.000000e+00
-5.181502e-06    -2.310568e-05    0.000000e+00
-2.584160e-06    -2.301844e-05    0.000000e+00
-6.821792e-19    -2.298935e-05    0.000000e+00
2.584160e-06    -2.301844e-05    0.000000e+00
5.181502e-06    -2.310568e-05    0.000000e+00
7.805208e-06    -2.325110e-05    0.000000e+00
1.046846e-05    -2.345467e-05    0.000000e+00
1.318446e-05    -2.371642e-05    0.000000e+00
-1.384949e-05    -2.653062e-05    0.000000e+00
-1.100049e-05    -2.627934e-05    0.000000e+00
-8.204222e-06    -2.608391e-05    0.000000e+00
-5.447509e-06    -2.594431e-05    0.000000e+00
-2.717163e-06    -2.586056e-05    0.000000e+00
-7.045197e-19    -2.583264e-05    0.000000e+00
2.717163e-06    -2.586056e-05    0.000000e+00
5.447509e-06    -2.594431e-05    0.000000e+00
8.204222e-06    -2.608391e-05    0.000000e+00
1.100049e-05    -2.627934e-05    0.000000e+00
1.384949e-05    -2.653062e-05    0.000000e+00
-1.448737e-05    -2.947511e-05    0.000000e+00
-1.151079e-05    -2.923431e-05    0.000000e+00
-8.586950e-06    -2.904701e-05    0.000000e+00
-5.702661e-06    -2.891323e-05    0.000000e+00
-2.844739e-06    -2.883297e-05    0.000000e+00
-7.110842e-19    -2.880621e-05    0.000000e+00
2.844739e-06    -2.883297e-05    0.000000e+00
5.702661e-06    -2.891323e-05    0.000000e+00
8.586950e-06    -2.904701e-05    0.000000e+00
1.151079e-05    -2.923431e-05    0.000000e+00
1.448737e-05    -2.947511e-05    0.000000e+00
-1.509811e-05    -3.254446e-05    0.000000e+00
-1.199938e-05    -3.231413e-05    0.000000e+00
-8.953393e-06    -3.213498e-05    0.000000e+00
-5.946955e-06    -3.200702e-05    0.000000e+00
-2.966886e-06    -3.193024e-05    0.000000e+00
-7.340599e-19    -3.190464e-05    0.000000e+00
2.966886e-06    -3.193024e-05    0.000000e+00
5.946955e-06    -3.200702e-05    0.000000e+00
8.953393e-06    -3.213498e-05    0.000000e+00
1.199938e-05    -3.231413e-05    0.000000e+00
1.509811e-05    -3.254446e-05    0.000000e+00
-1.568170e-05    -3.573325e-05    0.000000e+00
-1.246626e-05    -3.551339e-05    0.000000e+00
-9.303549e-06    -3.534238e-05    0.000000e+00
-6.180393e-06    -3.522023e-05    0.000000e+00
-3.083604e-06    -3.514694e-05    0.000000e+00
-7.675177e-19    -3.512251e-05    0.000000e+00
3.083604e-06    -3.514694e-05    0.000000e+00
6.180393e-06    -3.522023e-05    0.000000e+00
9.303549e-06    -3.534238e-05    0.000000e+00
1.246626e-05    -3.551339e-05    0.000000e+00
1.568170e-05    -3.573325e-05    0.000000e+00
-1.623815e-05    -3.903604e-05    0.000000e+00
-1.291142e-05    -3.882665e-05    0.000000e+00
-9.637419e-06    -3.866378e-05    0.000000e+00
-6.402973e-06    -3.854745e-05    0.000000e+00
-3.194894e-06    -3.847765e-05    0.000000e+00
-8.184456e-19    -3.845439e-05    0.000000e+00
3.194894e-06    -3.847765e-05    0.000000e+00
6.402973e-06    -3.854745e-05    0.000000e+00
9.637419e-06    -3.866378e-05    0.000000e+00
1.291142e-05    -3.882665e-05    0.000000e+00
1.623815e-05    -3.903604e-05    0.000000e+00
-1.676746e-05    -4.244741e-05    0.000000e+00
-1.333486e-05    -4.224848e-05    0.000000e+00
-9.955003e-06    -4.209376e-05    0.000000e+00
-6.614695e-06    -4.198325e-05    0.000000e+00
-3.300756e-06    -4.191694e-05    0.000000e+00
-8.790084e-19    -4.189484e-05    0.000000e+00
3.300756e-06    -4.191694e-05    0.000000e+00
6.614695e-06    -4.198325e-05    0.000000e+00
9.955003e-06    -4.209376e-05    0.000000e+00
1.333486e-05    -4.224848e-05    0.000000e+00
1.676746e-05    -4.244741e-05    0.000000e+00
-1.726962e-05    -4.596192e-05    0.000000e+00
-1.373659e-05    -4.577347e-05    0.000000e+00
-1.025630e-05    -4.562689e-05    0.000000e+00
-6.815560e-06    -4.552219e-05    0.000000e+00
-3.401188e-06    -4.545937e-05    0.000000e+00
-9.243247e-19    -4.543843e-05    0.000000e+00
3.401188e-06    -4.545937e-05    0.000000e+00
6.815560e-06    -4.552219e-05    0.000000e+00
1.025630e-05    -4.562689e-05    0.000000e+00
1.373659e-05    -4.577347e-05    0.000000e+00
1.726962e-05    -4.596192e-05    0.000000e+00
-1.774464e-05    -4.957416e-05    0.000000e+00
-1.411661e-05    -4.939617e-05    0.000000e+00
-1.054131e-05    -4.925774e-05    0.000000e+00
-7.005568e-06    -4.915885e-05    0.000000e+00
-3.496192e-06    -4.909952e-05    0.000000e+00
-9.554532e-19    -4.907975e-05    0.000000e+00
3.496192e-06    -4.909952e-05    0.000000e+00
7.005568e-06    -4.915885e-05    0.000000e+00
1.054131e-05    -4.925774e-05    0.000000e+00
1.411661e-05    -4.939617e-05    0.000000e+00
1.774464e-05    -4.957416e-05    0.000000e+00
-1.819252e-05    -5.327868e-05    0.000000e+00
-1.447491e-05    -5.311116e-05    0.000000e+00
-1.081004e-05    -5.298087e-05    0.000000e+00
-7.184718e-06    -5.288780e-05    0.000000e+00
-3.585767e-06    -5.283196e-05    0.000000e+00
-1.002040e-18    -5.281335e-05    0.000000e+00
3.585767e-06    -5.283196e-05    0.000000e+00
7.184718e-06    -5.288780e-05    0.000000e+00
1.081004e-05    -5.298087e-05    0.000000e+00
1.447491e-05    -5.311116e-05    0.000000e+00
1.819252e-05    -5.327868e-05    0.000000e+00
-1.861325e-05    -5.707006e-05    0.000000e+00
-1.481149e-05    -5.691301e-05    0.000000e+00
-1.106248e-05    -5.679086e-05    0.000000e+00
-7.353012e-06    -5.670362e-05    0.000000e+00
-3.669914e-06    -5.665127e-05    0.000000e+00
-1.017287e-18    -5.663382e-05    0.000000e+00
3.669914e-06    -5.665127e-05    0.000000e+00
7.353012e-06    -5.670362e-05    0.000000e+00
1.106248e-05    -5.679086e-05    0.000000e+00
1.481149e-05    -5.691301e-05    0.000000e+00
1.861325e-05    -5.707006e-05    0.000000e+00
-1.900683e-05    -6.094287e-05    0.000000e+00
-1.512636e-05    -6.079630e-05    0.000000e+00
-1.129863e-05    -6.068229e-05    0.000000e+00
-7.510448e-06    -6.060086e-05    0.000000e+00
-3.748633e-06    -6.055200e-05    0.000000e+00
-1.030627e-18    -6.053571e-05    0.000000e+00
3.748633e-06    -6.055200e-05    0.000000e+00
7.510448e-06    -6.060086e-05    0.000000e+00
1.129863e-05    -6.068229e-05    0.000000e+00
1.512636e-05    -6.079630e-05    0.000000e+00
1.900683e-05    -6.094287e-05    0.000000e+00
-1.937327e-05    -6.489169e-05    0.000000e+00
-1.541952e-05    -6.475558e-05    0.000000e+00
-1.151850e-05    -6.464972e-05    0.000000e+00
-7.657028e-06    -6.457410e-05    0.000000e+00
-3.821923e-06    -6.452873e-05    0.000000e+00
-1.041215e-18    -6.451361e-05    0.000000e+00
3.821923e-06    -6.452873e-05    0.000000e+00
7.657028e-06    -6.457410e-05    0.000000e+00
1.151850e-05    -6.464972e-05    0.000000e+00
1.541952e-05    -6.475558e-05    0.000000e+00
1.937327e-05    -6.489169e-05    0.000000e+00
-1.971256e-05    -6.891107e-05    0.000000e+00
-1.569095e-05    -6.878544e-05    0.000000e+00
-1.172208e-05    -6.868772e-05    0.000000e+00
-7.792750e-06    -6.861792e-05    0.000000e+00
-3.889784e-06    -6.857604e-05    0.000000e+00
-1.027874e-18    -6.856209e-05    0.000000e+00
3.889784e-06    -6.857604e-05    0.000000e+00
7.792750e-06    -6.861792e-05    0.000000e+00
1.172208e-05    -6.868772e-05    0.000000e+00
1.569095e-05    -6.878544e-05    0.000000e+00
1.971256e-05    -6.891107e-05    0.000000e+00
-2.002471e-05    -7.299559e-05    0.000000e+00
-1.594068e-05    -7.288043e-05    0.000000e+00
-1.190938e-05    -7.279086e-05    0.000000e+00
-7.917611e-06    -7.272689e-05    0.000000e+00
-3.952212e-06    -7.268851e-05    0.000000e+00
-1.030839e-18    -7.267572e-05    0.000000e+00
3.952212e-06    -7.268851e-05    0.000000e+00
7.917611e-06    -7.272689e-05    0.000000e+00
1.190938e-05    -7.279086e-05    0.000000e+00
1.594068e-05    -7.288043e-05    0.000000e+00
2.002471e-05    -7.299559e-05    0.000000e+00
-2.030971e-05    -7.713981e-05    0.000000e+00
-1.616869e-05    -7.703512e-05    0.000000e+00
-1.208038e-05    -7.695370e-05    0.000000e+00
-8.031599e-06    -7.689557e-05    0.000000e+00
-4.009198e-06    -7.686071e-05    0.000000e+00
-1.071497e-18    -7.684909e-05    0.000000e+00
4.009198e-06    -7.686071e-05    0.000000e+00
8.031599e-06    -7.689557e-05    0.000000e+00
1.208038e-05    -7.695370e-05    0.000000e+00
1.616869e-05    -7.703512e-05    0.000000e+00
2.030971e-05    -7.713981e-05    0.000000e+00
-2.056757e-05    -8.133827e-05    0.000000e+00
-1.637501e-05    -8.124404e-05    0.000000e+00
-1.223508e-05    -8.117080e-05    0.000000e+00
-8.134686e-06    -8.111855e-05    0.000000e+00
-4.060720e-06    -8.108725e-05    0.000000e+00
-1.113425e-18    -8.107683e-05    0.000000e+00
4.060720e-06    -8.108725e-05    0.000000e+00
8.134686e-06    -8.111855e-05    0.000000e+00
1.223508e-05    -8.117080e-05    0.000000e+00
1.637501e-05    -8.124404e-05    0.000000e+00
2.056757e-05    -8.133827e-05    0.000000e+00
-2.079833e-05    -8.558550e-05    0.000000e+00
-1.655963e-05    -8.550173e-05    0.000000e+00
-1.237344e-05    -8.543670e-05    0.000000e+00
-8.226803e-06    -8.539041e-05    0.000000e+00
-4.106724e-06    -8.536276e-05    0.000000e+00
-1.188811e-18    -8.535356e-05    0.000000e+00
4.106724e-06    -8.536276e-05    0.000000e+00
8.226803e-06    -8.539041e-05    0.000000e+00
1.237344e-05    -8.543670e-05    0.000000e+00
1.655963e-05    -8.550173e-05    0.000000e+00
2.079833e-05    -8.558550e-05    0.000000e+00
-2.100210e-05    -8.987603e-05    0.000000e+00
-1.672261e-05    -8.980269e-05    0.000000e+00
-1.249537e-05    -8.974594e-05    0.000000e+00
-8.307807e-06    -8.970578e-05    0.000000e+00
-4.147107e-06    -8.968192e-05    0.000000e+00
-1.263773e-18    -8.967401e-05    0.000000e+00
4.147107e-06    -8.968192e-05    0.000000e+00
8.307807e-06    -8.970578e-05    0.000000e+00
1.249537e-05    -8.974594e-05    0.000000e+00
1.672261e-05    -8.980269e-05    0.000000e+00
2.100210e-05    -8.987603e-05    0.000000e+00
-2.117913e-05    -9.420439e-05    0.000000e+00
-1.686399e-05    -9.414142e-05    0.000000e+00
-1.260070e-05    -9.409308e-05    0.000000e+00
-8.377428e-06    -9.405931e-05    0.000000e+00
-4.181679e-06    -9.403949e-05    0.000000e+00
-1.303584e-18    -9.403297e-05    0.000000e+00
4.181679e-06    -9.403949e-05    0.000000e+00
8.377428e-06    -9.405931e-05    0.000000e+00
1.260070e-05    -9.409308e-05    0.000000e+00
1.686399e-05    -9.414142e-05    0.000000e+00
2.117913e-05    -9.420439e-05    0.000000e+00
-2.132994e-05    -9.856523e-05    0.000000e+00
-1.698388e-05    -9.851249e-05    0.000000e+00
-1.268909e-05    -9.847276e-05    0.000000e+00
-8.435206e-06    -9.844575e-05    0.000000e+00
-4.210141e-06    -9.843026e-05    0.000000e+00
-1.363300e-18    -9.842524e-05    0.000000e+00
4.210141e-06    -9.843026e-05    0.000000e+00
8.435206e-06    -9.844575e-05    0.000000e+00
1.268909e-05    -9.847276e-05    0.000000e+00
1.698388e-05    -9.851249e-05    0.000000e+00
2.132994e-05    -9.856523e-05    0.000000e+00
-2.145562e-05    -1.029537e-04    0.000000e+00
-1.708235e-05    -1.029109e-04    0.000000e+00
-1.275997e-05    -1.028800e-04    0.000000e+00
-8.480518e-06    -1.028600e-04    0.000000e+00
-4.232143e-06    -1.028489e-04    0.000000e+00
-1.424709e-18    -1.028454e-04    0.000000e+00
4.232143e-06    -1.028489e-04    0.000000e+00
8.480518e-06    -1.028600e-04    0.000000e+00
1.275997e-05    -1.028800e-04    0.000000e+00
1.708235e-05    -1.029109e-04    0.000000e+00
2.145562e-05    -1.029537e-04    0.000000e+00
-2.155817e-05    -1.073660e-04    0.000000e+00
-1.715935e-05    -1.073327e-04    0.000000e+00
-1.281258e-05    -1.073105e-04    0.000000e+00
-8.512904e-06    -1.072970e-04    0.000000e+00
-4.247579e-06    -1.072895e-04    0.000000e+00
-1.377699e-18    -1.072870e-04    0.000000e+00
4.247579e-06    -1.072895e-04    0.000000e+00
8.512904e-06    -1.072970e-04    0.000000e+00
1.281258e-05    -1.073105e-04    0.000000e+00
1.715935e-05    -1.073327e-04    0.000000e+00
2.155817e-05    -1.073660e-04    0.000000e+00
-2.164067e-05    -1.118023e-04    0.000000e+00
-1.721429e-05    -1.117772e-04    0.000000e+00
-1.284671e-05    -1.117621e-04    0.000000e+00
-8.533270e-06    -1.117511e-04    0.000000e+00
-4.257281e-06    -1.117436e-04    0.000000e+00
-1.319677e-18    -1.117409e-04    0.000000e+00
4.257281e-06    -1.117436e-04    0.000000e+00
8.533270e-06    -1.117511e-04    0.000000e+00
1.284671e-05    -1.117621e-04    0.000000e+00
1.721429e-05    -1.117772e-04    0.000000e+00
2.164067e-05    -1.118023e-04    0.000000e+00
-2.170513e-05    -1.162704e-04    0.000000e+00
-1.724615e-05    -1.162523e-04    0.000000e+00
-1.286626e-05    -1.162338e-04    0.000000e+00
-8.546207e-06    -1.162132e-04    0.000000e+00
-4.263865e-06    -1.161978e-04    0.000000e+00
-1.312054e-18    -1.161922e-04    0.000000e+00
4.263865e-06    -1.161978e-04    0.000000e+00
8.546207e-06    -1.162132e-04    0.000000e+00
1.286626e-05    -1.162338e-04    0.000000e+00
1.724615e-05    -1.162523e-04    0.000000e+00
2.170513e-05    -1.162704e-04    0.000000e+00
-2.173924e-05    -1.208105e-04    0.000000e+00
-1.726634e-05    -1.207758e-04    0.000000e+00
-1.288608e-05    -1.207173e-04    0.000000e+00
-8.561321e-06    -1.206645e-04    0.000000e+00
-4.272040e-06    -1.206293e-04    0.000000e+00
-1.314595e-18    -1.206170e-04    0.000000e+00
4.272040e-06    -1.206293e-04    0.000000e+00
8.561321e-06    -1.206645e-04    0.000000e+00
1.288608e-05    -1.207173e-04    0.000000e+00
1.726634e-05    -1.207758e-04    0.000000e+00
2.173924e-05    -1.208105e-04    0.000000e+00

CELL_DATA      400
TENSORS Element_Stress5.000000e-01 double
1.820598e+06 2.551812e+05        0
2.551812e+05 4.163488e+05        0
       0        0        0

1.243720e+06 1.308538e+05        0
1.308538e+05 3.566178e+05        0
       0        0        0

8.651185e+05 4.301032e+04        0
4.301032e+04 2.749959e+05        0
       0        0        0

5.100063e+05 -3.578362e+03        0
-3.578362e+03 1.690094e+05        0
       0        0        0

1.688541e+05 -2.488323e+04        0
-2.488323e+04 5.694968e+04        0
       0        0        0

-1.688184e+05 -2.487711e+04        0
-2.487711e+04 -5.695775e+04        0
       0        0        0

-5.095306e+05 -3.579111e+03        0
-3.579111e+03 -1.688447e+05        0
       0        0        0

-8.637077e+05 4.293851e+04        0
4.293851e+04 -2.744672e+05        0
       0        0        0

-1.240734e+06 1.305652e+05        0
1.305652e+05 -3.554740e+05        0
       0        0        0

-1.814375e+06 2.543707e+05        0
2.543707e+05 -4.141970e+05        0
       0        0        0

1.642070e+06 4.159748e+04        0
4.159748e+04 4.234799e+03        0
       0        0        0

1.322354e+06 1.206454e+05        0
1.206454e+05 1.286843e+05        0
       0        0        0

9.082521e+05 9.900755e+04        0
9.900755e+04 1.315191e+05        0
       0        0        0

5.364025e+05 7.580678e+04        0
7.580678e+04 9.193311e+04        0
       0        0        0

1.768172e+05 6.321708e+04        0
6.321708e+04 3.207757e+04        0
       0        0        0

-1.778550e+05 6.319873e+04        0
6.319873e+04 -3.316896e+04        0
       0        0        0

-5.369363e+05 7.574133e+04        0
7.574133e+04 -9.284490e+04        0
       0        0        0

-9.077061e+05 9.886738e+04        0
9.886738e+04 -1.320379e+05        0
       0        0        0

-1.319830e+06 1.204079e+05        0
1.204079e+05 -1.284324e+05        0
       0        0        0

-1.637466e+06 4.151083e+04        0
4.151083e+04 -3.136555e+03        0
       0        0        0

1.584953e+06 1.541639e+04        0
1.541639e+04 6.615316e+03        0
       0        0        0

1.271591e+06 6.833109e+04        0
6.833109e+04 1.757728e+04        0
       0        0        0

9.146414e+05 1.015639e+05        0
1.015639e+05 4.237687e+04        0
       0        0        0

5.430826e+05 1.074765e+05        0
1.074765e+05 3.592346e+04        0
       0        0        0

1.791459e+05 1.074054e+05        0
1.074054e+05 1.272037e+04        0
       0        0        0

-1.824790e+05 1.073775e+05        0
1.073775e+05 -1.611190e+04        0
       0        0        0

-5.458838e+05 1.073933e+05        0
1.073933e+05 -3.912503e+04        0
       0        0        0

-9.163117e+05 1.014348e+05        0
1.014348e+05 -4.515293e+04        0
       0        0        0

-1.271565e+06 6.821622e+04        0
6.821622e+04 -1.966893e+04        0
       0        0        0

-1.582978e+06 1.538448e+04        0
1.538448e+04 -7.911807e+03        0
       0        0        0

1.546129e+06 1.427370e+04        0
1.427370e+04 -3.975752e+03        0
       0        0        0

1.226683e+06 5.548208e+04        0
5.548208e+04 -1.953361e+03        0
       0        0        0

8.865538e+05 9.245025e+04        0
9.245025e+04 2.933168e+03        0
       0        0        0

5.331315e+05 1.146030e+05        0
1.146030e+05 5.877770e+03        0
       0        0        0

1.753740e+05 1.233579e+05        0
1.233579e+05 6.880624e+02        0
       0        0        0

-1.820438e+05 1.233283e+05        0
1.233283e+05 -7.415934e+03        0
       0        0        0

-5.392752e+05 1.145213e+05        0
1.145213e+05 -1.241206e+04        0
       0        0        0

-8.916350e+05 9.234263e+04        0
9.234263e+04 -9.058365e+03        0
       0        0        0

-1.230189e+06 5.539388e+04        0
5.539388e+04 -3.528931e+03        0
       0        0        0

-1.547532e+06 1.424568e+04        0
1.424568e+04 -5.504385e+02        0
       0        0        0

1.509427e+06 1.713063e+04        0
1.713063e+04 -5.567250e+03        0
       0        0        0

1.185340e+06 5.448733e+04        0
5.448733e+04 -8.577652e+03        0
       0        0        0

8.541561e+05 8.905469e+04        0
8.905469e+04 -8.329306e+03        0
       0        0        0

5.137340e+05 1.136408e+05        0
1.136408e+05 -6.745280e+03        0
       0        0        0

1.681056e+05 1.258450e+05        0
1.258450e+05 -5.639044e+03        0
       0        0        0

-1.789903e+05 1.258166e+05        0
1.258166e+05 -5.300820e+03        0
       0        0        0

-5.241237e+05 1.135646e+05        0
1.135646e+05 -4.010288e+03        0
       0        0        0

-8.635543e+05 8.895612e+04        0
8.895612e+04 -2.042812e+03        0
       0        0        0

-1.193244e+06 5.440409e+04        0
5.440409e+04 -1.179541e+03        0
       0        0        0

-1.515273e+06 1.709766e+04        0
1.709766e+04 -3.264825e+03        0
       0        0        0

1.469671e+06 1.958964e+04        0
1.958964e+04 -7.911531e+03        0
       0        0        0

1.147077e+06 5.644559e+04        0
5.644559e+04 -1.054799e+04        0
       0        0        0

8.224151e+05 8.838594e+04        0
8.838594e+04 -1.192774e+04        0
       0        0        0

4.928620e+05 1.117722e+05        0
1.117722e+05 -1.113898e+04        0
       0        0        0

1.594065e+05 1.239614e+05        0
1.239614e+05 -9.157849e+03        0
       0        0        0

-1.752704e+05 1.239348e+05        0
1.239348e+05 -6.757342e+03        0
       0        0        0

-5.082716e+05 1.117003e+05        0
1.117003e+05 -4.611022e+03        0
       0        0        0

-8.369138e+05 8.829171e+04        0
8.829171e+04 -3.479956e+03        0
       0        0        0

-1.160194e+06 5.636191e+04        0
5.636191e+04 -4.312364e+03        0
       0        0        0

-1.480879e+06 1.955285e+04        0
1.955285e+04 -6.139554e+03        0
       0        0        0

1.427069e+06 2.114429e+04        0
2.114429e+04 -1.052964e+04        0
       0        0        0

1.109854e+06 5.834958e+04        0
5.834958e+04 -1.236661e+04        0
       0        0        0

7.924051e+05 8.864128e+04        0
8.864128e+04 -1.362108e+04        0
       0        0        0

4.726277e+05 1.103428e+05        0
1.103428e+05 -1.337050e+04        0
       0        0        0

1.506199e+05 1.216735e+05        0
1.216735e+05 -1.181697e+04        0
       0        0        0

-1.721469e+05 1.216483e+05        0
1.216483e+05 -9.757740e+03        0
       0        0        0

-4.937483e+05 1.102742e+05        0
1.102742e+05 -8.067258e+03        0
       0        0        0

-8.127094e+05 8.854973e+04        0
8.854973e+04 -7.533909e+03        0
       0        0        0

-1.128918e+06 5.826553e+04        0
5.826553e+04 -8.339735e+03        0
       0        0        0

-1.444434e+06 2.110561e+04        0
2.110561e+04 -9.528610e+03        0
       0        0        0

1.382471e+06 2.200181e+04        0
2.200181e+04 -1.363722e+04        0
       0        0        0

1.072891e+06 5.961398e+04        0
5.961398e+04 -1.472183e+04        0
       0        0        0

7.635785e+05 8.901008e+04        0
8.901008e+04 -1.557415e+04        0
       0        0        0

4.533125e+05 1.094858e+05        0
1.094858e+05 -1.552412e+04        0
       0        0        0

1.419522e+05 1.200358e+05        0
1.200358e+05 -1.458784e+04        0
       0        0        0

-1.697603e+05 1.200117e+05        0
1.200117e+05 -1.326479e+04        0
       0        0        0

-4.807667e+05 1.094198e+05        0
1.094198e+05 -1.222641e+04        0
       0        0        0

-7.903212e+05 8.892091e+04        0
8.892091e+04 -1.196593e+04        0
       0        0        0

-1.098554e+06 5.953060e+04        0
5.953060e+04 -1.248635e+04        0
       0        0        0

-1.406666e+06 2.196271e+04        0
2.196271e+04 -1.309846e+04        0
       0        0        0

1.336650e+06 2.243103e+04        0
2.243103e+04 -1.712975e+04        0
       0        0        0

1.035846e+06 6.032509e+04        0
6.032509e+04 -1.770734e+04        0
       0        0        0

7.353690e+05 8.928001e+04        0
8.928001e+04 -1.819357e+04        0
       0        0        0

4.345842e+05 1.090314e+05        0
1.090314e+05 -1.820574e+04        0
       0        0        0

1.333510e+05 1.190751e+05        0
1.190751e+05 -1.770719e+04        0
       0        0        0

-1.679948e+05 1.190519e+05        0
1.190519e+05 -1.697818e+04        0
       0        0        0

-4.689286e+05 1.089678e+05        0
1.089678e+05 -1.641605e+04        0
       0        0        0

-7.691117e+05 8.919330e+04        0
8.919330e+04 -1.629667e+04        0
       0        0        0

-1.068676e+06 6.024325e+04        0
6.024325e+04 -1.657480e+04        0
       0        0        0

-1.368246e+06 2.239236e+04        0
2.239236e+04 -1.685617e+04        0
       0        0        0

1.290108e+06 2.262769e+04        0
2.262769e+04 -2.093370e+04        0
       0        0        0

9.986145e+05 6.068320e+04        0
6.068320e+04 -2.119241e+04        0
       0        0        0

7.073840e+05 8.943848e+04        0
8.943848e+04 -2.142408e+04        0
       0        0        0

4.161154e+05 1.088122e+05        0
1.088122e+05 -2.143279e+04        0
       0        0        0

1.247137e+05 1.185759e+05        0
1.185759e+05 -2.118594e+04        0
       0        0        0

-1.666835e+05 1.185536e+05        0
1.185536e+05 -2.082274e+04        0
       0        0        0

-4.578408e+05 1.087507e+05        0
1.087507e+05 -2.055219e+04        0
       0        0        0

-7.486181e+05 8.935433e+04        0
8.935433e+04 -2.051028e+04        0
       0        0        0

-1.039104e+06 6.060346e+04        0
6.060346e+04 -2.065826e+04        0
       0        0        0

-1.329592e+06 2.258991e+04        0
2.258991e+04 -2.079207e+04        0
       0        0        0

1.243138e+06 2.270943e+04        0
2.270943e+04 -2.498210e+04        0
       0        0        0

9.611829e+05 6.084707e+04        0
6.084707e+04 -2.504187e+04        0
       0        0        0

6.794120e+05 8.952007e+04        0
8.952007e+04 -2.510676e+04        0
       0        0        0

3.976942e+05 1.087151e+05        0
1.087151e+05 -2.508705e+04        0
       0        0        0

1.159751e+05 1.183403e+05        0
1.183403e+05 -2.496213e+04        0
       0        0        0

-1.656966e+05 1.183187e+05        0
1.183187e+05 -2.479576e+04        0
       0        0        0

-4.472257e+05 1.086557e+05        0
1.086557e+05 -2.468699e+04        0
       0        0        0

-7.285609e+05 8.943859e+04        0
8.943859e+04 -2.469694e+04        0
       0        0        0

-1.009752e+06 6.076971e+04        0
6.076971e+04 -2.480000e+04        0
       0        0        0

-1.290922e+06 2.267274e+04        0
2.267274e+04 -2.489961e+04        0
       0        0        0

1.195902e+06 2.273919e+04        0
2.273919e+04 -2.922324e+04        0
       0        0        0

9.235708e+05 6.091458e+04        0
6.091458e+04 -2.915047e+04        0
       0        0        0

6.513590e+05 8.955767e+04        0
8.955767e+04 -2.910387e+04        0
       0        0        0

3.792147e+05 1.086759e+05        0
1.086759e+05 -2.904718e+04        0
       0        0        0

1.071092e+05 1.182389e+05        0
1.182389e+05 -2.896999e+04        0
       0        0        0

-1.649443e+05 1.182180e+05        0
1.182180e+05 -2.889900e+04        0
       0        0        0

-4.369126e+05 1.086185e+05        0
1.086185e+05 -2.887696e+04        0
       0        0        0

-7.087801e+05 8.947891e+04        0
8.947891e+04 -2.892824e+04        0
       0        0        0

-9.805709e+05 6.083975e+04        0
6.083975e+04 -2.903784e+04        0
       0        0        0

-1.252330e+06 2.270369e+04        0
2.270369e+04 -2.916302e+04        0
       0        0        0

1.148491e+06 2.274763e+04        0
2.274763e+04 -3.361527e+04        0
       0        0        0

8.858087e+05 6.093851e+04        0
6.093851e+04 -3.344415e+04        0
       0        0        0

6.231974e+05 8.957285e+04        0
8.957285e+04 -3.331675e+04        0
       0        0        0

3.606384e+05 1.086618e+05        0
1.086618e+05 -3.322145e+04        0
       0        0        0

9.811734e+04 1.181997e+05        0
1.181997e+05 -3.315416e+04        0
       0        0        0

-1.643651e+05 1.181796e+05        0
1.181796e+05 -3.312513e+04        0
       0        0        0

-4.268000e+05 1.086064e+05        0
1.086064e+05 -3.315081e+04        0
       0        0        0

-6.891844e+05 8.949683e+04        0
8.949683e+04 -3.323922e+04        0
       0        0        0

-9.515284e+05 6.086628e+04        0
6.086628e+04 -3.338182e+04        0
       0        0        0

-1.213844e+06 2.271337e+04        0
2.271337e+04 -3.356049e+04        0
       0        0        0

1.100960e+06 2.274841e+04        0
2.274841e+04 -3.812278e+04        0
       0        0        0

8.479289e+05 6.094460e+04        0
6.094460e+04 -3.787019e+04        0
       0        0        0

5.949322e+05 8.957763e+04        0
8.957763e+04 -3.767803e+04        0
       0        0        0

3.419635e+05 1.086573e+05        0
1.086573e+05 -3.754494e+04        0
       0        0        0

8.901558e+04 1.181867e+05        0
1.181867e+05 -3.747027e+04        0
       0        0        0

-1.639143e+05 1.181674e+05        0
1.181674e+05 -3.745768e+04        0
       0        0        0

-4.168253e+05 1.086039e+05        0
1.086039e+05 -3.751247e+04        0
       0        0        0

-6.697180e+05 8.950437e+04        0
8.950437e+04 -3.763608e+04        0
       0        0        0

-9.225952e+05 6.087498e+04        0
6.087498e+04 -3.782343e+04        0
       0        0        0

-1.175457e+06 2.271540e+04        0
2.271540e+04 -3.806658e+04        0
       0        0        0

1.053347e+06 2.274703e+04        0
2.274703e+04 -4.271421e+04        0
       0        0        0

8.099626e+05 6.094429e+04        0
6.094429e+04 -4.238866e+04        0
       0        0        0

5.665832e+05 8.957803e+04        0
8.957803e+04 -4.214000e+04        0
       0        0        0

3.232060e+05 1.086560e+05        0
1.086560e+05 -4.197068e+04        0
       0        0        0

7.982720e+04 1.181835e+05        0
1.181835e+05 -4.188171e+04        0
       0        0        0

-1.635563e+05 1.181649e+05        0
1.181649e+05 -4.187447e+04        0
       0        0        0

-4.069457e+05 1.086046e+05        0
1.086046e+05 -4.195008e+04        0
       0        0        0

-6.503417e+05 8.950753e+04        0
8.950753e+04 -4.210767e+04        0
       0        0        0

-8.937439e+05 6.087730e+04        0
6.087730e+04 -4.234382e+04        0
       0        0        0

-1.137148e+06 2.271526e+04        0
2.271526e+04 -4.265429e+04        0
       0        0        0

1.005683e+06 2.274539e+04        0
2.274539e+04 -4.736038e+04        0
       0        0        0

7.719394e+05 6.094219e+04        0
6.094219e+04 -4.696667e+04        0
       0        0        0

5.381756e+05 8.957681e+04        0
8.957681e+04 -4.666608e+04        0
       0        0        0

3.043894e+05 1.086553e+05        0
1.086553e+05 -4.646219e+04        0
       0        0        0

7.057816e+04 1.181832e+05        0
1.181832e+05 -4.635676e+04        0
       0        0        0

-1.632605e+05 1.181653e+05        0
1.181653e+05 -4.635059e+04        0
       0        0        0

-3.971279e+05 1.086060e+05        0
1.086060e+05 -4.644347e+04        0
       0        0        0

-6.310240e+05 8.950907e+04        0
8.950907e+04 -4.663394e+04        0
       0        0        0

-8.649473e+05 6.087783e+04        0
6.087783e+04 -4.691930e+04        0
       0        0        0

-1.098893e+06 2.271487e+04        0
2.271487e+04 -4.729637e+04        0
       0        0        0

9.579955e+05 2.274400e+04        0
2.274400e+04 -5.203381e+04        0
       0        0        0

7.338873e+05 6.093989e+04        0
6.093989e+04 -5.157525e+04        0
       0        0        0

5.097360e+05 8.957509e+04        0
8.957509e+04 -5.122566e+04        0
       0        0        0

2.855393e+05 1.086546e+05        0
1.086546e+05 -5.098880e+04        0
       0        0        0

6.129495e+04 1.181835e+05        0
1.181835e+05 -5.086676e+04        0
       0        0        0

-1.629989e+05 1.181663e+05        0
1.181663e+05 -5.086025e+04        0
       0        0        0

-3.873432e+05 1.086073e+05        0
1.086073e+05 -5.096887e+04        0
       0        0        0

-6.117373e+05 8.951012e+04        0
8.951012e+04 -5.119109e+04        0
       0        0        0

-8.361792e+05 6.087815e+04        0
6.087815e+04 -5.152449e+04        0
       0        0        0

-1.060664e+06 2.271473e+04        0
2.271473e+04 -5.196605e+04        0
       0        0        0

9.103102e+05 2.274290e+04        0
2.274290e+04 -5.670829e+04        0
       0        0        0

6.958327e+05 6.093781e+04        0
6.093781e+04 -5.618769e+04        0
       0        0        0

4.812907e+05 8.957328e+04        0
8.957328e+04 -5.579141e+04        0
       0        0        0

2.666818e+05 1.086537e+05        0
1.086537e+05 -5.552312e+04        0
       0        0        0

5.200354e+04 1.181835e+05        0
1.181835e+05 -5.538500e+04        0
       0        0        0

-1.627453e+05 1.181671e+05        0
1.181671e+05 -5.537790e+04        0
       0        0        0

-3.775653e+05 1.086084e+05        0
1.086084e+05 -5.550145e+04        0
       0        0        0

-5.924555e+05 8.951107e+04        0
8.951107e+04 -5.575422e+04        0
       0        0        0

-8.074137e+05 6.087870e+04        0
6.087870e+04 -5.613390e+04        0
       0        0        0

-1.022436e+06 2.271487e+04        0
2.271487e+04 -5.663736e+04        0
       0        0        0

8.626520e+05 2.274198e+04        0
2.274198e+04 -6.135878e+04        0
       0        0        0

6.578008e+05 6.093596e+04        0
6.093596e+04 -6.077882e+04        0
       0        0        0

4.528650e+05 8.957151e+04        0
8.957151e+04 -6.033796e+04        0
       0        0        0

2.478418e+05 1.086526e+05        0
1.086526e+05 -6.003971e+04        0
       0        0        0

4.272898e+04 1.181833e+05        0
1.181833e+05 -5.988630e+04        0
       0        0        0

-1.624747e+05 1.181676e+05        0
1.181676e+05 -5.987867e+04        0
       0        0        0

-3.677693e+05 1.086093e+05        0
1.086093e+05 -6.001657e+04        0
       0        0        0

-5.731539e+05 8.951207e+04        0
8.951207e+04 -6.029867e+04        0
       0        0        0

-7.786261e+05 6.087948e+04        0
6.087948e+04 -6.072267e+04        0
       0        0        0

-9.841820e+05 2.271520e+04        0
2.271520e+04 -6.128530e+04        0
       0        0        0

8.150447e+05 2.274119e+04        0
2.274119e+04 -6.596136e+04        0
       0        0        0

6.198157e+05 6.093429e+04        0
6.093429e+04 -6.532473e+04        0
       0        0        0

4.244830e+05 8.956979e+04        0
8.956979e+04 -6.484132e+04        0
       0        0        0

2.290436e+05 1.086514e+05        0
1.086514e+05 -6.451456e+04        0
       0        0        0

3.349528e+04 1.181828e+05        0
1.181828e+05 -6.434667e+04        0
       0        0        0

-1.621631e+05 1.181678e+05        0
1.181678e+05 -6.433865e+04        0
       0        0        0

-3.579315e+05 1.086101e+05        0
1.086101e+05 -6.449036e+04        0
       0        0        0

-5.538088e+05 8.951311e+04        0
8.951311e+04 -6.480053e+04        0
       0        0        0

-7.497925e+05 6.088044e+04        0
6.088044e+04 -6.526685e+04        0
       0        0        0

-9.458791e+05 2.271565e+04        0
2.271565e+04 -6.588596e+04        0
       0        0        0

7.675109e+05 2.274046e+04        0
2.274046e+04 -7.049319e+04        0
       0        0        0

5.819002e+05 6.093273e+04        0
6.093273e+04 -6.980260e+04        0
       0        0        0

3.961677e+05 8.956811e+04        0
8.956811e+04 -6.927871e+04        0
       0        0        0

2.103102e+05 1.086501e+05        0
1.086501e+05 -6.892486e+04        0
       0        0        0

2.432535e+04 1.181822e+05        0
1.181822e+05 -6.874327e+04        0
       0        0        0

-1.617878e+05 1.181679e+05        0
1.181679e+05 -6.873499e+04        0
       0        0        0

-3.480290e+05 1.086108e+05        0
1.086108e+05 -6.889994e+04        0
       0        0        0

-5.343973e+05 8.951420e+04        0
8.951420e+04 -6.923690e+04        0
       0        0        0

-7.208902e+05 6.088150e+04        0
6.088150e+04 -6.974357e+04        0
       0        0        0

-9.075041e+05 2.271617e+04        0
2.271617e+04 -7.041649e+04        0
       0        0        0

7.200723e+05 2.273978e+04        0
2.273978e+04 -7.493250e+04        0
       0        0        0

5.440762e+05 6.093125e+04        0
6.093125e+04 -7.419071e+04        0
       0        0        0

3.679410e+05 8.956648e+04        0
8.956648e+04 -7.362841e+04        0
       0        0        0

1.916633e+05 1.086488e+05        0
1.086488e+05 -7.324890e+04        0
       0        0        0

1.524098e+04 1.181815e+05        0
1.181815e+05 -7.305436e+04        0
       0        0        0

-1.613270e+05 1.181680e+05        0
1.181680e+05 -7.304590e+04        0
       0        0        0

-3.380404e+05 1.086115e+05        0
1.086115e+05 -7.322350e+04        0
       0        0        0

-5.148979e+05 8.951534e+04        0
8.951534e+04 -7.358598e+04        0
       0        0        0

-6.918973e+05 6.088266e+04        0
6.088266e+04 -7.413102e+04        0
       0        0        0

-8.690351e+05 2.271674e+04        0
2.271674e+04 -7.485511e+04        0
       0        0        0

6.727496e+05 2.273915e+04        0
2.273915e+04 -7.925864e+04        0
       0        0        0

5.063643e+05 6.092987e+04        0
6.092987e+04 -7.846843e+04        0
       0        0        0

3.398235e+05 8.956489e+04        0
8.956489e+04 -7.786983e+04        0
       0        0        0

1.731238e+05 1.086474e+05        0
1.086474e+05 -7.746605e+04        0
       0        0        0

6.262877e+03 1.181806e+05        0
1.181806e+05 -7.725929e+04        0
       0        0        0

-1.607601e+05 1.181679e+05        0
1.181679e+05 -7.725069e+04        0
       0        0        0

-3.279448e+05 1.086122e+05        0
1.086122e+05 -7.744030e+04        0
       0        0        0

-4.952900e+05 8.951651e+04        0
8.951651e+04 -7.782702e+04        0
       0        0        0

-6.627933e+05 6.088390e+04        0
6.088390e+04 -7.840849e+04        0
       0        0        0

-8.304513e+05 2.271735e+04        0
2.271735e+04 -7.918116e+04        0
       0        0        0

6.255623e+05 2.273860e+04        0
2.273860e+04 -8.345203e+04        0
       0        0        0

4.687842e+05 6.092860e+04        0
6.092860e+04 -8.261622e+04        0
       0        0        0

3.118350e+05 8.956335e+04        0
8.956335e+04 -8.198343e+04        0
       0        0        0

1.547113e+05 1.086460e+05        0
1.086460e+05 -8.155679e+04        0
       0        0        0

-2.589335e+03 1.181797e+05        0
1.181797e+05 -8.133849e+04        0
       0        0        0

-1.600676e+05 1.181676e+05        0
1.181676e+05 -8.132976e+04        0
       0        0        0

-3.177230e+05 1.086127e+05        0
1.086127e+05 -8.153074e+04        0
       0        0        0

-4.755541e+05 8.951773e+04        0
8.951773e+04 -8.194038e+04        0
       0        0        0

-6.335585e+05 6.088526e+04        0
6.088526e+04 -8.255636e+04        0
       0        0        0

-7.917332e+05 2.271804e+04        0
2.271804e+04 -8.337502e+04        0
       0        0        0

5.785286e+05 2.273817e+04        0
2.273817e+04 -8.749419e+04        0
       0        0        0

4.313542e+05 6.092752e+04        0
6.092752e+04 -8.661559e+04        0
       0        0        0

2.839942e+05 8.956185e+04        0
8.956185e+04 -8.595073e+04        0
       0        0        0

1.364444e+05 1.086444e+05        0
1.086444e+05 -8.550260e+04        0
       0        0        0

-1.129712e+04 1.181785e+05        0
1.181785e+05 -8.527347e+04        0
       0        0        0

-1.592310e+05 1.181672e+05        0
1.181672e+05 -8.526463e+04        0
       0        0        0

-3.073564e+05 1.086132e+05        0
1.086132e+05 -8.547630e+04        0
       0        0        0

-4.556717e+05 8.951900e+04        0
8.951900e+04 -8.590755e+04        0
       0        0        0

-6.041745e+05 6.088680e+04        0
6.088680e+04 -8.655610e+04        0
       0        0        0

-7.528620e+05 2.271886e+04        0
2.271886e+04 -8.741820e+04        0
       0        0        0

5.316658e+05 2.273795e+04        0
2.273795e+04 -9.136769e+04        0
       0        0        0

3.940921e+05 6.092663e+04        0
6.092663e+04 -9.044910e+04        0
       0        0        0

2.563184e+05 8.956035e+04        0
8.956035e+04 -8.975417e+04        0
       0        0        0

1.183407e+05 1.086427e+05        0
1.086427e+05 -8.928591e+04        0
       0        0        0

-1.984304e+04 1.181771e+05        0
1.181771e+05 -8.904674e+04        0
       0        0        0

-1.582329e+05 1.181665e+05        0
1.181665e+05 -8.903797e+04        0
       0        0        0

-2.968278e+05 1.086135e+05        0
1.086135e+05 -8.925978e+04        0
       0        0        0

-4.356257e+05 8.952026e+04        0
8.952026e+04 -8.971126e+04        0
       0        0        0

-5.746240e+05 6.088854e+04        0
6.088854e+04 -9.039033e+04        0
       0        0        0

-7.138200e+05 2.271989e+04        0
2.271989e+04 -9.129326e+04        0
       0        0        0

4.849900e+05 2.273796e+04        0
2.273796e+04 -9.505616e+04        0
       0        0        0

3.570143e+05 6.092577e+04        0
6.092577e+04 -9.410012e+04        0
       0        0        0

2.288244e+05 8.955862e+04        0
8.955862e+04 -9.337680e+04        0
       0        0        0

1.004164e+05 1.086409e+05        0
1.086409e+05 -9.288973e+04        0
       0        0        0

-2.821085e+04 1.181759e+05        0
1.181759e+05 -9.264170e+04        0
       0        0        0

-1.570570e+05 1.181660e+05        0
1.181660e+05 -9.263379e+04        0
       0        0        0

-2.861209e+05 1.086137e+05        0
1.086137e+05 -9.286555e+04        0
       0        0        0

-4.153999e+05 8.952130e+04        0
8.952130e+04 -9.333583e+04        0
       0        0        0

-5.448908e+05 6.089031e+04        0
6.089031e+04 -9.404299e+04        0
       0        0        0

-6.745908e+05 2.272114e+04        0
2.272114e+04 -9.498388e+04        0
       0        0        0

4.385165e+05 2.273798e+04        0
2.273798e+04 -9.854413e+04        0
       0        0        0

3.201365e+05 6.092413e+04        0
6.092413e+04 -9.755242e+04        0
       0        0        0

2.015270e+05 8.955604e+04        0
8.955604e+04 -9.680154e+04        0
       0        0        0

8.268605e+04 1.086393e+05        0
1.086393e+05 -9.629692e+04        0
       0        0        0

-3.638571e+04 1.181760e+05        0
1.181760e+05 -9.604234e+04        0
       0        0        0

-1.556878e+05 1.181669e+05        0
1.181669e+05 -9.603769e+04        0
       0        0        0

-2.752198e+05 1.086142e+05        0
1.086142e+05 -9.628031e+04        0
       0        0        0

-3.949789e+05 8.952149e+04        0
8.952149e+04 -9.676788e+04        0
       0        0        0

-5.149602e+05 6.089129e+04        0
6.089129e+04 -9.749980e+04        0
       0        0        0

-6.351590e+05 2.272241e+04        0
2.272241e+04 -9.847493e+04        0
       0        0        0

3.922608e+05 2.273705e+04        0
2.273705e+04 -1.018168e+05        0
       0        0        0

2.834737e+05 6.091918e+04        0
6.091918e+04 -1.007892e+05        0
       0        0        0

1.744389e+05 8.955103e+04        0
8.955103e+04 -1.000095e+05        0
       0        0        0

6.516112e+04 1.086394e+05        0
1.086394e+05 -9.948864e+04        0
       0        0        0

-4.435479e+04 1.181814e+05        0
1.181814e+05 -9.923256e+04        0
       0        0        0

-1.541098e+05 1.181730e+05        0
1.181730e+05 -9.923756e+04        0
       0        0        0

-2.641076e+05 1.086162e+05        0
1.086162e+05 -9.949472e+04        0
       0        0        0

-3.743470e+05 8.951924e+04        0
8.951924e+04 -9.999808e+04        0
       0        0        0

-4.848186e+05 6.088897e+04        0
6.088897e+04 -1.007491e+05        0
       0        0        0

-5.955116e+05 2.272272e+04        0
2.272272e+04 -1.017526e+05        0
       0        0        0

3.462408e+05 2.273213e+04        0
2.273213e+04 -1.048596e+05        0
       0        0        0

2.470402e+05 6.090435e+04        0
6.090435e+04 -1.037913e+05        0
       0        0        0

1.475679e+05 8.953998e+04        0
8.953998e+04 -1.029768e+05        0
       0        0        0

4.784706e+04 1.086446e+05        0
1.086446e+05 -1.024414e+05        0
       0        0        0

-5.210859e+04 1.182015e+05        0
1.182015e+05 -1.021950e+05        0
       0        0        0

-1.523066e+05 1.181938e+05        0
1.181938e+05 -1.022248e+05        0
       0        0        0

-2.527641e+05 1.086235e+05        0
1.086235e+05 -1.025064e+05        0
       0        0        0

-3.534861e+05 8.951095e+04        0
8.951095e+04 -1.030243e+05        0
       0        0        0

-4.544544e+05 6.087677e+04        0
6.087677e+04 -1.037842e+05        0
       0        0        0

-5.556397e+05 2.271905e+04        0
2.271905e+04 -1.048050e+05        0
       0        0        0

3.004822e+05 2.271539e+04        0
2.271539e+04 -1.076574e+05        0
       0        0        0

2.108493e+05 6.086437e+04        0
6.086437e+04 -1.065333e+05        0
       0        0        0

1.209111e+05 8.951546e+04        0
8.951546e+04 -1.056691e+05        0
       0        0        0

3.073692e+04 1.086641e+05        0
1.086641e+05 -1.051219e+05        0
       0        0        0

-5.964355e+04 1.182578e+05        0
1.182578e+05 -1.049091e+05        0
       0        0        0

-1.502580e+05 1.182508e+05        0
1.182508e+05 -1.049962e+05        0
       0        0        0

-2.411586e+05 1.086450e+05        0
1.086450e+05 -1.053249e+05        0
       0        0        0

-3.323700e+05 8.948920e+04        0
8.948920e+04 -1.058577e+05        0
       0        0        0

-4.238570e+05 6.083943e+04        0
6.083943e+04 -1.066065e+05        0
       0        0        0

-5.155449e+05 2.270357e+04        0
2.270357e+04 -1.076228e+05        0
       0        0        0

2.550302e+05 2.266861e+04        0
2.266861e+04 -1.101928e+05        0
       0        0        0

1.749112e+05 6.076689e+04        0
6.076689e+04 -1.089786e+05        0
       0        0        0

9.444394e+04 8.946363e+04        0
8.946363e+04 -1.080333e+05        0
       0        0        0

1.379929e+04 1.087177e+05        0
1.087177e+05 -1.074804e+05        0
       0        0        0

-6.696699e+04 1.183950e+05        0
1.183950e+05 -1.073481e+05        0
       0        0        0

-1.479345e+05 1.183887e+05        0
1.183887e+05 -1.075565e+05        0
       0        0        0

-2.292386e+05 1.087005e+05        0
1.087005e+05 -1.079789e+05        0
       0        0        0

-3.109536e+05 8.944014e+04        0
8.944014e+04 -1.085307e+05        0
       0        0        0

-3.930164e+05 6.074460e+04        0
6.074460e+04 -1.092323e+05        0
       0        0        0

-4.752498e+05 2.265805e+04        0
2.265805e+04 -1.102010e+05        0
       0        0        0

2.099707e+05 2.255312e+04        0
2.255312e+04 -1.124452e+05        0
       0        0        0

1.392276e+05 6.054966e+04        0
6.054966e+04 -1.110720e+05        0
       0        0        0

6.809782e+04 8.936202e+04        0
8.936202e+04 -1.099896e+05        0
       0        0        0

-3.042205e+03 1.088455e+05        0
1.088455e+05 -1.094456e+05        0
       0        0        0

-7.410476e+04 1.186961e+05        0
1.186961e+05 -1.094775e+05        0
       0        0        0

-1.452897e+05 1.186906e+05        0
1.186906e+05 -1.099193e+05        0
       0        0        0

-2.169086e+05 1.088304e+05        0
1.088304e+05 -1.105207e+05        0
       0        0        0

-2.891518e+05 8.934130e+04        0
8.934130e+04 -1.111065e+05        0
       0        0        0

-3.619182e+05 6.053006e+04        0
6.053006e+04 -1.117009e+05        0
       0        0        0

-4.348222e+05 2.254384e+04        0
2.254384e+04 -1.125421e+05        0
       0        0        0

1.654676e+05 2.229389e+04        0
2.229389e+04 -1.143894e+05        0
       0        0        0

1.037757e+05 6.010634e+04        0
6.010634e+04 -1.127378e+05        0
       0        0        0

4.172434e+04 8.918285e+04        0
8.918285e+04 -1.114369e+05        0
       0        0        0

-1.993674e+04 1.091211e+05        0
1.091211e+05 -1.109352e+05        0
       0        0        0

-8.111029e+04 1.192969e+05        0
1.192969e+05 -1.112604e+05        0
       0        0        0

-1.422485e+05 1.192922e+05        0
1.192922e+05 -1.121001e+05        0
       0        0        0

-2.040019e+05 1.091080e+05        0
1.091080e+05 -1.130150e+05        0
       0        0        0

-2.668047e+05 8.916493e+04        0
8.916493e+04 -1.136749e+05        0
       0        0        0

-3.305323e+05 6.008944e+04        0
6.008944e+04 -1.140806e+05        0
       0        0        0

-3.944153e+05 2.228592e+04        0
2.228592e+04 -1.146607e+05        0
       0        0        0

1.218143e+05 2.175987e+04        0
2.175987e+04 -1.160001e+05        0
       0        0        0

6.846990e+04 5.928775e+04        0
5.928775e+04 -1.139016e+05        0
       0        0        0

1.504776e+04 8.891653e+04        0
8.891653e+04 -1.123083e+05        0
       0        0        0

-3.712658e+04 1.096611e+05        0
1.096611e+05 -1.119237e+05        0
       0        0        0

-8.806576e+04 1.203706e+05        0
1.203706e+05 -1.126850e+05        0
       0        0        0

-1.387020e+05 1.203666e+05        0
1.203666e+05 -1.140839e+05        0
       0        0        0

-1.902583e+05 1.096500e+05        0
1.096500e+05 -1.154692e+05        0
       0        0        0

-2.436324e+05 8.890144e+04        0
8.890144e+04 -1.162985e+05        0
       0        0        0

-2.987810e+05 5.927361e+04        0
5.927361e+04 -1.164537e+05        0
       0        0        0

-3.543298e+05 2.175326e+04        0
2.175326e+04 -1.165894e+05        0
       0        0        0

7.947515e+04 2.075678e+04        0
2.075678e+04 -1.172821e+05        0
       0        0        0

3.307865e+04 5.797447e+04        0
5.797447e+04 -1.145899e+05        0
       0        0        0

-1.236394e+04 8.865059e+04        0
8.865059e+04 -1.127886e+05        0
       0        0        0

-5.490063e+04 1.106013e+05        0
1.106013e+05 -1.126577e+05        0
       0        0        0

-9.504947e+04 1.220074e+05        0
1.220074e+05 -1.138552e+05        0
       0        0        0

-1.345317e+05 1.220041e+05        0
1.220041e+05 -1.157267e+05        0
       0        0        0

-1.753639e+05 1.105923e+05        0
1.105923e+05 -1.176118e+05        0
       0        0        0

-2.192067e+05 8.863840e+04        0
8.863840e+04 -1.187962e+05        0
       0        0        0

-2.664684e+05 5.796312e+04        0
5.796312e+04 -1.188293e+05        0
       0        0        0

-3.150783e+05 2.075156e+04        0
2.075156e+04 -1.183719e+05        0
       0        0        0

3.901603e+04 1.910250e+04        0
1.910250e+04 -1.183311e+05        0
       0        0        0

-2.945805e+03 5.638064e+04        0
5.638064e+04 -1.153385e+05        0
       0        0        0

-4.097162e+04 8.874194e+04        0
8.874194e+04 -1.139163e+05        0
       0        0        0

-7.334317e+04 1.119428e+05        0
1.119428e+05 -1.141993e+05        0
       0        0        0

-1.020044e+05 1.238170e+05        0
1.238170e+05 -1.151847e+05        0
       0        0        0

-1.297257e+05 1.238146e+05        0
1.238146e+05 -1.165458e+05        0
       0        0        0

-1.591896e+05 1.119363e+05        0
1.119363e+05 -1.183359e+05        0
       0        0        0

-1.930733e+05 8.873286e+04        0
8.873286e+04 -1.201362e+05        0
       0        0        0

-2.331278e+05 5.637209e+04        0
5.637209e+04 -1.207525e+05        0
       0        0        0

-2.773664e+05 1.909865e+04        0
1.909865e+04 -1.200521e+05        0
       0        0        0

5.231833e+02 1.710271e+04        0
1.710271e+04 -1.199683e+05        0
       0        0        0

-4.055901e+04 5.592265e+04        0
5.592265e+04 -1.183223e+05        0
       0        0        0

-7.064224e+04 9.001307e+04        0
9.001307e+04 -1.192608e+05        0
       0        0        0

-9.160226e+04 1.128998e+05        0
1.128998e+05 -1.193451e+05        0
       0        0        0

-1.084793e+05 1.240404e+05        0
1.240404e+05 -1.176209e+05        0
       0        0        0

-1.246149e+05 1.240392e+05        0
1.240392e+05 -1.154735e+05        0
       0        0        0

-1.424954e+05 1.128964e+05        0
1.128964e+05 -1.147534e+05        0
       0        0        0

-1.653497e+05 9.000769e+04        0
9.000769e+04 -1.167341e+05        0
       0        0        0

-1.979384e+05 5.591692e+04        0
5.591692e+04 -1.201833e+05        0
       0        0        0

-2.416132e+05 1.710010e+04        0
1.710010e+04 -1.211410e+05        0
       0        0        0

-3.838756e+04 1.780089e+04        0
1.780089e+04 -1.241547e+05        0
       0        0        0

-8.056431e+04 6.133461e+04        0
6.133461e+04 -1.329179e+05        0
       0        0        0

-9.823378e+04 9.241439e+04        0
9.241439e+04 -1.376493e+05        0
       0        0        0

-1.069299e+05 1.101518e+05        0
1.101518e+05 -1.330247e+05        0
       0        0        0

-1.134903e+05 1.182691e+05        0
1.182691e+05 -1.226657e+05        0
       0        0        0

-1.199857e+05 1.182695e+05        0
1.182695e+05 -1.108102e+05        0
       0        0        0

-1.278480e+05 1.101525e+05        0
1.101525e+05 -1.017531e+05        0
       0        0        0

-1.390687e+05 9.241419e+04        0
9.241419e+04 -9.965329e+04        0
       0        0        0

-1.602170e+05 6.133242e+04        0
6.133242e+04 -1.078653e+05        0
       0        0        0

-2.060740e+05 1.779909e+04        0
1.779909e+04 -1.203165e+05        0
       0        0        0

-9.041228e+04 4.054631e+04        0
4.054631e+04 -1.562833e+05        0
       0        0        0

-1.138421e+05 7.593486e+04        0
7.593486e+04 -1.858539e+05        0
       0        0        0

-1.150718e+05 8.920336e+04        0
8.920336e+04 -1.817339e+05        0
       0        0        0

-1.153875e+05 9.571255e+04        0
9.571255e+04 -1.608397e+05        0
       0        0        0

-1.157489e+05 9.856239e+04        0
9.856239e+04 -1.317915e+05        0
       0        0        0

-1.168366e+05 9.856429e+04        0
9.856429e+04 -1.007938e+05        0
       0        0        0

-1.188659e+05 9.571771e+04        0
9.571771e+04 -7.341101e+04        0
       0        0        0

-1.225609e+05 8.921016e+04        0
8.921016e+04 -5.589329e+04        0
       0        0        0

-1.289065e+05 7.594047e+04        0
7.594047e+04 -5.688864e+04        0
       0        0        0

-1.586523e+05 4.054609e+04        0
4.054609e+04 -9.278139e+04        0
       0        0        0

POINT_DATA     451
VECTORS DISPLACEMENT_5.200000e-01 double
0.000000e+00    0.000000e+00    0.000000e+00
0.000000e+00    0.000000e+00    0.000000e+00
0.000000e+00    0.000000e+00    0.000000e+00
0.000000e+00    0.000000e+00    0.000000e+00
0.000000e+00    0.000000e+00    0.000000e+00
0.000000e+00    0.000000e+00    0.000000e+00
0.000000e+00    0.000000e+00    0.000000e+00
0.000000e+00    0.000000e+00    0.000000e+00
0.000000e+00    0.000000e+00    0.000000e+00
0.000000e+00    0.000000e+00    0.000000e+00
0.000000e+00    0.000000e+00    0.000000e+00
-1.141595e-06    -8.299605e-07    0.000000e+00
-7.233448e-07    -4.163094e-07    0.000000e+00
-5.161144e-07    -2.157261e-07    0.000000e+00
-3.332233e-07    -1.068318e-07    0.000000e+00
-1.642863e-07    -5.047426e-08    0.000000e+00
-3.707288e-20    -3.295145e-08    0.000000e+00
1.642863e-07    -5.047426e-08    0.000000e+00
3.332233e-07    -1.068318e-07    0.000000e+00
5.161144e-07    -2.157261e-07    0.000000e+00
7.233448e-07    -4.163094e-07    0.000000e+00
1.141595e-06    -8.299605e-07    0.000000e+00
-2.153941e-06    -1.380309e-06    0.000000e+00
-1.574436e-06    -9.987668e-07    0.000000e+00
-1.105093e-06    -7.015532e-07    0.000000e+00
-7.128292e-07    -5.177059e-07    0.000000e+00
-3.501023e-07    -4.175298e-07    0.000000e+00
-7.821241e-20    -3.857103e-07    0.000000e+00
3.501023e-07    -4.175298e-07    0.000000e+00
7.128292e-07    -5.177059e-07    0.000000e+00
1.105093e-06    -7.015532e-07    0.000000e+00
1.574436e-06    -9.987668e-07    0.000000e+00
2.153941e-06    -1.380309e-06    0.000000e+00
-3.132427e-06    -2.064634e-06    0.000000e+00
-2.394168e-06    -1.682257e-06    0.000000e+00
-1.722702e-06    -1.380761e-06    0.000000e+00
-1.115240e-06    -1.168096e-06    0.000000e+00
-5.487490e-07    -1.045521e-06    0.000000e+00
-1.230779e-19    -1.005593e-06    0.000000e+00
5.487490e-07    -1.045521e-06    0.000000e+00
1.115240e-06    -1.168096e-06    0.000000e+00
1.722702e-06    -1.380761e-06    0.000000e+00
2.394168e-06    -1.682257e-06    0.000000e+00
3.132427e-06    -2.064634e-06    0.000000e+00
-4.100076e-06    -2.909172e-06    0.000000e+00
-3.186876e-06    -2.535522e-06    0.000000e+00
-2.326958e-06    -2.239053e-06    0.000000e+00
-1.519408e-06    -2.025105e-06    0.000000e+00
-7.500557e-07    -1.896684e-06    0.000000e+00
-1.696713e-19    -1.854101e-06    0.000000e+00
7.500557e-07    -1.896684e-06    0.000000e+00
1.519408e-06    -2.025105e-06    0.000000e+00
2.326958e-06    -2.239053e-06    0.000000e+00
3.186876e-06    -2.535522e-06    0.000000e+00
4.100076e-06    -2.909172e-06    0.000000e+00
-5.051341e-06    -3.936654e-06    0.000000e+00
-3.956477e-06    -3.571725e-06    0.000000e+00
-2.911986e-06    -3.284208e-06    0.000000e+00
-1.912865e-06    -3.075889e-06    0.000000e+00
-9.475500e-07    -2.949778e-06    0.000000e+00
-2.175948e-19    -2.907564e-06    0.000000e+00
9.475500e-07    -2.949778e-06    0.000000e+00
1.912865e-06    -3.075889e-06    0.000000e+00
2.911986e-06    -3.284208e-06    0.000000e+00
3.956477e-06    -3.571725e-06    0.000000e+00
5.051341e-06    -3.936654e-06    0.000000e+00
-5.981873e-06    -5.149742e-06    0.000000e+00
-4.704513e-06    -4.794468e-06    0.000000e+00
-3.477740e-06    -4.516043e-06    0.000000e+00
-2.292922e-06    -4.315096e-06    0.000000e+00
-1.138484e-06    -4.193469e-06    0.000000e+00
-2.664845e-19    -4.152740e-06    0.000000e+00
1.138484e-06    -4.193469e-06    0.000000e+00
2.292922e-06    -4.315096e-06    0.000000e+00
3.477740e-06    -4.516043e-06    0.000000e+00
4.704513e-06    -4.794468e-06    0.000000e+00
5.981873e-06    -5.149742e-06    0.000000e+00
-6.888558e-06    -6.546376e-06    0.000000e+00
-5.431254e-06    -6.201154e-06    0.000000e+00
-4.025294e-06    -5.931590e-06    0.000000e+00
-2.659769e-06    -5.737829e-06    0.000000e+00
-1.322562e-06    -5.620886e-06    0.000000e+00
-3.133757e-19    -5.581770e-06    0.000000e+00
1.322562e-06    -5.620886e-06    0.000000e+00
2.659769e-06    -5.737829e-06    0.000000e+00
4.025294e-06    -5.931590e-06    0.000000e+00
5.431254e-06    -6.201154e-06    0.000000e+00
6.888558e-06    -6.546376e-06    0.000000e+00
-7.769676e-06    -8.122139e-06    0.000000e+00
-6.136609e-06    -7.787205e-06    0.000000e+00
-4.555509e-06    -7.526210e-06    0.000000e+00
-3.014226e-06    -7.339157e-06    0.000000e+00
-1.500173e-06    -7.226543e-06    0.000000e+00
-3.585861e-19    -7.188928e-06    0.000000e+00
1.500173e-06    -7.226543e-06    0.000000e+00
3.014226e-06    -7.339157e-06    0.000000e+00
4.555509e-06    -7.526210e-06    0.000000e+00
6.136609e-06    -7.787205e-06    0.000000e+00
7.769676e-06    -8.122139e-06    0.000000e+00
-8.624338e-06    -9.871838e-06    0.000000e+00
-6.820449e-06    -9.547301e-06    0.000000e+00
-5.068913e-06    -9.294676e-06    0.000000e+00
-3.356973e-06    -9.113935e-06    0.000000e+00
-1.671744e-06    -9.005300e-06    0.000000e+00
-4.058611e-19    -8.969049e-06    0.000000e+00
1.671744e-06    -9.005300e-06    0.000000e+00
3.356973e-06    -9.113935e-06    0.000000e+00
5.068913e-06    -9.294676e-06    0.000000e+00
6.820449e-06    -9.547301e-06    0.000000e+00
8.624338e-06    -9.871838e-06    0.000000e+00
-9.452129e-06    -1.179002e-05    0.000000e+00
-7.482678e-06    -1.147593e-05    0.000000e+00
-5.565791e-06    -1.123156e-05    0.000000e+00
-3.688437e-06    -1.105688e-05    0.000000e+00
-1.837569e-06    -1.095199e-05    0.000000e+00
-4.545391e-19    -1.091701e-05    0.000000e+00
1.837569e-06    -1.095199e-05    0.000000e+00
3.688437e-06    -1.105688e-05    0.000000e+00
5.565791e-06    -1.123156e-05    0.000000e+00
7.482678e-06    -1.147593e-05    0.000000e+00
9.452129e-06    -1.179002e-05    0.000000e+00
-1.025287e-05    -1.387120e-05    0.000000e+00
-8.123242e-06    -1.356758e-05    0.000000e+00
-6.046283e-06    -1.333140e-05    0.000000e+00
-4.008850e-06    -1.316265e-05    0.000000e+00
-1.997814e-06    -1.306137e-05    0.000000e+00
-4.957260e-19    -1.302760e-05    0.000000e+00
1.997814e-06    -1.306137e-05    0.000000e+00
4.008850e-06    -1.316265e-05    0.000000e+00
6.046283e-06    -1.333140e-05    0.000000e+00
8.123242e-06    -1.356758e-05    0.000000e+00
1.025287e-05    -1.387120e-05    0.000000e+00
-1.102648e-05    -1.610989e-05    0.000000e+00
-8.742113e-06    -1.581673e-05    0.000000e+00
-6.510452e-06    -1.558872e-05    0.000000e+00
-4.318325e-06    -1.542583e-05    0.000000e+00
-2.152566e-06    -1.532809e-05    0.000000e+00
-5.391894e-19    -1.529550e-05    0.000000e+00
2.152566e-06    -1.532809e-05    0.000000e+00
4.318325e-06    -1.542583e-05    0.000000e+00
6.510452e-06    -1.558872e-05    0.000000e+00
8.742113e-06    -1.581673e-05    0.000000e+00
1.102648e-05    -1.610989e-05    0.000000e+00
-1.177296e-05    -1.850062e-05    0.000000e+00
-9.339276e-06    -1.821793e-05    0.000000e+00
-6.958324e-06    -1.799806e-05    0.000000e+00
-4.616914e-06    -1.784101e-05    0.000000e+00
-2.301865e-06    -1.774678e-05    0.000000e+00
-5.865174e-19    -1.771537e-05    0.000000e+00
2.301865e-06    -1.774678e-05    0.000000e+00
4.616914e-06    -1.784101e-05    0.000000e+00
6.958324e-06    -1.799806e-05    0.000000e+00
9.339276e-06    -1.821793e-05    0.000000e+00
1.177296e-05    -1.850062e-05    0.000000e+00
-1.249228e-05    -2.103794e-05    0.000000e+00
-9.914727e-06    -2.076572e-05    0.000000e+00
-7.389909e-06    -2.055400e-05    0.000000e+00
-4.904637e-06    -2.040277e-05    0.000000e+00
-2.445728e-06    -2.031204e-05    0.000000e+00
-6.191811e-19    -2.028179e-05    0.000000e+00
2.445728e-06    -2.031204e-05    0.000000e+00
4.904637e-06    -2.040277e-05    0.000000e+00
7.389909e-06    -2.055400e-05    0.000000e+00
9.914727e-06    -2.076572e-05    0.000000e+00
1.249228e-05    -2.103794e-05    0.000000e+00
-1.318446e-05    -2.371642e-05    0.000000e+00
-1.046846e-05    -2.345467e-05    0.000000e+00
-7.805208e-06    -2.325109e-05    0.000000e+00
-5.181501e-06    -2.310568e-05    0.000000e+00
-2.584160e-06    -2.301844e-05    0.000000e+00
-6.512625e-19    -2.298935e-05    0.000000e+00
2.584160e-06    -2.301844e-05    0.000000e+00
5.181501e-06    -2.310568e-05    0.000000e+00
7.805208e-06    -2.325109e-05    0.000000e+00
1.046846e-05    -2.345467e-05    0.000000e+00
1.318446e-05    -2.371642e-05    0.000000e+00
-1.384949e-05    -2.653062e-05    0.000000e+00
-1.100049e-05    -2.627934e-05    0.000000e+00
-8.204222e-06    -2.608391e-05    0.000000e+00
-5.447509e-06    -2.594431e-05    0.000000e+00
-2.717163e-06    -2.586055e-05    0.000000e+00
-6.755088e-19    -2.583264e-05    0.000000e+00
2.717163e-06    -2.586055e-05    0.000000e+00
5.447509e-06    -2.594431e-05    0.000000e+00
8.204222e-06    -2.608391e-05    0.000000e+00
1.100049e-05    -2.627934e-05    0.000000e+00
1.384949e-05    -2.653062e-05    0.000000e+00
-1.448737e-05    -2.947511e-05    0.000000e+00
-1.151079e-05    -2.923430e-05    0.000000e+00
-8.586950e-06    -2.904701e-05    0.000000e+00
-5.702661e-06    -2.891323e-05    0.000000e+00
-2.844739e-06    -2.883296e-05    0.000000e+00
-6.829203e-19    -2.880621e-05    0.000000e+00
2.844739e-06    -2.883296e-05    0.000000e+00
5.702661e-06    -2.891323e-05    0.000000e+00
8.586950e-06    -2.904701e-05    0.000000e+00
1.151079e-05    -2.923430e-05    0.000000e+00
1.448737e-05    -2.947511e-05    0.000000e+00
-1.509811e-05    -3.254446e-05    0.000000e+00
-1.199938e-05    -3.231413e-05    0.000000e+00
-8.953392e-06    -3.213498e-05    0.000000e+00
-5.946955e-06    -3.200701e-05    0.000000e+00
-2.966886e-06    -3.193024e-05    0.000000e+00
-7.056843e-19    -3.190464e-05    0.000000e+00
2.966886e-06    -3.193024e-05    0.000000e+00
5.946955e-06    -3.200701e-05    0.000000e+00
8.953392e-06    -3.213498e-05    0.000000e+00
1.199938e-05    -3.231413e-05    0.000000e+00
1.509811e-05    -3.254446e-05    0.000000e+00
-1.568170e-05    -3.573325e-05    0.000000e+00
-1.246626e-05    -3.551339e-05    0.000000e+00
-9.303549e-06    -3.534238e-05    0.000000e+00
-6.180392e-06    -3.522023e-05    0.000000e+00
-3.083604e-06    -3.514694e-05    0.000000e+00
-7.370245e-19    -3.512251e-05    0.000000e+00
3.083604e-06    -3.514694e-05    0.000000e+00
6.180392e-06    -3.522023e-05    0.000000e+00
9.303549e-06    -3.534238e-05    0.000000e+00
1.246626e-05    -3.551339e-05    0.000000e+00
1.568170e-05    -3.573325e-05    0.000000e+00
-1.623815e-05    -3.903604e-05    0.000000e+00
-1.291142e-05    -3.882665e-05    0.000000e+00
-9.637419e-06    -3.866378e-05    0.000000e+00
-6.402972e-06    -3.854745e-05    0.000000e+00
-3.194894e-06    -3.847765e-05    0.000000e+00
-7.885877e-19    -3.845439e-05    0.000000e+00
3.194894e-06    -3.847765e-05    0.000000e+00
6.402972e-06    -3.854745e-05    0.000000e+00
9.637419e-06    -3.866378e-05    0.000000e+00
1.291142e-05    -3.882665e-05    0.000000e+00
1.623815e-05    -3.903604e-05    0.000000e+00
-1.676746e-05    -4.244741e-05    0.000000e+00
-1.333486e-05    -4.224848e-05    0.000000e+00
-9.955003e-06    -4.209376e-05    0.000000e+00
-6.614695e-06    -4.198325e-05    0.000000e+00
-3.300755e-06    -4.191694e-05    0.000000e+00
-8.548680e-19    -4.189484e-05    0.000000e+00
3.300755e-06    -4.191694e-05    0.000000e+00
6.614695e-06    -4.198325e-05    0.000000e+00
9.955003e-06    -4.209376e-05    0.000000e+00
1.333486e-05    -4.224848e-05    0.000000e+00
1.676746e-05    -4.244741e-05    0.000000e+00
-1.726962e-05    -4.596192e-05    0.000000e+00
-1.373659e-05    -4.577347e-05    0.000000e+00
-1.025630e-05    -4.562689e-05    0.000000e+00
-6.815560e-06    -4.552219e-05    0.000000e+00
-3.401188e-06    -4.545937e-05    0.000000e+00
-8.997607e-19    -4.543843e-05    0.000000e+00
3.401188e-06    -4.545937e-05    0.000000e+00
6.815560e-06    -4.552219e-05    0.000000e+00
1.025630e-05    -4.562689e-05    0.000000e+00
1.373659e-05    -4.577347e-05    0.000000e+00
1.726962e-05    -4.596192e-05    0.000000e+00
-1.774464e-05    -4.957416e-05    0.000000e+00
-1.411661e-05    -4.939617e-05    0.000000e+00
-1.054131e-05    -4.925773e-05    0.000000e+00
-7.005568e-06    -4.915885e-05    0.000000e+00
-3.496192e-06    -4.909952e-05    0.000000e+00
-9.319480e-19    -4.907975e-05    0.000000e+00
3.496192e-06    -4.909952e-05    0.000000e+00
7.005568e-06    -4.915885e-05    0.000000e+00
1.054131e-05    -4.925773e-05    0.000000e+00
1.411661e-05    -4.939617e-05    0.000000e+00
1.774464e-05    -4.957416e-05    0.000000e+00
-1.819252e-05    -5.327868e-05    0.000000e+00
-1.447491e-05    -5.311116e-05    0.000000e+00
-1.081004e-05    -5.298087e-05    0.000000e+00
-7.184718e-06    -5.288780e-05    0.000000e+00
-3.585767e-06    -5.283196e-05    0.000000e+00
-9.821347e-19    -5.281335e-05    0.000000e+00
3.585767e-06    -5.283196e-05    0.000000e+00
7.184718e-06    -5.288780e-05    0.000000e+00
1.081004e-05    -5.298087e-05    0.000000e+00
1.447491e-05    -5.311116e-05    0.000000e+00
1.819252e-05    -5.327868e-05    0.000000e+00
-1.861325e-05    -5.707006e-05    0.000000e+00
-1.481149e-05    -5.691301e-05    0.000000e+00
-1.106248e-05    -5.679086e-05    0.000000e+00
-7.353011e-06    -5.670361e-05    0.000000e+00
-3.669914e-06    -5.665126e-05    0.000000e+00
-1.000981e-18    -5.663381e-05    0.000000e+00
3.669914e-06    -5.665126e-05    0.000000e+00
7.353011e-06    -5.670361e-05    0.000000e+00
1.106248e-05    -5.679086e-05    0.000000e+00
1.481149e-05    -5.691301e-05    0.000000e+00
1.861325e-05    -5.707006e-05    0.000000e+00
-1.900683e-05    -6.094287e-05    0.000000e+00
-1.512636e-05    -6.079630e-05    0.000000e+00
-1.129863e-05    -6.068229e-05    0.000000e+00
-7.510448e-06    -6.060086e-05    0.000000e+00
-3.748633e-06    -6.055200e-05    0.000000e+00
-1.021945e-18    -6.053571e-05    0.000000e+00
3.748633e-06    -6.055200e-05    0.000000e+00
7.510448e-06    -6.060086e-05    0.000000e+00
1.129863e-05    -6.068229e-05    0.000000e+00
1.512636e-05    -6.079630e-05    0.000000e+00
1.900683e-05    -6.094287e-05    0.000000e+00
-1.937327e-05    -6.489169e-05    0.000000e+00
-1.541952e-05    -6.475558e-05    0.000000e+00
-1.151850e-05    -6.464972e-05    0.000000e+00
-7.657028e-06    -6.457410e-05    0.000000e+00
-3.821923e-06    -6.452873e-05    0.000000e+00
-1.037404e-18    -6.451361e-05    0.000000e+00
3.821923e-06    -6.452873e-05    0.000000e+00
7.657028e-06    -6.457410e-05    0.000000e+00
1.151850e-05    -6.464972e-05    0.000000e+00
1.541952e-05    -6.475558e-05    0.000000e+00
1.937327e-05    -6.489169e-05    0.000000e+00
-1.971256e-05    -6.891107e-05    0.000000e+00
-1.569095e-05    -6.878544e-05    0.000000e+00
-1.172208e-05    -6.868772e-05    0.000000e+00
-7.792750e-06    -6.861792e-05    0.000000e+00
-3.889784e-06    -6.857604e-05    0.000000e+00
-1.026392e-18    -6.856208e-05    0.000000e+00
3.889784e-06    -6.857604e-05    0.000000e+00
7.792750e-06    -6.861792e-05    0.000000e+00
1.172208e-05    -6.868772e-05    0.000000e+00
1.569095e-05    -6.878544e-05    0.000000e+00
1.971256e-05    -6.891107e-05    0.000000e+00
-2.002471e-05    -7.299559e-05    0.000000e+00
-1.594068e-05    -7.288043e-05    0.000000e+00
-1.190938e-05    -7.279086e-05    0.000000e+00
-7.917611e-06    -7.272688e-05    0.000000e+00
-3.952212e-06    -7.268851e-05    0.000000e+00
-1.019828e-18    -7.267572e-05    0.000000e+00
3.952212e-06    -7.268851e-05    0.000000e+00
7.917611e-06    -7.272688e-05    0.000000e+00
1.190938e-05    -7.279086e-05    0.000000e+00
1.594068e-05    -7.288043e-05    0.000000e+00
2.002471e-05    -7.299559e-05    0.000000e+00
-2.030971e-05    -7.713981e-05    0.000000e+00
-1.616869e-05    -7.703511e-05    0.000000e+00
-1.208038e-05    -7.695370e-05    0.000000e+00
-8.031599e-06    -7.689557e-05    0.000000e+00
-4.009198e-06    -7.686071e-05    0.000000e+00
-1.047356e-18    -7.684909e-05    0.000000e+00
4.009198e-06    -7.686071e-05    0.000000e+00
8.031599e-06    -7.689557e-05    0.000000e+00
1.208038e-05    -7.695370e-05    0.000000e+00
1.616869e-05    -7.703511e-05    0.000000e+00
2.030971e-05    -7.713981e-05    0.000000e+00
-2.056757e-05    -8.133827e-05    0.000000e+00
-1.637501e-05    -8.124404e-05    0.000000e+00
-1.223508e-05    -8.117079e-05    0.000000e+00
-8.134685e-06    -8.111855e-05    0.000000e+00
-4.060719e-06    -8.108725e-05    0.000000e+00
-1.093096e-18    -8.107682e-05    0.000000e+00
4.060719e-06    -8.108725e-05    0.000000e+00
8.134685e-06    -8.111855e-05    0.000000e+00
1.223508e-05    -8.117079e-05    0.000000e+00
1.637501e-05    -8.124404e-05    0.000000e+00
2.056757e-05    -8.133827e-05    0.000000e+00
-2.079833e-05    -8.558550e-05    0.000000e+00
-1.655963e-05    -8.550173e-05    0.000000e+00
-1.237344e-05    -8.543669e-05    0.000000e+00
-8.226802e-06    -8.539041e-05    0.000000e+00
-4.106724e-06    -8.536276e-05    0.000000e+00
-1.181187e-18    -8.535356e-05    0.000000e+00
4.106724e-06    -8.536276e-05    0.000000e+00
8.226802e-06    -8.539041e-05    0.000000e+00
1.237344e-05    -8.543669e-05    0.000000e+00
1.655963e-05    -8.550173e-05    0.000000e+00
2.079833e-05    -8.558550e-05    0.000000e+00
-2.100210e-05    -8.987603e-05    0.000000e+00
-1.672261e-05    -8.980269e-05    0.000000e+00
-1.249537e-05    -8.974594e-05    0.000000e+00
-8.307807e-06    -8.970578e-05    0.000000e+00
-4.147107e-06    -8.968192e-05    0.000000e+00
-1.261656e-18    -8.967401e-05    0.000000e+00
4.147107e-06    -8.968192e-05    0.000000e+00
8.307807e-06    -8.970578e-05    0.000000e+00
1.249537e-05    -8.974594e-05    0.000000e+00
1.672261e-05    -8.980269e-05    0.000000e+00
2.100210e-05    -8.987603e-05    0.000000e+00
-2.117913e-05    -9.420439e-05    0.000000e+00
-1.686399e-05    -9.414142e-05    0.000000e+00
-1.260070e-05    -9.409308e-05    0.000000e+00
-8.377428e-06    -9.405931e-05    0.000000e+00
-4.181679e-06    -9.403948e-05    0.000000e+00
-1.299349e-18    -9.403297e-05    0.000000e+00
4.181679e-06    -9.403948e-05    0.000000e+00
8.377428e-06    -9.405931e-05    0.000000e+00
1.260070e-05    -9.409308e-05    0.000000e+00
1.686399e-05    -9.414142e-05    0.000000e+00
2.117913e-05    -9.420439e-05    0.000000e+00
-2.132994e-05    -9.856523e-05    0.000000e+00
-1.698387e-05    -9.851248e-05    0.000000e+00
-1.268909e-05    -9.847276e-05    0.000000e+00
-8.435205e-06    -9.844575e-05    0.000000e+00
-4.210141e-06    -9.843026e-05    0.000000e+00
-1.357794e-18    -9.842523e-05    0.000000e+00
4.210141e-06    -9.843026e-05    0.000000e+00
8.435205e-06    -9.844575e-05    0.000000e+00
1.268909e-05    -9.847276e-05    0.000000e+00
1.698387e-05    -9.851248e-05    0.000000e+00
2.132994e-05    -9.856523e-05    0.000000e+00
-2.145562e-05    -1.029537e-04    0.000000e+00
-1.708235e-05    -1.029109e-04    0.000000e+00
-1.275997e-05    -1.028800e-04    0.000000e+00
-8.480518e-06    -1.028600e-04    0.000000e+00
-4.232143e-06    -1.028489e-04    0.000000e+00
-1.407345e-18    -1.028454e-04    0.000000e+00
4.232143e-06    -1.028489e-04    0.000000e+00
8.480518e-06    -1.028600e-04    0.000000e+00
1.275997e-05    -1.028800e-04    0.000000e+00
1.708235e-05    -1.029109e-04    0.000000e+00
2.145562e-05    -1.029537e-04    0.000000e+00
-2.155817e-05    -1.073660e-04    0.000000e+00
-1.715935e-05    -1.073327e-04    0.000000e+00
-1.281258e-05    -1.073105e-04    0.000000e+00
-8.512904e-06    -1.072970e-04    0.000000e+00
-4.247579e-06    -1.072895e-04    0.000000e+00
-1.352712e-18    -1.072870e-04    0.000000e+00
4.247579e-06    -1.072895e-04    0.000000e+00
8.512904e-06    -1.072970e-04    0.000000e+00
1.281258e-05    -1.073105e-04    0.000000e+00
1.715935e-05    -1.073327e-04    0.000000e+00
2.155817e-05    -1.073660e-04    0.000000e+00
-2.164067e-05    -1.118022e-04    0.000000e+00
-1.721429e-05    -1.117772e-04    0.000000e+00
-1.284670e-05    -1.117621e-04    0.000000e+00
-8.533270e-06    -1.117511e-04    0.000000e+00
-4.257281e-06    -1.117436e-04    0.000000e+00
-1.272243e-18    -1.117409e-04    0.000000e+00
4.257281e-06    -1.117436e-04    0.000000e+00
8.533270e-06    -1.117511e-04    0.000000e+00
1.284670e-05    -1.117621e-04    0.000000e+00
1.721429e-05    -1.117772e-04    0.000000e+00
2.164067e-05    -1.118022e-04    0.000000e+00
-2.170513e-05    -1.162704e-04    0.000000e+00
-1.724615e-05    -1.162523e-04    0.000000e+00
-1.286626e-05    -1.162338e-04    0.000000e+00
-8.546207e-06    -1.162132e-04    0.000000e+00
-4.263865e-06    -1.161978e-04    0.000000e+00
-1.270549e-18    -1.161922e-04    0.000000e+00
4.263865e-06    -1.161978e-04    0.000000e+00
8.546207e-06    -1.162132e-04    0.000000e+00
1.286626e-05    -1.162338e-04    0.000000e+00
1.724615e-05    -1.162523e-04    0.000000e+00
2.170513e-05    -1.162704e-04    0.000000e+00
-2.173924e-05    -1.208105e-04    0.000000e+00
-1.726634e-05    -1.207758e-04    0.000000e+00
-1.288608e-05    -1.207173e-04    0.000000e+00
-8.561321e-06    -1.206645e-04    0.000000e+00
-4.272039e-06    -1.206293e-04    0.000000e+00
-1.269067e-18    -1.206170e-04    0.000000e+00
4.272039e-06    -1.206293e-04    0.000000e+00
8.561321e-06    -1.206645e-04    0.000000e+00
1.288608e-05    -1.207173e-04    0.000000e+00
1.726634e-05    -1.207758e-04    0.000000e+00
2.173924e-05    -1.208105e-04    0.000000e+00

CELL_DATA      400
TENSORS Element_Stress5.200000e-01 double
1.820598e+06 2.551812e+05        0
2.551812e+05 4.163488e+05        0
       0        0        0

1.243720e+06 1.308538e+05        0
1.308538e+05 3.566178e+05        0
       0        0        0

8.651185e+05 4.301032e+04        0
4.301032e+04 2.749959e+05        0
       0        0        0

5.100063e+05 -3.578363e+03        0
-3.578363e+03 1.690094e+05        0
       0        0        0

1.688541e+05 -2.488323e+04        0
-2.488323e+04 5.694968e+04        0
       0        0        0

-1.688184e+05 -2.487711e+04        0
-2.487711e+04 -5.695775e+04        0
       0        0        0

-5.095306e+05 -3.579111e+03        0
-3.579111e+03 -1.688447e+05        0
       0        0        0

-8.637077e+05 4.293851e+04        0
4.293851e+04 -2.744671e+05        0
       0        0        0

-1.240734e+06 1.305652e+05        0
1.305652e+05 -3.554740e+05        0
       0        0        0

-1.814375e+06 2.543707e+05        0
2.543707e+05 -4.141970e+05        0
       0        0        0

1.642070e+06 4.159748e+04        0
4.159748e+04 4.234799e+03        0
       0        0        0

1.322354e+06 1.206454e+05        0
1.206454e+05 1.286843e+05        0
       0        0        0

9.082521e+05 9.900755e+04        0
9.900755e+04 1.315191e+05        0
       0        0        0

5.364025e+05 7.580678e+04        0
7.580678e+04 9.193311e+04        0
       0        0        0

1.768172e+05 6.321707e+04        0
6.321707e+04 3.207757e+04        0
       0        0        0

-1.778550e+05 6.319873e+04        0
6.319873e+04 -3.316896e+04        0
       0        0        0

-5.369363e+05 7.574133e+04        0
7.574133e+04 -9.284490e+04        0
       0        0        0

-9.077061e+05 9.886738e+04        0
9.886738e+04 -1.320379e+05        0
       0        0        0

-1.319830e+06 1.204079e+05        0
1.204079e+05 -1.284324e+05        0
       0        0        0

-1.637466e+06 4.151082e+04        0
4.151082e+04 -3.136555e+03        0
       0        0        0

1.584953e+06 1.541639e+04        0
1.541639e+04 6.615316e+03        0
       0        0        0

1.271591e+06 6.833109e+04        0
6.833109e+04 1.757728e+04        0
       0        0        0

9.146413e+05 1.015639e+05        0
1.015639e+05 4.237686e+04        0
       0        0        0

5.430826e+05 1.074765e+05        0
1.074765e+05 3.592346e+04        0
       0        0        0

1.791459e+05 1.074054e+05        0
1.074054e+05 1.272037e+04        0
       0        0        0

-1.824790e+05 1.073775e+05        0
1.073775e+05 -1.611190e+04        0
       0        0        0

-5.458838e+05 1.073933e+05        0
1.073933e+05 -3.912503e+04        0
       0        0        0

-9.163117e+05 1.014348e+05        0
1.014348e+05 -4.515293e+04        0
       0        0        0

-1.271565e+06 6.821622e+04        0
6.821622e+04 -1.966893e+04        0
       0        0        0

-1.582978e+06 1.538448e+04        0
1.538448e+04 -7.911807e+03        0
       0        0        0

1.546129e+06 1.427370e+04        0
1.427370e+04 -3.975752e+03        0
       0        0        0

1.226683e+06 5.548208e+04        0
5.548208e+04 -1.953361e+03        0
       0        0        0

8.865538e+05 9.245025e+04        0
9.245025e+04 2.933168e+03        0
       0        0        0

5.331314e+05 1.146030e+05        0
1.146030e+05 5.877770e+03        0
       0        0        0

1.753740e+05 1.233579e+05        0
1.233579e+05 6.880624e+02        0
       0        0        0

-1.820438e+05 1.233283e+05        0
1.233283e+05 -7.415933e+03        0
       0        0        0

-5.392752e+05 1.145213e+05        0
1.145213e+05 -1.241206e+04        0
       0        0        0

-8.916350e+05 9.234263e+04        0
9.234263e+04 -9.058365e+03        0
       0        0        0

-1.230189e+06 5.539388e+04        0
5.539388e+04 -3.528931e+03        0
       0        0        0

-1.547532e+06 1.424568e+04        0
1.424568e+04 -5.504384e+02        0
       0        0        0

1.509427e+06 1.713063e+04        0
1.713063e+04 -5.567250e+03        0
       0        0        0

1.185340e+06 5.448733e+04        0
5.448733e+04 -8.577651e+03        0
       0        0        0

8.541561e+05 8.905469e+04        0
8.905469e+04 -8.329305e+03        0
       0        0        0

5.137340e+05 1.136408e+05        0
1.136408e+05 -6.745280e+03        0
       0        0        0

1.681056e+05 1.258450e+05        0
1.258450e+05 -5.639044e+03        0
       0        0        0

-1.789903e+05 1.258166e+05        0
1.258166e+05 -5.300819e+03        0
       0        0        0

-5.241237e+05 1.135646e+05        0
1.135646e+05 -4.010288e+03        0
       0        0        0

-8.635542e+05 8.895612e+04        0
8.895612e+04 -2.042812e+03        0
       0        0        0

-1.193244e+06 5.440409e+04        0
5.440409e+04 -1.179541e+03        0
       0        0        0

-1.515273e+06 1.709766e+04        0
1.709766e+04 -3.264825e+03        0
       0        0        0

1.469671e+06 1.958963e+04        0
1.958963e+04 -7.911531e+03        0
       0        0        0

1.147077e+06 5.644559e+04        0
5.644559e+04 -1.054799e+04        0
       0        0        0

8.224151e+05 8.838594e+04        0
8.838594e+04 -1.192774e+04        0
       0        0        0

4.928620e+05 1.117722e+05        0
1.117722e+05 -1.113898e+04        0
       0        0        0

1.594065e+05 1.239614e+05        0
1.239614e+05 -9.157849e+03        0
       0        0        0

-1.752704e+05 1.239347e+05        0
1.239347e+05 -6.757342e+03        0
       0        0        0

-5.082716e+05 1.117003e+05        0
1.117003e+05 -4.611022e+03        0
       0        0        0

-8.369138e+05 8.829171e+04        0
8.829171e+04 -3.479956e+03        0
       0        0        0

-1.160194e+06 5.636191e+04        0
5.636191e+04 -4.312364e+03        0
       0        0        0

-1.480879e+06 1.955284e+04        0
1.955284e+04 -6.139554e+03        0
       0        0        0

1.427069e+06 2.114429e+04        0
2.114429e+04 -1.052964e+04        0
       0        0        0

1.109854e+06 5.834958e+04        0
5.834958e+04 -1.236661e+04        0
       0        0        0

7.924051e+05 8.864128e+04        0
8.864128e+04 -1.362108e+04        0
       0        0        0

4.726277e+05 1.103428e+05        0
1.103428e+05 -1.337050e+04        0
       0        0        0

1.506199e+05 1.216735e+05        0
1.216735e+05 -1.181697e+04        0
       0        0        0

-1.721469e+05 1.216483e+05        0
1.216483e+05 -9.757740e+03        0
       0        0        0

-4.937482e+05 1.102742e+05        0
1.102742e+05 -8.067258e+03        0
       0        0        0

-8.127094e+05 8.854973e+04        0
8.854973e+04 -7.533908e+03        0
       0        0        0

-1.128918e+06 5.826553e+04        0
5.826553e+04 -8.339735e+03        0
       0        0        0

-1.444434e+06 2.110561e+04        0
2.110561e+04 -9.528609e+03        0
       0        0        0

1.382471e+06 2.200181e+04        0
2.200181e+04 -1.363722e+04        0
       0        0        0

1.072891e+06 5.961398e+04        0
5.961398e+04 -1.472183e+04        0
       0        0        0

7.635785e+05 8.901007e+04        0
8.901007e+04 -1.557415e+04        0
       0        0        0

4.533125e+05 1.094858e+05        0
1.094858e+05 -1.552412e+04        0
       0        0        0

1.419522e+05 1.200358e+05        0
1.200358e+05 -1.458784e+04        0
       0        0        0

-1.697603e+05 1.200117e+05        0
1.200117e+05 -1.326479e+04        0
       0        0        0

-4.807667e+05 1.094198e+05        0
1.094198e+05 -1.222641e+04        0
       0        0        0

-7.903212e+05 8.892091e+04        0
8.892091e+04 -1.196593e+04        0
       0        0        0

-1.098554e+06 5.953060e+04        0
5.953060e+04 -1.248635e+04        0
       0        0        0

-1.406666e+06 2.196271e+04        0
2.196271e+04 -1.309846e+04        0
       0        0        0

1.336650e+06 2.243103e+04        0
2.243103e+04 -1.712975e+04        0
       0        0        0

1.035846e+06 6.032509e+04        0
6.032509e+04 -1.770734e+04        0
       0        0        0

7.353690e+05 8.928001e+04        0
8.928001e+04 -1.819357e+04        0
       0        0        0

4.345842e+05 1.090314e+05        0
1.090314e+05 -1.820574e+04        0
       0        0        0

1.333510e+05 1.190751e+05        0
1.190751e+05 -1.770719e+04        0
       0        0        0

-1.679948e+05 1.190519e+05        0
1.190519e+05 -1.697818e+04        0
       0        0        0

-4.689286e+05 1.089678e+05        0
1.089678e+05 -1.641605e+04        0
       0        0        0

-7.691117e+05 8.919329e+04        0
8.919329e+04 -1.629667e+04        0
       0        0        0

-1.068676e+06 6.024325e+04        0
6.024325e+04 -1.657480e+04        0
       0        0        0

-1.368246e+06 2.239236e+04        0
2.239236e+04 -1.685617e+04        0
       0        0        0

1.290108e+06 2.262769e+04        0
2.262769e+04 -2.093370e+04        0
       0        0        0

9.986145e+05 6.068320e+04        0
6.068320e+04 -2.119241e+04        0
       0        0        0

7.073840e+05 8.943847e+04        0
8.943847e+04 -2.142407e+04        0
       0        0        0

4.161153e+05 1.088122e+05        0
1.088122e+05 -2.143279e+04        0
       0        0        0

1.247137e+05 1.185759e+05        0
1.185759e+05 -2.118594e+04        0
       0        0        0

-1.666835e+05 1.185536e+05        0
1.185536e+05 -2.082274e+04        0
       0        0        0

-4.578408e+05 1.087507e+05        0
1.087507e+05 -2.055219e+04        0
       0        0        0

-7.486181e+05 8.935433e+04        0
8.935433e+04 -2.051028e+04        0
       0        0        0

-1.039104e+06 6.060345e+04        0
6.060345e+04 -2.065826e+04        0
       0        0        0

-1.329592e+06 2.258991e+04        0
2.258991e+04 -2.079207e+04        0
       0        0        0

1.243138e+06 2.270943e+04        0
2.270943e+04 -2.498210e+04        0
       0        0        0

9.611829e+05 6.084707e+04        0
6.084707e+04 -2.504187e+04        0
       0        0        0

6.794119e+05 8.952007e+04        0
8.952007e+04 -2.510676e+04        0
       0        0        0

3.976942e+05 1.087151e+05        0
1.087151e+05 -2.508705e+04        0
       0        0        0

1.159751e+05 1.183403e+05        0
1.183403e+05 -2.496213e+04        0
       0        0        0

-1.656966e+05 1.183187e+05        0
1.183187e+05 -2.479576e+04        0
       0        0        0

-4.472257e+05 1.086557e+05        0
1.086557e+05 -2.468699e+04        0
       0        0        0

-7.285609e+05 8.943859e+04        0
8.943859e+04 -2.469694e+04        0
       0        0        0

-1.009752e+06 6.076971e+04        0
6.076971e+04 -2.480000e+04        0
       0        0        0

-1.290922e+06 2.267274e+04        0
2.267274e+04 -2.489961e+04        0
       0        0        0

1.195902e+06 2.273919e+04        0
2.273919e+04 -2.922324e+04        0
       0        0        0

9.235708e+05 6.091458e+04        0
6.091458e+04 -2.915047e+04        0
       0        0        0

6.513590e+05 8.955767e+04        0
8.955767e+04 -2.910387e+04        0
       0        0        0

3.792147e+05 1.086759e+05        0
1.086759e+05 -2.904718e+04        0
       0        0        0

1.071092e+05 1.182389e+05        0
1.182389e+05 -2.896999e+04        0
       0        0        0

-1.649443e+05 1.182180e+05        0
1.182180e+05 -2.889900e+04        0
       0        0        0

-4.369126e+05 1.086185e+05        0
1.086185e+05 -2.887696e+04        0
       0        0        0

-7.087800e+05 8.947891e+04        0
8.947891e+04 -2.892824e+04        0
       0        0        0

-9.805709e+05 6.083975e+04        0
6.083975e+04 -2.903784e+04        0
       0        0        0

-1.252330e+06 2.270369e+04        0
2.270369e+04 -2.916302e+04        0
       0        0        0

1.148491e+06 2.274763e+04        0
2.274763e+04 -3.361527e+04        0
       0        0        0

8.858087e+05 6.093851e+04        0
6.093851e+04 -3.344415e+04        0
       0        0        0

6.231974e+05 8.957285e+04        0
8.957285e+04 -3.331675e+04        0
       0        0        0

3.606384e+05 1.086618e+05        0
1.086618e+05 -3.322145e+04        0
       0        0        0

9.811734e+04 1.181997e+05        0
1.181997e+05 -3.315416e+04        0
       0        0        0

-1.643651e+05 1.181796e+05        0
1.181796e+05 -3.312513e+04        0
       0        0        0

-4.268000e+05 1.086064e+05        0
1.086064e+05 -3.315081e+04        0
       0        0        0

-6.891844e+05 8.949683e+04        0
8.949683e+04 -3.323922e+04        0
       0        0        0

-9.515284e+05 6.086627e+04        0
6.086627e+04 -3.338182e+04        0
       0        0        0

-1.213844e+06 2.271337e+04        0
2.271337e+04 -3.356049e+04        0
       0        0        0

1.100960e+06 2.274841e+04        0
2.274841e+04 -3.812278e+04        0
       0        0        0

8.479289e+05 6.094460e+04        0
6.094460e+04 -3.787019e+04        0
       0        0        0

5.949322e+05 8.957762e+04        0
8.957762e+04 -3.767803e+04        0
       0        0        0

3.419635e+05 1.086573e+05        0
1.086573e+05 -3.754494e+04        0
       0        0        0

8.901558e+04 1.181867e+05        0
1.181867e+05 -3.747027e+04        0
       0        0        0

-1.639142e+05 1.181674e+05        0
1.181674e+05 -3.745768e+04        0
       0        0        0

-4.168253e+05 1.086039e+05        0
1.086039e+05 -3.751247e+04        0
       0        0        0

-6.697180e+05 8.950436e+04        0
8.950436e+04 -3.763608e+04        0
       0        0        0

-9.225952e+05 6.087498e+04        0
6.087498e+04 -3.782343e+04        0
       0        0        0

-1.175457e+06 2.271539e+04        0
2.271539e+04 -3.806658e+04        0
       0        0        0

1.053347e+06 2.274703e+04        0
2.274703e+04 -4.271420e+04        0
       0        0        0

8.099626e+05 6.094429e+04        0
6.094429e+04 -4.238866e+04        0
       0        0        0

5.665832e+05 8.957803e+04        0
8.957803e+04 -4.214000e+04        0
       0        0        0

3.232060e+05 1.086559e+05        0
1.086559e+05 -4.197068e+04        0
       0        0        0

7.982720e+04 1.181835e+05        0
1.181835e+05 -4.188171e+04        0
       0        0        0

-1.635563e+05 1.181649e+05        0
1.181649e+05 -4.187447e+04        0
       0        0        0

-4.069457e+05 1.086046e+05        0
1.086046e+05 -4.195008e+04        0
       0        0        0

-6.503417e+05 8.950753e+04        0
8.950753e+04 -4.210767e+04        0
       0        0        0

-8.937438e+05 6.087730e+04        0
6.087730e+04 -4.234382e+04        0
       0        0        0

-1.137148e+06 2.271526e+04        0
2.271526e+04 -4.265429e+04        0
       0        0        0

1.005683e+06 2.274539e+04        0
2.274539e+04 -4.736038e+04        0
       0        0        0

7.719394e+05 6.094219e+04        0
6.094219e+04 -4.696667e+04        0
       0        0        0

5.381756e+05 8.957681e+04        0
8.957681e+04 -4.666608e+04        0
       0        0        0

3.043894e+05 1.086553e+05        0
1.086553e+05 -4.646218e+04        0
       0        0        0

7.057816e+04 1.181832e+05        0
1.181832e+05 -4.635676e+04        0
       0        0        0

-1.632605e+05 1.181653e+05        0
1.181653e+05 -4.635058e+04        0
       0        0        0

-3.971278e+05 1.086060e+05        0
1.086060e+05 -4.644347e+04        0
       0        0        0

-6.310240e+05 8.950907e+04        0
8.950907e+04 -4.663394e+04        0
       0        0        0

-8.649473e+05 6.087783e+04        0
6.087783e+04 -4.691929e+04        0
       0        0        0

-1.098893e+06 2.271487e+04        0
2.271487e+04 -4.729637e+04        0
       0        0        0

9.579955e+05 2.274400e+04        0
2.274400e+04 -5.203381e+04        0
       0        0        0

7.338873e+05 6.093989e+04        0
6.093989e+04 -5.157525e+04        0
       0        0        0

5.097360e+05 8.957508e+04        0
8.957508e+04 -5.122566e+04        0
       0        0        0

2.855393e+05 1.086546e+05        0
1.086546e+05 -5.098880e+04        0
       0        0        0

6.129495e+04 1.181835e+05        0
1.181835e+05 -5.086675e+04        0
       0        0        0

-1.629989e+05 1.181663e+05        0
1.181663e+05 -5.086025e+04        0
       0        0        0

-3.873432e+05 1.086073e+05        0
1.086073e+05 -5.096887e+04        0
       0        0        0

-6.117373e+05 8.951011e+04        0
8.951011e+04 -5.119108e+04        0
       0        0        0

-8.361791e+05 6.087815e+04        0
6.087815e+04 -5.152449e+04        0
       0        0        0

-1.060664e+06 2.271473e+04        0
2.271473e+04 -5.196605e+04        0
       0        0        0

9.103102e+05 2.274290e+04        0
2.274290e+04 -5.670829e+04        0
       0        0        0

6.958326e+05 6.093780e+04        0
6.093780e+04 -5.618768e+04        0
       0        0        0

4.812907e+05 8.957328e+04        0
8.957328e+04 -5.579141e+04        0
       0        0        0

2.666817e+05 1.086537e+05        0
1.086537e+05 -5.552312e+04        0
       0        0        0

5.200354e+04 1.181835e+05        0
1.181835e+05 -5.538500e+04        0
       0        0        0

-1.627453e+05 1.181671e+05        0
1.181671e+05 -5.537790e+04        0
       0        0        0

-3.775653e+05 1.086084e+05        0
1.086084e+05 -5.550144e+04        0
       0        0        0

-5.924555e+05 8.951107e+04        0
8.951107e+04 -5.575422e+04        0
       0        0        0

-8.074137e+05 6.087870e+04        0
6.087870e+04 -5.613390e+04        0
       0        0        0

-1.022436e+06 2.271486e+04        0
2.271486e+04 -5.663735e+04        0
       0        0        0

8.626520e+05 2.274198e+04        0
2.274198e+04 -6.135878e+04        0
       0        0        0

6.578008e+05 6.093596e+04        0
6.093596e+04 -6.077882e+04        0
       0        0        0

4.528650e+05 8.957150e+04        0
8.957150e+04 -6.033795e+04        0
       0        0        0

2.478418e+05 1.086526e+05        0
1.086526e+05 -6.003971e+04        0
       0        0        0

4.272898e+04 1.181833e+05        0
1.181833e+05 -5.988630e+04        0
       0        0        0

-1.624747e+05 1.181676e+05        0
1.181676e+05 -5.987867e+04        0
       0        0        0

-3.677693e+05 1.086093e+05        0
1.086093e+05 -6.001656e+04        0
       0        0        0

-5.731539e+05 8.951206e+04        0
8.951206e+04 -6.029866e+04        0
       0        0        0

-7.786261e+05 6.087948e+04        0
6.087948e+04 -6.072266e+04        0
       0        0        0

-9.841819e+05 2.271520e+04        0
2.271520e+04 -6.128530e+04        0
       0        0        0

8.150447e+05 2.274119e+04        0
2.274119e+04 -6.596136e+04        0
       0        0        0

6.198157e+05 6.093429e+04        0
6.093429e+04 -6.532473e+04        0
       0        0        0

4.244830e+05 8.956978e+04        0
8.956978e+04 -6.484132e+04        0
       0        0        0

2.290436e+05 1.086514e+05        0
1.086514e+05 -6.451456e+04        0
       0        0        0

3.349528e+04 1.181828e+05        0
1.181828e+05 -6.434667e+04        0
       0        0        0

-1.621631e+05 1.181678e+05        0
1.181678e+05 -6.433865e+04        0
       0        0        0

-3.579315e+05 1.086101e+05        0
1.086101e+05 -6.449035e+04        0
       0        0        0

-5.538087e+05 8.951311e+04        0
8.951311e+04 -6.480052e+04        0
       0        0        0

-7.497925e+05 6.088043e+04        0
6.088043e+04 -6.526685e+04        0
       0        0        0

-9.458791e+05 2.271565e+04        0
2.271565e+04 -6.588596e+04        0
       0        0        0

7.675109e+05 2.274046e+04        0
2.274046e+04 -7.049318e+04        0
       0        0        0

5.819002e+05 6.093273e+04        0
6.093273e+04 -6.980260e+04        0
       0        0        0

3.961677e+05 8.956811e+04        0
8.956811e+04 -6.927870e+04        0
       0        0        0

2.103102e+05 1.086501e+05        0
1.086501e+05 -6.892486e+04        0
       0        0        0

2.432535e+04 1.181822e+05        0
1.181822e+05 -6.874327e+04        0
       0        0        0

-1.617877e+05 1.181679e+05        0
1.181679e+05 -6.873499e+04        0
       0        0        0

-3.480290e+05 1.086108e+05        0
1.086108e+05 -6.889993e+04        0
       0        0        0

-5.343973e+05 8.951420e+04        0
8.951420e+04 -6.923690e+04        0
       0        0        0

-7.208901e+05 6.088150e+04        0
6.088150e+04 -6.974356e+04        0
       0        0        0

-9.075041e+05 2.271617e+04        0
2.271617e+04 -7.041649e+04        0
       0        0        0

7.200723e+05 2.273978e+04        0
2.273978e+04 -7.493250e+04        0
       0        0        0

5.440762e+05 6.093125e+04        0
6.093125e+04 -7.419071e+04        0
       0        0        0

3.679410e+05 8.956648e+04        0
8.956648e+04 -7.362841e+04        0
       0        0        0

1.916633e+05 1.086488e+05        0
1.086488e+05 -7.324889e+04        0
       0        0        0

1.524098e+04 1.181815e+05        0
1.181815e+05 -7.305436e+04        0
       0        0        0

-1.613270e+05 1.181679e+05        0
1.181679e+05 -7.304590e+04        0
       0        0        0

-3.380404e+05 1.086115e+05        0
1.086115e+05 -7.322349e+04        0
       0        0        0

-5.148979e+05 8.951533e+04        0
8.951533e+04 -7.358598e+04        0
       0        0        0

-6.918973e+05 6.088265e+04        0
6.088265e+04 -7.413102e+04        0
       0        0        0

-8.690350e+05 2.271673e+04        0
2.271673e+04 -7.485511e+04        0
       0        0        0

6.727496e+05 2.273915e+04        0
2.273915e+04 -7.925863e+04        0
       0        0        0

5.063643e+05 6.092987e+04        0
6.092987e+04 -7.846843e+04        0
       0        0        0

3.398235e+05 8.956489e+04        0
8.956489e+04 -7.786983e+04        0
       0        0        0

1.731238e+05 1.086474e+05        0
1.086474e+05 -7.746605e+04        0
       0        0        0

6.262878e+03 1.181806e+05        0
1.181806e+05 -7.725929e+04        0
       0        0        0

-1.607601e+05 1.181679e+05        0
1.181679e+05 -7.725069e+04        0
       0        0        0

-3.279448e+05 1.086121e+05        0
1.086121e+05 -7.744030e+04        0
       0        0        0

-4.952900e+05 8.951651e+04        0
8.951651e+04 -7.782701e+04        0
       0        0        0

-6.627933e+05 6.088389e+04        0
6.088389e+04 -7.840849e+04        0
       0        0        0

-8.304513e+05 2.271735e+04        0
2.271735e+04 -7.918116e+04        0
       0        0        0

6.255623e+05 2.273859e+04        0
2.273859e+04 -8.345203e+04        0
       0        0        0

4.687842e+05 6.092860e+04        0
6.092860e+04 -8.261621e+04        0
       0        0        0

3.118350e+05 8.956335e+04        0
8.956335e+04 -8.198343e+04        0
       0        0        0

1.547113e+05 1.086460e+05        0
1.086460e+05 -8.155678e+04        0
       0        0        0

-2.589333e+03 1.181797e+05        0
1.181797e+05 -8.133849e+04        0
       0        0        0

-1.600676e+05 1.181676e+05        0
1.181676e+05 -8.132976e+04        0
       0        0        0

-3.177230e+05 1.086127e+05        0
1.086127e+05 -8.153073e+04        0
       0        0        0

-4.755540e+05 8.951773e+04        0
8.951773e+04 -8.194037e+04        0
       0        0        0

-6.335585e+05 6.088526e+04        0
6.088526e+04 -8.255636e+04        0
       0        0        0

-7.917332e+05 2.271804e+04        0
2.271804e+04 -8.337502e+04        0
       0        0        0

5.785286e+05 2.273817e+04        0
2.273817e+04 -8.749418e+04        0
       0        0        0

4.313542e+05 6.092752e+04        0
6.092752e+04 -8.661559e+04        0
       0        0        0

2.839942e+05 8.956185e+04        0
8.956185e+04 -8.595072e+04        0
       0        0        0

1.364444e+05 1.086444e+05        0
1.086444e+05 -8.550260e+04        0
       0        0        0

-1.129712e+04 1.181785e+05        0
1.181785e+05 -8.527347e+04        0
       0        0        0

-1.592310e+05 1.181672e+05        0
1.181672e+05 -8.526463e+04        0
       0        0        0

-3.073564e+05 1.086132e+05        0
1.086132e+05 -8.547630e+04        0
       0        0        0

-4.556717e+05 8.951900e+04        0
8.951900e+04 -8.590754e+04        0
       0        0        0

-6.041745e+05 6.088680e+04        0
6.088680e+04 -8.655609e+04        0
       0        0        0

-7.528619e+05 2.271886e+04        0
2.271886e+04 -8.741820e+04        0
       0        0        0

5.316658e+05 2.273795e+04        0
2.273795e+04 -9.136769e+04        0
       0        0        0

3.940921e+05 6.092663e+04        0
6.092663e+04 -9.044910e+04        0
       0        0        0

2.563184e+05 8.956035e+04        0
8.956035e+04 -8.975416e+04        0
       0        0        0

1.183407e+05 1.086427e+05        0
1.086427e+05 -8.928591e+04        0
       0        0        0

-1.984304e+04 1.181771e+05        0
1.181771e+05 -8.904674e+04        0
       0        0        0

-1.582329e+05 1.181665e+05        0
1.181665e+05 -8.903797e+04        0
       0        0        0

-2.968278e+05 1.086135e+05        0
1.086135e+05 -8.925978e+04        0
       0        0        0

-4.356257e+05 8.952026e+04        0
8.952026e+04 -8.971126e+04        0
       0        0        0

-5.746240e+05 6.088854e+04        0
6.088854e+04 -9.039032e+04        0
       0        0        0

-7.138200e+05 2.271989e+04        0
2.271989e+04 -9.129325e+04        0
       0        0        0

4.849900e+05 2.273796e+04        0
2.273796e+04 -9.505616e+04        0
       0        0        0

3.570143e+05 6.092577e+04        0
6.092577e+04 -9.410011e+04        0
       0        0        0

2.288244e+05 8.955862e+04        0
8.955862e+04 -9.337680e+04        0
       0        0        0

1.004164e+05 1.086409e+05        0
1.086409e+05 -9.288973e+04        0
       0        0        0

-2.821084e+04 1.181759e+05        0
1.181759e+05 -9.264170e+04        0
       0        0        0

-1.570570e+05 1.181660e+05        0
1.181660e+05 -9.263379e+04        0
       0        0        0

-2.861209e+05 1.086137e+05        0
1.086137e+05 -9.286554e+04        0
       0        0        0

-4.153999e+05 8.952130e+04        0
8.952130e+04 -9.333582e+04        0
       0        0        0

-5.448908e+05 6.089031e+04        0
6.089031e+04 -9.404299e+04        0
       0        0        0

-6.745908e+05 2.272114e+04        0
2.272114e+04 -9.498387e+04        0
       0        0        0

4.385165e+05 2.273798e+04        0
2.273798e+04 -9.854412e+04        0
       0        0        0

3.201365e+05 6.092413e+04        0
6.092413e+04 -9.755241e+04        0
       0        0        0

2.015270e+05 8.955604e+04        0
8.955604e+04 -9.680154e+04        0
       0        0        0

8.268605e+04 1.086393e+05        0
1.086393e+05 -9.629692e+04        0
       0        0        0

-3.638570e+04 1.181760e+05        0
1.181760e+05 -9.604233e+04        0
       0        0        0

-1.556878e+05 1.181669e+05        0
1.181669e+05 -9.603769e+04        0
       0        0        0

-2.752197e+05 1.086142e+05        0
1.086142e+05 -9.628030e+04        0
       0        0        0

-3.949789e+05 8.952149e+04        0
8.952149e+04 -9.676788e+04        0
       0        0        0

-5.149601e+05 6.089129e+04        0
6.089129e+04 -9.749980e+04        0
       0        0        0

-6.351590e+05 2.272241e+04        0
2.272241e+04 -9.847493e+04        0
       0        0        0

3.922608e+05 2.273705e+04        0
2.273705e+04 -1.018168e+05        0
       0        0        0

2.834737e+05 6.091918e+04        0
6.091918e+04 -1.007892e+05        0
       0        0        0

1.744389e+05 8.955103e+04        0
8.955103e+04 -1.000095e+05        0
       0        0        0

6.516112e+04 1.086394e+05        0
1.086394e+05 -9.948864e+04        0
       0        0        0

-4.435479e+04 1.181814e+05        0
1.181814e+05 -9.923256e+04        0
       0        0        0

-1.541098e+05 1.181730e+05        0
1.181730e+05 -9.923756e+04        0
       0        0        0

-2.641076e+05 1.086162e+05        0
1.086162e+05 -9.949471e+04        0
       0        0        0

-3.743470e+05 8.951924e+04        0
8.951924e+04 -9.999807e+04        0
       0        0        0

-4.848186e+05 6.088897e+04        0
6.088897e+04 -1.007491e+05        0
       0        0        0

-5.955116e+05 2.272272e+04        0
2.272272e+04 -1.017526e+05        0
       0        0        0

3.462408e+05 2.273213e+04        0
2.273213e+04 -1.048596e+05        0
       0        0        0

2.470402e+05 6.090435e+04        0
6.090435e+04 -1.037913e+05        0
       0        0        0

1.475679e+05 8.953998e+04        0
8.953998e+04 -1.029768e+05        0
       0        0        0

4.784706e+04 1.086446e+05        0
1.086446e+05 -1.024414e+05        0
       0        0        0

-5.210859e+04 1.182015e+05        0
1.182015e+05 -1.021950e+05        0
       0        0        0

-1.523066e+05 1.181938e+05        0
1.181938e+05 -1.022248e+05        0
       0        0        0

-2.527641e+05 1.086235e+05        0
1.086235e+05 -1.025064e+05        0
       0        0        0

-3.534861e+05 8.951095e+04        0
8.951095e+04 -1.030243e+05        0
       0        0        0

-4.544544e+05 6.087677e+04        0
6.087677e+04 -1.037842e+05        0
       0        0        0

-5.556397e+05 2.271905e+04        0
2.271905e+04 -1.048050e+05        0
       0        0        0

3.004822e+05 2.271539e+04        0
2.271539e+04 -1.076574e+05        0
       0        0        0

2.108493e+05 6.086437e+04        0
6.086437e+04 -1.065333e+05        0
       0        0        0

1.209111e+05 8.951546e+04        0
8.951546e+04 -1.056691e+05        0
       0        0        0

3.073692e+04 1.086641e+05        0
1.086641e+05 -1.051219e+05        0
       0        0        0

-5.964355e+04 1.182578e+05        0
1.182578e+05 -1.049091e+05        0
       0        0        0

-1.502580e+05 1.182508e+05        0
1.182508e+05 -1.049962e+05        0
       0        0        0

-2.411586e+05 1.086450e+05        0
1.086450e+05 -1.053249e+05        0
       0        0        0

-3.323700e+05 8.948920e+04        0
8.948920e+04 -1.058577e+05        0
       0        0        0

-4.238570e+05 6.083943e+04        0
6.083943e+04 -1.066065e+05        0
       0        0        0

-5.155448e+05 2.270357e+04        0
2.270357e+04 -1.076228e+05        0
       0        0        0

2.550302e+05 2.266861e+04        0
2.266861e+04 -1.101928e+05        0
       0        0        0

1.749112e+05 6.076689e+04        0
6.076689e+04 -1.089786e+05        0
       0        0        0

9.444394e+04 8.946363e+04        0
8.946363e+04 -1.080332e+05        0
       0        0        0

1.379929e+04 1.087177e+05        0
1.087177e+05 -1.074804e+05        0
       0        0        0

-6.696699e+04 1.183950e+05        0
1.183950e+05 -1.073481e+05        0
       0        0        0

-1.479345e+05 1.183887e+05        0
1.183887e+05 -1.075565e+05        0
       0        0        0

-2.292386e+05 1.087005e+05        0
1.087005e+05 -1.079789e+05        0
       0        0        0

-3.109536e+05 8.944014e+04        0
8.944014e+04 -1.085307e+05        0
       0        0        0

-3.930164e+05 6.074460e+04        0
6.074460e+04 -1.092323e+05        0
       0        0        0

-4.752498e+05 2.265805e+04        0
2.265805e+04 -1.102010e+05        0
       0        0        0

2.099707e+05 2.255312e+04        0
2.255312e+04 -1.124452e+05        0
       0        0        0

1.392276e+05 6.054966e+04        0
6.054966e+04 -1.110720e+05        0
       0        0        0

6.809783e+04 8.936201e+04        0
8.936201e+04 -1.099896e+05        0
       0        0        0

-3.042202e+03 1.088455e+05        0
1.088455e+05 -1.094456e+05        0
       0        0        0

-7.410476e+04 1.186961e+05        0
1.186961e+05 -1.094775e+05        0
       0        0        0

-1.452897e+05 1.186906e+05        0
1.186906e+05 -1.099193e+05        0
       0        0        0

-2.169085e+05 1.088304e+05        0
1.088304e+05 -1.105207e+05        0
       0        0        0

-2.891518e+05 8.934130e+04        0
8.934130e+04 -1.111065e+05        0
       0        0        0

-3.619182e+05 6.053005e+04        0
6.053005e+04 -1.117009e+05        0
       0        0        0

-4.348222e+05 2.254384e+04        0
2.254384e+04 -1.125421e+05        0
       0        0        0

1.654676e+05 2.229389e+04        0
2.229389e+04 -1.143894e+05        0
       0        0        0

1.037757e+05 6.010633e+04        0
6.010633e+04 -1.127378e+05        0
       0        0        0

4.172434e+04 8.918285e+04        0
8.918285e+04 -1.114369e+05        0
       0        0        0

-1.993674e+04 1.091211e+05        0
1.091211e+05 -1.109352e+05        0
       0        0        0

-8.111029e+04 1.192969e+05        0
1.192969e+05 -1.112604e+05        0
       0        0        0

-1.422485e+05 1.192922e+05        0
1.192922e+05 -1.121001e+05        0
       0        0        0

-2.040019e+05 1.091080e+05        0
1.091080e+05 -1.130150e+05        0
       0        0        0

-2.668047e+05 8.916493e+04        0
8.916493e+04 -1.136749e+05        0
       0        0        0

-3.305323e+05 6.008944e+04        0
6.008944e+04 -1.140806e+05        0
       0        0        0

-3.944153e+05 2.228592e+04        0
2.228592e+04 -1.146607e+05        0
       0        0        0

1.218143e+05 2.175987e+04        0
2.175987e+04 -1.160001e+05        0
       0        0        0

6.846991e+04 5.928775e+04        0
5.928775e+04 -1.139016e+05        0
       0        0        0

1.504776e+04 8.891653e+04        0
8.891653e+04 -1.123083e+05        0
       0        0        0

-3.712658e+04 1.096611e+05        0
1.096611e+05 -1.119237e+05        0
       0        0        0

-8.806576e+04 1.203706e+05        0
1.203706e+05 -1.126850e+05        0
       0        0        0

-1.387020e+05 1.203666e+05        0
1.203666e+05 -1.140839e+05        0
       0        0        0

-1.902583e+05 1.096500e+05        0
1.096500e+05 -1.154692e+05        0
       0        0        0

-2.436324e+05 8.890144e+04        0
8.890144e+04 -1.162985e+05        0
       0        0        0

-2.987810e+05 5.927361e+04        0
5.927361e+04 -1.164537e+05        0
       0        0        0

-3.543298e+05 2.175326e+04        0
2.175326e+04 -1.165894e+05        0
       0        0        0

7.947515e+04 2.075678e+04        0
2.075678e+04 -1.172821e+05        0
       0        0        0

3.307865e+04 5.797447e+04        0
5.797447e+04 -1.145899e+05        0
       0        0        0

-1.236394e+04 8.865059e+04        0
8.865059e+04 -1.127886e+05        0
       0        0        0

-5.490063e+04 1.106013e+05        0
1.106013e+05 -1.126577e+05        0
       0        0        0

-9.504947e+04 1.220074e+05        0
1.220074e+05 -1.138552e+05        0
       0        0        0

-1.345317e+05 1.220041e+05        0
1.220041e+05 -1.157267e+05        0
       0        0        0

-1.753639e+05 1.105923e+05        0
1.105923e+05 -1.176118e+05        0
       0        0        0

-2.192067e+05 8.863840e+04        0
8.863840e+04 -1.187962e+05        0
       0        0        0

-2.664683e+05 5.796312e+04        0
5.796312e+04 -1.188293e+05        0
       0        0        0

-3.150782e+05 2.075156e+04        0
2.075156e+04 -1.183719e+05        0
       0        0        0

3.901604e+04 1.910250e+04        0
1.910250e+04 -1.183311e+05        0
       0        0        0

-2.945802e+03 5.638064e+04        0
5.638064e+04 -1.153385e+05        0
       0        0        0

-4.097162e+04 8.874194e+04        0
8.874194e+04 -1.139163e+05        0
       0        0        0

-7.334316e+04 1.119428e+05        0
1.119428e+05 -1.141993e+05        0
       0        0        0

-1.020044e+05 1.238170e+05        0
1.238170e+05 -1.151847e+05        0
       0        0        0

-1.297257e+05 1.238146e+05        0
1.238146e+05 -1.165458e+05        0
       0        0        0

-1.591896e+05 1.119363e+05        0
1.119363e+05 -1.183359e+05        0
       0        0        0

-1.930733e+05 8.873286e+04        0
8.873286e+04 -1.201362e+05        0
       0        0        0

-2.331278e+05 5.637209e+04        0
5.637209e+04 -1.207525e+05        0
       0        0        0

-2.773664e+05 1.909865e+04        0
1.909865e+04 -1.200521e+05        0
       0        0        0

5.231874e+02 1.710271e+04        0
1.710271e+04 -1.199683e+05        0
       0        0        0

-4.055900e+04 5.592265e+04        0
5.592265e+04 -1.183223e+05        0
       0        0        0

-7.064224e+04 9.001307e+04        0
9.001307e+04 -1.192608e+05        0
       0        0        0

-9.160225e+04 1.128998e+05        0
1.128998e+05 -1.193451e+05        0
       0        0        0

-1.084793e+05 1.240404e+05        0
1.240404e+05 -1.176209e+05        0
       0        0        0

-1.246149e+05 1.240392e+05        0
1.240392e+05 -1.154734e+05        0
       0        0        0

-1.424954e+05 1.128964e+05        0
1.128964e+05 -1.147534e+05        0
       0        0        0

-1.653497e+05 9.000769e+04        0
9.000769e+04 -1.167341e+05        0
       0        0        0

-1.979384e+05 5.591692e+04        0
5.591692e+04 -1.201833e+05        0
       0        0        0

-2.416132e+05 1.710010e+04        0
1.710010e+04 -1.211410e+05        0
       0        0        0

-3.838756e+04 1.780089e+04        0
1.780089e+04 -1.241547e+05        0
       0        0        0

-8.056431e+04 6.133461e+04        0
6.133461e+04 -1.329179e+05        0
       0        0        0

-9.823377e+04 9.241439e+04        0
9.241439e+04 -1.376493e+05        0
       0        0        0

-1.069299e+05 1.101518e+05        0
1.101518e+05 -1.330247e+05        0
       0        0        0

-1.134903e+05 1.182691e+05        0
1.182691e+05 -1.226657e+05        0
       0        0        0

-1.199857e+05 1.182695e+05        0
1.182695e+05 -1.108102e+05        0
       0        0        0

-1.278480e+05 1.101525e+05        0
1.101525e+05 -1.017531e+05        0
       0        0        0

-1.390687e+05 9.241419e+04        0
9.241419e+04 -9.965329e+04        0
       0        0        0

-1.602170e+05 6.133242e+04        0
6.133242e+04 -1.078653e+05        0
       0        0        0

-2.060740e+05 1.779909e+04        0
1.779909e+04 -1.203165e+05        0
       0        0        0

-9.041227e+04 4.054631e+04        0
4.054631e+04 -1.562833e+05        0
       0        0        0

-1.138421e+05 7.593486e+04        0
7.593486e+04 -1.858539e+05        0
       0        0        0

-1.150718e+05 8.920336e+04        0
8.920336e+04 -1.817339e+05        0
       0        0        0

-1.153875e+05 9.571255e+04        0
9.571255e+04 -1.608397e+05        0
       0        0        0

-1.157489e+05 9.856239e+04        0
9.856239e+04 -1.317915e+05        0
       0        0        0

-1.168366e+05 9.856429e+04        0
9.856429e+04 -1.007938e+05        0
       0        0        0

-1.188659e+05 9.571771e+04        0
9.571771e+04 -7.341100e+04        0
       0        0        0

-1.225609e+05 8.921016e+04        0
8.921016e+04 -5.589328e+04        0
       0        0        0

-1.289065e+05 7.594047e+04        0
7.594047e+04 -5.688864e+04        0
       0        0        0

-1.586523e+05 4.054609e+04        0
4.054609e+04 -9.278138e+04        0
       0        0        0

POINT_DATA     451
VECTORS DISPLACEMENT_5.400000e-01 double
0.000000e+00    0.000000e+00    0.000000e+00
0.000000e+00    0.000000e+00    0.000000e+00
0.000000e+00    0.000000e+00    0.000000e+00
0.000000e+00    0.000000e+00    0.000000e+00
0.000000e+00    0.000000e+00    0.000000e+00
0.000000e+00    0.000000e+00    0.000000e+00
0.000000e+00    0.000000e+00    0.000000e+00
0.000000e+00    0.000000e+00    0.000000e+00
0.000000e+00    0.000000e+00    0.000000e+00
0.000000e+00    0.000000e+00    0.000000e+00
0.000000e+00    0.000000e+00    0.000000e+00
-1.141595e-06    -8.299605e-07    0.000000e+00
-7.233448e-07    -4.163094e-07    0.000000e+00
-5.161144e-07    -2.157261e-07    0.000000e+00
-3.332233e-07    -1.068318e-07    0.000000e+00
-1.642863e-07    -5.047426e-08    0.000000e+00
-3.657657e-20    -3.295145e-08    0.000000e+00
1.642863e-07    -5.047426e-08    0.000000e+00
3.332233e-07    -1.068318e-07    0.000000e+00
5.161144e-07    -2.157261e-07    0.000000e+00
7.233448e-07    -4.163094e-07    0.000000e+00
1.141595e-06    -8.299605e-07    0.000000e+00
-2.153941e-06    -1.380309e-06    0.000000e+00
-1.574436e-06    -9.987668e-07    0.000000e+00
-1.105093e-06    -7.015532e-07    0.000000e+00
-7.128292e-07    -5.177059e-07    0.000000e+00
-3.501023e-07    -4.175298e-07    0.000000e+00
-7.736455e-20    -3.857102e-07    0.000000e+00
3.501023e-07    -4.175298e-07    0.000000e+00
7.128292e-07    -5.177059e-07    0.000000e+00
1.105093e-06    -7.015532e-07    0.000000e+00
1.574436e-06    -9.987668e-07    0.000000e+00
2.153941e-06    -1.380309e-06    0.000000e+00
-3.132427e-06    -2.064634e-06    0.000000e+00
-2.394168e-06    -1.682257e-06    0.000000e+00
-1.722702e-06    -1.380761e-06    0.000000e+00
-1.115240e-06    -1.168096e-06    0.000000e+00
-5.487489e-07    -1.045521e-06    0.000000e+00
-1.217775e-19    -1.005593e-06    0.000000e+00
5.487489e-07    -1.045521e-06    0.000000e+00
1.115240e-06    -1.168096e-06    0.000000e+00
1.722702e-06    -1.380761e-06    0.000000e+00
2.394168e-06    -1.682257e-06    0.000000e+00
3.132427e-06    -2.064634e-06    0.000000e+00
-4.100076e-06    -2.909172e-06    0.000000e+00
-3.186876e-06    -2.535522e-06    0.000000e+00
-2.326958e-06    -2.239053e-06    0.000000e+00
-1.519408e-06    -2.025105e-06    0.000000e+00
-7.500557e-07    -1.896684e-06    0.000000e+00
-1.679309e-19    -1.854101e-06    0.000000e+00
7.500557e-07    -1.896684e-06    0.000000e+00
1.519408e-06    -2.025105e-06    0.000000e+00
2.326958e-06    -2.239053e-06    0.000000e+00
3.186876e-06    -2.535522e-06    0.000000e+00
4.100076e-06    -2.909172e-06    0.000000e+00
-5.051341e-06    -3.936654e-06    0.000000e+00
-3.956477e-06    -3.571725e-06    0.000000e+00
-2.911986e-06    -3.284208e-06    0.000000e+00
-1.912865e-06    -3.075889e-06    0.000000e+00
-9.475500e-07    -2.949778e-06    0.000000e+00
-2.155699e-19    -2.907564e-06    0.000000e+00
9.475500e-07    -2.949778e-06    0.000000e+00
1.912865e-06    -3.075889e-06    0.000000e+00
2.911986e-06    -3.284208e-06    0.000000e+00
3.956477e-06    -3.571725e-06    0.000000e+00
5.051341e-06    -3.936654e-06    0.000000e+00
-5.981873e-06    -5.149742e-06    0.000000e+00
-4.704513e-06    -4.794468e-06    0.000000e+00
-3.477740e-06    -4.516043e-06    0.000000e+00
-2.292922e-06    -4.315096e-06    0.000000e+00
-1.138484e-06    -4.193469e-06    0.000000e+00
-2.645390e-19    -4.152740e-06    0.000000e+00
1.138484e-06    -4.193469e-06    0.000000e+00
2.292922e-06    -4.315096e-06    0.000000e+00
3.477740e-06    -4.516043e-06    0.000000e+00
4.704513e-06    -4.794468e-06    0.000000e+00
5.981873e-06    -5.149742e-06    0.000000e+00
-6.888558e-06    -6.546376e-06    0.000000e+00
-5.431254e-06    -6.201154e-06    0.000000e+00
-4.025294e-06    -5.931590e-06    0.000000e+00
-2.659769e-06    -5.737829e-06    0.000000e+00
-1.322562e-06    -5.620886e-06    0.000000e+00
-3.111787e-19    -5.581769e-06    0.000000e+00
1.322562e-06    -5.620886e-06    0.000000e+00
2.659769e-06    -5.737829e-06    0.000000e+00
4.025294e-06    -5.931590e-06    0.000000e+00
5.431254e-06    -6.201154e-06    0.000000e+00
6.888558e-06    -6.546376e-06    0.000000e+00
-7.769676e-06    -8.122139e-06    0.000000e+00
-6.136609e-06    -7.787205e-06    0.000000e+00
-4.555509e-06    -7.526210e-06    0.000000e+00
-3.014226e-06    -7.339157e-06    0.000000e+00
-1.500173e-06    -7.226543e-06    0.000000e+00
-3.564156e-19    -7.188927e-06    0.000000e+00
1.500173e-06    -7.226543e-06    0.000000e+00
3.014226e-06    -7.339157e-06    0.000000e+00
4.555509e-06    -7.526210e-06    0.000000e+00
6.136609e-06    -7.787205e-06    0.000000e+00
7.769676e-06    -8.122139e-06    0.000000e+00
-8.624338e-06    -9.871838e-06    0.000000e+00
-6.820449e-06    -9.547301e-06    0.000000e+00
-5.068913e-06    -9.294676e-06    0.000000e+00
-3.356973e-06    -9.113935e-06    0.000000e+00
-1.671744e-06    -9.005300e-06    0.000000e+00
-4.033994e-19    -8.969049e-06    0.000000e+00
1.671744e-06    -9.005300e-06    0.000000e+00
3.356973e-06    -9.113935e-06    0.000000e+00
5.068913e-06    -9.294676e-06    0.000000e+00
6.820449e-06    -9.547301e-06    0.000000e+00
8.624338e-06    -9.871838e-06    0.000000e+00
-9.452128e-06    -1.179002e-05    0.000000e+00
-7.482678e-06    -1.147593e-05    0.000000e+00
-5.565791e-06    -1.123156e-05    0.000000e+00
-3.688437e-06    -1.105688e-05    0.000000e+00
-1.837569e-06    -1.095199e-05    0.000000e+00
-4.516274e-19    -1.091701e-05    0.000000e+00
1.837569e-06    -1.095199e-05    0.000000e+00
3.688437e-06    -1.105688e-05    0.000000e+00
5.565791e-06    -1.123156e-05    0.000000e+00
7.482678e-06    -1.147593e-05    0.000000e+00
9.452128e-06    -1.179002e-05    0.000000e+00
-1.025287e-05    -1.387120e-05    0.000000e+00
-8.123242e-06    -1.356758e-05    0.000000e+00
-6.046283e-06    -1.333140e-05    0.000000e+00
-4.008850e-06    -1.316265e-05    0.000000e+00
-1.997814e-06    -1.306137e-05    0.000000e+00
-4.932379e-19    -1.302760e-05    0.000000e+00
1.997814e-06    -1.306137e-05    0.000000e+00
4.008850e-06    -1.316265e-05    0.000000e+00
6.046283e-06    -1.333140e-05    0.000000e+00
8.123242e-06    -1.356758e-05    0.000000e+00
1.025287e-05    -1.387120e-05    0.000000e+00
-1.102648e-05    -1.610989e-05    0.000000e+00
-8.742113e-06    -1.581673e-05    0.000000e+00
-6.510452e-06    -1.558872e-05    0.000000e+00
-4.318325e-06    -1.542583e-05    0.000000e+00
-2.152566e-06    -1.532809e-05    0.000000e+00
-5.347425e-19    -1.529550e-05    0.000000e+00
2.152566e-06    -1.532809e-05    0.000000e+00
4.318325e-06    -1.542583e-05    0.000000e+00
6.510452e-06    -1.558872e-05    0.000000e+00
8.742113e-06    -1.581673e-05    0.000000e+00
1.102648e-05    -1.610989e-05    0.000000e+00
-1.177296e-05    -1.850062e-05    0.000000e+00
-9.339276e-06    -1.821793e-05    0.000000e+00
-6.958324e-06    -1.799806e-05    0.000000e+00
-4.616914e-06    -1.784101e-05    0.000000e+00
-2.301865e-06    -1.774678e-05    0.000000e+00
-5.833939e-19    -1.771537e-05    0.000000e+00
2.301865e-06    -1.774678e-05    0.000000e+00
4.616914e-06    -1.784101e-05    0.000000e+00
6.958324e-06    -1.799806e-05    0.000000e+00
9.339276e-06    -1.821793e-05    0.000000e+00
1.177296e-05    -1.850062e-05    0.000000e+00
-1.249228e-05    -2.103794e-05    0.000000e+00
-9.914727e-06    -2.076572e-05    0.000000e+00
-7.389909e-06    -2.055400e-05    0.000000e+00
-4.904637e-06    -2.040277e-05    0.000000e+00
-2.445728e-06    -2.031204e-05    0.000000e+00
-6.129342e-19    -2.028179e-05    0.000000e+00
2.445728e-06    -2.031204e-05    0.000000e+00
4.904637e-06    -2.040277e-05    0.000000e+00
7.389909e-06    -2.055400e-05    0.000000e+00
9.914727e-06    -2.076572e-05    0.000000e+00
1.249228e-05    -2.103794e-05    0.000000e+00
-1.318446e-05    -2.371642e-05    0.000000e+00
-1.046846e-05    -2.345467e-05    0.000000e+00
-7.805208e-06    -2.325109e-05    0.000000e+00
-5.181501e-06    -2.310568e-05    0.000000e+00
-2.584160e-06    -2.301844e-05    0.000000e+00
-6.405687e-19    -2.298935e-05    0.000000e+00
2.584160e-06    -2.301844e-05    0.000000e+00
5.181501e-06    -2.310568e-05    0.000000e+00
7.805208e-06    -2.325109e-05    0.000000e+00
1.046846e-05    -2.345467e-05    0.000000e+00
1.318446e-05    -2.371642e-05    0.000000e+00
-1.384949e-05    -2.653062e-05    0.000000e+00
-1.100049e-05    -2.627934e-05    0.000000e+00
-8.204222e-06    -2.608391e-05    0.000000e+00
-5.447509e-06    -2.594431e-05    0.000000e+00
-2.717163e-06    -2.586055e-05    0.000000e+00
-6.629092e-19    -2.583264e-05    0.000000e+00
2.717163e-06    -2.586055e-05    0.000000e+00
5.447509e-06    -2.594431e-05    0.000000e+00
8.204222e-06    -2.608391e-05    0.000000e+00
1.100049e-05    -2.627934e-05    0.000000e+00
1.384949e-05    -2.653062e-05    0.000000e+00
-1.448737e-05    -2.947511e-05    0.000000e+00
-1.151079e-05    -2.923430e-05    0.000000e+00
-8.586950e-06    -2.904701e-05    0.000000e+00
-5.702661e-06    -2.891323e-05    0.000000e+00
-2.844739e-06    -2.883296e-05    0.000000e+00
-6.700031e-19    -2.880621e-05    0.000000e+00
2.844739e-06    -2.883296e-05    0.000000e+00
5.702661e-06    -2.891323e-05    0.000000e+00
8.586950e-06    -2.904701e-05    0.000000e+00
1.151079e-05    -2.923430e-05    0.000000e+00
1.448737e-05    -2.947511e-05    0.000000e+00
-1.509811e-05    -3.254446e-05    0.000000e+00
-1.199938e-05    -3.231413e-05    0.000000e+00
-8.953392e-06    -3.213498e-05    0.000000e+00
-5.946955e-06    -3.200701e-05    0.000000e+00
-2.966886e-06    -3.193024e-05    0.000000e+00
-6.898025e-19    -3.190464e-05    0.000000e+00
2.966886e-06    -3.193024e-05    0.000000e+00
5.946955e-06    -3.200701e-05    0.000000e+00
8.953392e-06    -3.213498e-05    0.000000e+00
1.199938e-05    -3.231413e-05    0.000000e+00
1.509811e-05    -3.254446e-05    0.000000e+00
-1.568170e-05    -3.573325e-05    0.000000e+00
-1.246626e-05    -3.551338e-05    0.000000e+00
-9.303549e-06    -3.534238e-05    0.000000e+00
-6.180392e-06    -3.522023e-05    0.000000e+00
-3.083604e-06    -3.514694e-05    0.000000e+00
-7.205074e-19    -3.512251e-05    0.000000e+00
3.083604e-06    -3.514694e-05    0.000000e+00
6.180392e-06    -3.522023e-05    0.000000e+00
9.303549e-06    -3.534238e-05    0.000000e+00
1.246626e-05    -3.551338e-05    0.000000e+00
1.568170e-05    -3.573325e-05    0.000000e+00
-1.623815e-05    -3.903604e-05    0.000000e+00
-1.291142e-05    -3.882665e-05    0.000000e+00
-9.637419e-06    -3.866378e-05    0.000000e+00
-6.402972e-06    -3.854745e-05    0.000000e+00
-3.194894e-06    -3.847765e-05    0.000000e+00
-7.699529e-19    -3.845439e-05    0.000000e+00
3.194894e-06    -3.847765e-05    0.000000e+00
6.402972e-06    -3.854745e-05    0.000000e+00
9.637419e-06    -3.866378e-05    0.000000e+00
1.291142e-05    -3.882665e-05    0.000000e+00
1.623815e-05    -3.903604e-05    0.000000e+00
-1.676746e-05    -4.244741e-05    0.000000e+00
-1.333486e-05    -4.224848e-05    0.000000e+00
-9.955003e-06    -4.209376e-05    0.000000e+00
-6.614695e-06    -4.198325e-05    0.000000e+00
-3.300755e-06    -4.191694e-05    0.000000e+00
-8.375038e-19    -4.189484e-05    0.000000e+00
3.300755e-06    -4.191694e-05    0.000000e+00
6.614695e-06    -4.198325e-05    0.000000e+00
9.955003e-06    -4.209376e-05    0.000000e+00
1.333486e-05    -4.224848e-05    0.000000e+00
1.676746e-05    -4.244741e-05    0.000000e+00
-1.726962e-05    -4.596192e-05    0.000000e+00
-1.373659e-05    -4.577347e-05    0.000000e+00
-1.025630e-05    -4.562689e-05    0.000000e+00
-6.815560e-06    -4.552219e-05    0.000000e+00
-3.401188e-06    -4.545937e-05    0.000000e+00
-8.874788e-19    -4.543843e-05    0.000000e+00
3.401188e-06    -4.545937e-05    0.000000e+00
6.815560e-06    -4.552219e-05    0.000000e+00
1.025630e-05    -4.562689e-05    0.000000e+00
1.373659e-05    -4.577347e-05    0.000000e+00
1.726962e-05    -4.596192e-05    0.000000e+00
-1.774464e-05    -4.957415e-05    0.000000e+00
-1.411661e-05    -4.939617e-05    0.000000e+00
-1.054131e-05    -4.925773e-05    0.000000e+00
-7.005568e-06    -4.915885e-05    0.000000e+00
-3.496192e-06    -4.909952e-05    0.000000e+00
-9.209366e-19    -4.907975e-05    0.000000e+00
3.496192e-06    -4.909952e-05    0.000000e+00
7.005568e-06    -4.915885e-05    0.000000e+00
1.054131e-05    -4.925773e-05    0.000000e+00
1.411661e-05    -4.939617e-05    0.000000e+00
1.774464e-05    -4.957415e-05    0.000000e+00
-1.819252e-05    -5.327868e-05    0.000000e+00
-1.447491e-05    -5.311116e-05    0.000000e+00
-1.081004e-05    -5.298087e-05    0.000000e+00
-7.184718e-06    -5.288780e-05    0.000000e+00
-3.585767e-06    -5.283196e-05    0.000000e+00
-9.613824e-19    -5.281335e-05    0.000000e+00
3.585767e-06    -5.283196e-05    0.000000e+00
7.184718e-06    -5.288780e-05    0.000000e+00
1.081004e-05    -5.298087e-05    0.000000e+00
1.447491e-05    -5.311116e-05    0.000000e+00
1.819252e-05    -5.327868e-05    0.000000e+00
-1.861325e-05    -5.707006e-05    0.000000e+00
-1.481149e-05    -5.691301e-05    0.000000e+00
-1.106248e-05    -5.679086e-05    0.000000e+00
-7.353011e-06    -5.670361e-05    0.000000e+00
-3.669914e-06    -5.665126e-05    0.000000e+00
-9.774760e-19    -5.663381e-05    0.000000e+00
3.669914e-06    -5.665126e-05    0.000000e+00
7.353011e-06    -5.670361e-05    0.000000e+00
1.106248e-05    -5.679086e-05    0.000000e+00
1.481149e-05    -5.691301e-05    0.000000e+00
1.861325e-05    -5.707006e-05    0.000000e+00
-1.900683e-05    -6.094287e-05    0.000000e+00
-1.512636e-05    -6.079629e-05    0.000000e+00
-1.129863e-05    -6.068229e-05    0.000000e+00
-7.510448e-06    -6.060086e-05    0.000000e+00
-3.748633e-06    -6.055200e-05    0.000000e+00
-9.927226e-19    -6.053571e-05    0.000000e+00
3.748633e-06    -6.055200e-05    0.000000e+00
7.510448e-06    -6.060086e-05    0.000000e+00
1.129863e-05    -6.068229e-05    0.000000e+00
1.512636e-05    -6.079629e-05    0.000000e+00
1.900683e-05    -6.094287e-05    0.000000e+00
-1.937327e-05    -6.489169e-05    0.000000e+00
-1.541952e-05    -6.475558e-05    0.000000e+00
-1.151850e-05    -6.464972e-05    0.000000e+00
-7.657028e-06    -6.457410e-05    0.000000e+00
-3.821923e-06    -6.452873e-05    0.000000e+00
-1.008604e-18    -6.451361e-05    0.000000e+00
3.821923e-06    -6.452873e-05    0.000000e+00
7.657028e-06    -6.457410e-05    0.000000e+00
1.151850e-05    -6.464972e-05    0.000000e+00
1.541952e-05    -6.475558e-05    0.000000e+00
1.937327e-05    -6.489169e-05    0.000000e+00
-1.971256e-05    -6.891107e-05    0.000000e+00
-1.569095e-05    -6.878544e-05    0.000000e+00
-1.172208e-05    -6.868772e-05    0.000000e+00
-7.792750e-06    -6.861792e-05    0.000000e+00
-3.889784e-06    -6.857604e-05    0.000000e+00
-9.967460e-19    -6.856208e-05    0.000000e+00
3.889784e-06    -6.857604e-05    0.000000e+00
7.792750e-06    -6.861792e-05    0.000000e+00
1.172208e-05    -6.868772e-05    0.000000e+00
1.569095e-05    -6.878544e-05    0.000000e+00
1.971256e-05    -6.891107e-05    0.000000e+00
-2.002471e-05    -7.299559e-05    0.000000e+00
-1.594068e-05    -7.288043e-05    0.000000e+00
-1.190938e-05    -7.279086e-05    0.000000e+00
-7.917611e-06    -7.272688e-05    0.000000e+00
-3.952212e-06    -7.268851e-05    0.000000e+00
-9.937814e-19    -7.267572e-05    0.000000e+00
3.952212e-06    -7.268851e-05    0.000000e+00
7.917611e-06    -7.272688e-05    0.000000e+00
1.190938e-05    -7.279086e-05    0.000000e+00
1.594068e-05    -7.288043e-05    0.000000e+00
2.002471e-05    -7.299559e-05    0.000000e+00
-2.030971e-05    -7.713981e-05    0.000000e+00
-1.616869e-05    -7.703511e-05    0.000000e+00
-1.208038e-05    -7.695370e-05    0.000000e+00
-8.031599e-06    -7.689557e-05    0.000000e+00
-4.009198e-06    -7.686071e-05    0.000000e+00
-1.024910e-18    -7.684909e-05    0.000000e+00
4.009198e-06    -7.686071e-05    0.000000e+00
8.031599e-06    -7.689557e-05    0.000000e+00
1.208038e-05    -7.695370e-05    0.000000e+00
1.616869e-05    -7.703511e-05    0.000000e+00
2.030971e-05    -7.713981e-05    0.000000e+00
-2.056757e-05    -8.133827e-05    0.000000e+00
-1.637501e-05    -8.124404e-05    0.000000e+00
-1.223508e-05    -8.117079e-05    0.000000e+00
-8.134685e-06    -8.111855e-05    0.000000e+00
-4.060719e-06    -8.108725e-05    0.000000e+00
-1.070226e-18    -8.107682e-05    0.000000e+00
4.060719e-06    -8.108725e-05    0.000000e+00
8.134685e-06    -8.111855e-05    0.000000e+00
1.223508e-05    -8.117079e-05    0.000000e+00
1.637501e-05    -8.124404e-05    0.000000e+00
2.056757e-05    -8.133827e-05    0.000000e+00
-2.079833e-05    -8.558550e-05    0.000000e+00
-1.655963e-05    -8.550173e-05    0.000000e+00
-1.237344e-05    -8.543669e-05    0.000000e+00
-8.226802e-06    -8.539041e-05    0.000000e+00
-4.106724e-06    -8.536275e-05    0.000000e+00
-1.149424e-18    -8.535356e-05    0.000000e+00
4.106724e-06    -8.536275e-05    0.000000e+00
8.226802e-06    -8.539041e-05    0.000000e+00
1.237344e-05    -8.543669e-05    0.000000e+00
1.655963e-05    -8.550173e-05    0.000000e+00
2.079833e-05    -8.558550e-05    0.000000e+00
-2.100210e-05    -8.987603e-05    0.000000e+00
-1.672261e-05    -8.980269e-05    0.000000e+00
-1.249537e-05    -8.974594e-05    0.000000e+00
-8.307807e-06    -8.970578e-05    0.000000e+00
-4.147107e-06    -8.968192e-05    0.000000e+00
-1.221422e-18    -8.967401e-05    0.000000e+00
4.147107e-06    -8.968192e-05    0.000000e+00
8.307807e-06    -8.970578e-05    0.000000e+00
1.249537e-05    -8.974594e-05    0.000000e+00
1.672261e-05    -8.980269e-05    0.000000e+00
2.100210e-05    -8.987603e-05    0.000000e+00
-2.117912e-05    -9.420439e-05    0.000000e+00
-1.686399e-05    -9.414142e-05    0.000000e+00
-1.260070e-05    -9.409307e-05    0.000000e+00
-8.377428e-06    -9.405931e-05    0.000000e+00
-4.181679e-06    -9.403948e-05    0.000000e+00
-1.251068e-18    -9.403296e-05    0.000000e+00
4.181679e-06    -9.403948e-05    0.000000e+00
8.377428e-06    -9.405931e-05    0.000000e+00
1.260070e-05    -9.409307e-05    0.000000e+00
1.686399e-05    -9.414142e-05    0.000000e+00
2.117912e-05    -9.420439e-05    0.000000e+00
-2.132994e-05    -9.856523e-05    0.000000e+00
-1.698387e-05    -9.851248e-05    0.000000e+00
-1.268909e-05    -9.847276e-05    0.000000e+00
-8.435205e-06    -9.844575e-05    0.000000e+00
-4.210141e-06    -9.843026e-05    0.000000e+00
-1.305701e-18    -9.842523e-05    0.000000e+00
4.210141e-06    -9.843026e-05    0.000000e+00
8.435205e-06    -9.844575e-05    0.000000e+00
1.268909e-05    -9.847276e-05    0.000000e+00
1.698387e-05    -9.851248e-05    0.000000e+00
2.132994e-05    -9.856523e-05    0.000000e+00
-2.145562e-05    -1.029537e-04    0.000000e+00
-1.708235e-05    -1.029109e-04    0.000000e+00
-1.275997e-05    -1.028800e-04    0.000000e+00
-8.480517e-06    -1.028600e-04    0.000000e+00
-4.232143e-06    -1.028489e-04    0.000000e+00
-1.362452e-18    -1.028454e-04    0.000000e+00
4.232143e-06    -1.028489e-04    0.000000e+00
8.480517e-06    -1.028600e-04    0.000000e+00
1.275997e-05    -1.028800e-04    0.000000e+00
1.708235e-05    -1.029109e-04    0.000000e+00
2.145562e-05    -1.029537e-04    0.000000e+00
-2.155817e-05    -1.073660e-04    0.000000e+00
-1.715935e-05    -1.073327e-04    0.000000e+00
-1.281258e-05    -1.073105e-04    0.000000e+00
-8.512904e-06    -1.072970e-04    0.000000e+00
-4.247579e-06    -1.072895e-04    0.000000e+00
-1.298502e-18    -1.072870e-04    0.000000e+00
4.247579e-06    -1.072895e-04    0.000000e+00
8.512904e-06    -1.072970e-04    0.000000e+00
1.281258e-05    -1.073105e-04    0.000000e+00
1.715935e-05    -1.073327e-04    0.000000e+00
2.155817e-05    -1.073660e-04    0.000000e+00
-2.164067e-05    -1.118022e-04    0.000000e+00
-1.721429e-05    -1.117772e-04    0.000000e+00
-1.284670e-05    -1.117621e-04    0.000000e+00
-8.533270e-06    -1.117511e-04    0.000000e+00
-4.257281e-06    -1.117436e-04    0.000000e+00
-1.204481e-18    -1.117409e-04    0.000000e+00
4.257281e-06    -1.117436e-04    0.000000e+00
8.533270e-06    -1.117511e-04    0.000000e+00
1.284670e-05    -1.117621e-04    0.000000e+00
1.721429e-05    -1.117772e-04    0.000000e+00
2.164067e-05    -1.118022e-04    0.000000e+00
-2.170513e-05    -1.162704e-04    0.000000e+00
-1.724615e-05    -1.162523e-04    0.000000e+00
-1.286626e-05    -1.162338e-04    0.000000e+00
-8.546206e-06    -1.162132e-04    0.000000e+00
-4.263865e-06    -1.161978e-04    0.000000e+00
-1.195163e-18    -1.161922e-04    0.000000e+00
4.263865e-06    -1.161978e-04    0.000000e+00
8.546206e-06    -1.162132e-04    0.000000e+00
1.286626e-05    -1.162338e-04    0.000000e+00
1.724615e-05    -1.162523e-04    0.000000e+00
2.170513e-05    -1.162704e-04    0.000000e+00
-2.173924e-05    -1.208105e-04    0.000000e+00
-1.726634e-05    -1.207758e-04    0.000000e+00
-1.288608e-05    -1.207173e-04    0.000000e+00
-8.561321e-06    -1.206645e-04    0.000000e+00
-4.272039e-06    -1.206293e-04    0.000000e+00
-1.199399e-18    -1.206170e-04    0.000000e+00
4.272039e-06    -1.206293e-04    0.000000e+00
8.561321e-06    -1.206645e-04    0.000000e+00
1.288608e-05    -1.207173e-04    0.000000e+00
1.726634e-05    -1.207758e-04    0.000000e+00
2.173924e-05    -1.208105e-04    0.000000e+00

CELL_DATA      400
TENSORS Element_Stress5.400000e-01 double
1.820598e+06 2.551812e+05        0
2.551812e+05 4.163488e+05        0
       0        0        0

1.243720e+06 1.308538e+05        0
1.308538e+05 3.566178e+05        0
       0        0        0

8.651185e+05 4.301032e+04        0
4.301032e+04 2.749959e+05        0
       0        0        0

5.100063e+05 -3.578363e+03        0
-3.578363e+03 1.690094e+05        0
       0        0        0

1.688541e+05 -2.488323e+04        0
-2.488323e+04 5.694968e+04        0
       0        0        0

-1.688184e+05 -2.487711e+04        0
-2.487711e+04 -5.695775e+04        0
       0        0        0

-5.095306e+05 -3.579112e+03        0
-3.579112e+03 -1.688447e+05        0
       0        0        0

-8.637077e+05 4.293851e+04        0
4.293851e+04 -2.744671e+05        0
       0        0        0

-1.240734e+06 1.305652e+05        0
1.305652e+05 -3.554740e+05        0
       0        0        0

-1.814375e+06 2.543707e+05        0
2.543707e+05 -4.141970e+05        0
       0        0        0

1.642070e+06 4.159748e+04        0
4.159748e+04 4.234799e+03        0
       0        0        0

1.322354e+06 1.206454e+05        0
1.206454e+05 1.286843e+05        0
       0        0        0

9.082521e+05 9.900755e+04        0
9.900755e+04 1.315191e+05        0
       0        0        0

5.364025e+05 7.580678e+04        0
7.580678e+04 9.193311e+04        0
       0        0        0

1.768172e+05 6.321707e+04        0
6.321707e+04 3.207757e+04        0
       0        0        0

-1.778550e+05 6.319873e+04        0
6.319873e+04 -3.316896e+04        0
       0        0        0

-5.369363e+05 7.574133e+04        0
7.574133e+04 -9.284490e+04        0
       0        0        0

-9.077061e+05 9.886737e+04        0
9.886737e+04 -1.320379e+05        0
       0        0        0

-1.319830e+06 1.204079e+05        0
1.204079e+05 -1.284324e+05        0
       0        0        0

-1.637466e+06 4.151082e+04        0
4.151082e+04 -3.136555e+03        0
       0        0        0

1.584953e+06 1.541639e+04        0
1.541639e+04 6.615316e+03        0
       0        0        0

1.271591e+06 6.833109e+04        0
6.833109e+04 1.757728e+04        0
       0        0        0

9.146413e+05 1.015639e+05        0
1.015639e+05 4.237686e+04        0
       0        0        0

5.430826e+05 1.074765e+05        0
1.074765e+05 3.592346e+04        0
       0        0        0

1.791459e+05 1.074054e+05        0
1.074054e+05 1.272037e+04        0
       0        0        0

-1.824790e+05 1.073775e+05        0
1.073775e+05 -1.611190e+04        0
       0        0        0

-5.458838e+05 1.073933e+05        0
1.073933e+05 -3.912503e+04        0
       0        0        0

-9.163117e+05 1.014348e+05        0
1.014348e+05 -4.515293e+04        0
       0        0        0

-1.271565e+06 6.821622e+04        0
6.821622e+04 -1.966893e+04        0
       0        0        0

-1.582978e+06 1.538448e+04        0
1.538448e+04 -7.911807e+03        0
       0        0        0

1.546129e+06 1.427370e+04        0
1.427370e+04 -3.975752e+03        0
       0        0        0

1.226683e+06 5.548208e+04        0
5.548208e+04 -1.953361e+03        0
       0        0        0

8.865538e+05 9.245024e+04        0
9.245024e+04 2.933168e+03        0
       0        0        0

5.331314e+05 1.146030e+05        0
1.146030e+05 5.877770e+03        0
       0        0        0

1.753740e+05 1.233579e+05        0
1.233579e+05 6.880625e+02        0
       0        0        0

-1.820438e+05 1.233283e+05        0
1.233283e+05 -7.415933e+03        0
       0        0        0

-5.392752e+05 1.145213e+05        0
1.145213e+05 -1.241206e+04        0
       0        0        0

-8.916350e+05 9.234262e+04        0
9.234262e+04 -9.058365e+03        0
       0        0        0

-1.230189e+06 5.539388e+04        0
5.539388e+04 -3.528931e+03        0
       0        0        0

-1.547532e+06 1.424568e+04        0
1.424568e+04 -5.504384e+02        0
       0        0        0

1.509427e+06 1.713063e+04        0
1.713063e+04 -5.567249e+03        0
       0        0        0

1.185340e+06 5.448733e+04        0
5.448733e+04 -8.577651e+03        0
       0        0        0

8.541561e+05 8.905469e+04        0
8.905469e+04 -8.329305e+03        0
       0        0        0

5.137340e+05 1.136408e+05        0
1.136408e+05 -6.745280e+03        0
       0        0        0

1.681056e+05 1.258450e+05        0
1.258450e+05 -5.639044e+03        0
       0        0        0

-1.789903e+05 1.258166e+05        0
1.258166e+05 -5.300819e+03        0
       0        0        0

-5.241237e+05 1.135646e+05        0
1.135646e+05 -4.010288e+03        0
       0        0        0

-8.635542e+05 8.895612e+04        0
8.895612e+04 -2.042812e+03        0
       0        0        0

-1.193244e+06 5.440409e+04        0
5.440409e+04 -1.179541e+03        0
       0        0        0

-1.515273e+06 1.709766e+04        0
1.709766e+04 -3.264824e+03        0
       0        0        0

1.469671e+06 1.958963e+04        0
1.958963e+04 -7.911531e+03        0
       0        0        0

1.147077e+06 5.644559e+04        0
5.644559e+04 -1.054799e+04        0
       0        0        0

8.224151e+05 8.838594e+04        0
8.838594e+04 -1.192774e+04        0
       0        0        0

4.928620e+05 1.117722e+05        0
1.117722e+05 -1.113898e+04        0
       0        0        0

1.594065e+05 1.239614e+05        0
1.239614e+05 -9.157848e+03        0
       0        0        0

-1.752704e+05 1.239347e+05        0
1.239347e+05 -6.757342e+03        0
       0        0        0

-5.082716e+05 1.117003e+05        0
1.117003e+05 -4.611022e+03        0
       0        0        0

-8.369138e+05 8.829171e+04        0
8.829171e+04 -3.479956e+03        0
       0        0        0

-1.160194e+06 5.636191e+04        0
5.636191e+04 -4.312364e+03        0
       0        0        0

-1.480879e+06 1.955284e+04        0
1.955284e+04 -6.139554e+03        0
       0        0        0

1.427069e+06 2.114429e+04        0
2.114429e+04 -1.052964e+04        0
       0        0        0

1.109854e+06 5.834958e+04        0
5.834958e+04 -1.236661e+04        0
       0        0        0

7.924051e+05 8.864128e+04        0
8.864128e+04 -1.362108e+04        0
       0        0        0

4.726277e+05 1.103428e+05        0
1.103428e+05 -1.337050e+04        0
       0        0        0

1.506199e+05 1.216735e+05        0
1.216735e+05 -1.181697e+04        0
       0        0        0

-1.721469e+05 1.216483e+05        0
1.216483e+05 -9.757740e+03        0
       0        0        0

-4.937482e+05 1.102742e+05        0
1.102742e+05 -8.067258e+03        0
       0        0        0

-8.127094e+05 8.854973e+04        0
8.854973e+04 -7.533908e+03        0
       0        0        0

-1.128918e+06 5.826553e+04        0
5.826553e+04 -8.339735e+03        0
       0        0        0

-1.444434e+06 2.110561e+04        0
2.110561e+04 -9.528609e+03        0
       0        0        0

1.382471e+06 2.200181e+04        0
2.200181e+04 -1.363722e+04        0
       0        0        0

1.072891e+06 5.961398e+04        0
5.961398e+04 -1.472183e+04        0
       0        0        0

7.635785e+05 8.901007e+04        0
8.901007e+04 -1.557414e+04        0
       0        0        0

4.533125e+05 1.094858e+05        0
1.094858e+05 -1.552412e+04        0
       0        0        0

1.419522e+05 1.200358e+05        0
1.200358e+05 -1.458784e+04        0
       0        0        0

-1.697603e+05 1.200117e+05        0
1.200117e+05 -1.326479e+04        0
       0        0        0

-4.807667e+05 1.094198e+05        0
1.094198e+05 -1.222641e+04        0
       0        0        0

-7.903212e+05 8.892090e+04        0
8.892090e+04 -1.196593e+04        0
       0        0        0

-1.098554e+06 5.953060e+04        0
5.953060e+04 -1.248635e+04        0
       0        0        0

-1.406666e+06 2.196271e+04        0
2.196271e+04 -1.309846e+04        0
       0        0        0

1.336650e+06 2.243103e+04        0
2.243103e+04 -1.712975e+04        0
       0        0        0

1.035846e+06 6.032508e+04        0
6.032508e+04 -1.770734e+04        0
       0        0        0

7.353690e+05 8.928001e+04        0
8.928001e+04 -1.819357e+04        0
       0        0        0

4.345842e+05 1.090314e+05        0
1.090314e+05 -1.820574e+04        0
       0        0        0

1.333510e+05 1.190751e+05        0
1.190751e+05 -1.770719e+04        0
       0        0        0

-1.679948e+05 1.190519e+05        0
1.190519e+05 -1.697818e+04        0
       0        0        0

-4.689286e+05 1.089678e+05        0
1.089678e+05 -1.641605e+04        0
       0        0        0

-7.691116e+05 8.919329e+04        0
8.919329e+04 -1.629667e+04        0
       0        0        0

-1.068676e+06 6.024325e+04        0
6.024325e+04 -1.657480e+04        0
       0        0        0

-1.368246e+06 2.239236e+04        0
2.239236e+04 -1.685617e+04        0
       0        0        0

1.290108e+06 2.262769e+04        0
2.262769e+04 -2.093370e+04        0
       0        0        0

9.986145e+05 6.068320e+04        0
6.068320e+04 -2.119241e+04        0
       0        0        0

7.073840e+05 8.943847e+04        0
8.943847e+04 -2.142407e+04        0
       0        0        0

4.161153e+05 1.088122e+05        0
1.088122e+05 -2.143279e+04        0
       0        0        0

1.247137e+05 1.185759e+05        0
1.185759e+05 -2.118594e+04        0
       0        0        0

-1.666835e+05 1.185536e+05        0
1.185536e+05 -2.082274e+04        0
       0        0        0

-4.578408e+05 1.087507e+05        0
1.087507e+05 -2.055219e+04        0
       0        0        0

-7.486181e+05 8.935433e+04        0
8.935433e+04 -2.051028e+04        0
       0        0        0

-1.039104e+06 6.060345e+04        0
6.060345e+04 -2.065826e+04        0
       0        0        0

-1.329592e+06 2.258991e+04        0
2.258991e+04 -2.079207e+04        0
       0        0        0

1.243138e+06 2.270943e+04        0
2.270943e+04 -2.498210e+04        0
       0        0        0

9.611829e+05 6.084707e+04        0
6.084707e+04 -2.504187e+04        0
       0        0        0

6.794119e+05 8.952007e+04        0
8.952007e+04 -2.510676e+04        0
       0        0        0

3.976942e+05 1.087151e+05        0
1.087151e+05 -2.508705e+04        0
       0        0        0

1.159751e+05 1.183403e+05        0
1.183403e+05 -2.496213e+04        0
       0        0        0

-1.656966e+05 1.183187e+05        0
1.183187e+05 -2.479576e+04        0
       0        0        0

-4.472257e+05 1.086557e+05        0
1.086557e+05 -2.468699e+04        0
       0        0        0

-7.285608e+05 8.943859e+04        0
8.943859e+04 -2.469694e+04        0
       0        0        0

-1.009752e+06 6.076971e+04        0
6.076971e+04 -2.480000e+04        0
       0        0        0

-1.290922e+06 2.267274e+04        0
2.267274e+04 -2.489961e+04        0
       0        0        0

1.195902e+06 2.273919e+04        0
2.273919e+04 -2.922324e+04        0
       0        0        0

9.235708e+05 6.091458e+04        0
6.091458e+04 -2.915047e+04        0
       0        0        0

6.513590e+05 8.955767e+04        0
8.955767e+04 -2.910387e+04        0
       0        0        0

3.792147e+05 1.086759e+05        0
1.086759e+05 -2.904718e+04        0
       0        0        0

1.071092e+05 1.182389e+05        0
1.182389e+05 -2.896999e+04        0
       0        0        0

-1.649443e+05 1.182180e+05        0
1.182180e+05 -2.889900e+04        0
       0        0        0

-4.369126e+05 1.086185e+05        0
1.086185e+05 -2.887696e+04        0
       0        0        0

-7.087800e+05 8.947891e+04        0
8.947891e+04 -2.892824e+04        0
       0        0        0

-9.805709e+05 6.083975e+04        0
6.083975e+04 -2.903784e+04        0
       0        0        0

-1.252330e+06 2.270369e+04        0
2.270369e+04 -2.916302e+04        0
       0        0        0

1.148491e+06 2.274763e+04        0
2.274763e+04 -3.361527e+04        0
       0        0        0

8.858087e+05 6.093851e+04        0
6.093851e+04 -3.344415e+04        0
       0        0        0

6.231974e+05 8.957284e+04        0
8.957284e+04 -3.331675e+04        0
       0        0        0

3.606384e+05 1.086618e+05        0
1.086618e+05 -3.322145e+04        0
       0        0        0

9.811734e+04 1.181997e+05        0
1.181997e+05 -3.315416e+04        0
       0        0        0

-1.643651e+05 1.181796e+05        0
1.181796e+05 -3.312513e+04        0
       0        0        0

-4.268000e+05 1.086064e+05        0
1.086064e+05 -3.315081e+04        0
       0        0        0

-6.891844e+05 8.949683e+04        0
8.949683e+04 -3.323922e+04        0
       0        0        0

-9.515284e+05 6.086627e+04        0
6.086627e+04 -3.338182e+04        0
       0        0        0

-1.213844e+06 2.271337e+04        0
2.271337e+04 -3.356049e+04        0
       0        0        0

1.100960e+06 2.274841e+04        0
2.274841e+04 -3.812278e+04        0
       0        0        0

8.479289e+05 6.094459e+04        0
6.094459e+04 -3.787019e+04        0
       0        0        0

5.949322e+05 8.957762e+04        0
8.957762e+04 -3.767803e+04        0
       0        0        0

3.419635e+05 1.086573e+05        0
1.086573e+05 -3.754494e+04        0
       0        0        0

8.901558e+04 1.181867e+05        0
1.181867e+05 -3.747027e+04        0
       0        0        0

-1.639142e+05 1.181674e+05        0
1.181674e+05 -3.745768e+04        0
       0        0        0

-4.168253e+05 1.086039e+05        0
1.086039e+05 -3.751247e+04        0
       0        0        0

-6.697180e+05 8.950436e+04        0
8.950436e+04 -3.763608e+04        0
       0        0        0

-9.225952e+05 6.087498e+04        0
6.087498e+04 -3.782343e+04        0
       0        0        0

-1.175457e+06 2.271539e+04        0
2.271539e+04 -3.806658e+04        0
       0        0        0

1.053347e+06 2.274703e+04        0
2.274703e+04 -4.271420e+04        0
       0        0        0

8.099626e+05 6.094429e+04        0
6.094429e+04 -4.238866e+04        0
       0        0        0

5.665832e+05 8.957803e+04        0
8.957803e+04 -4.214000e+04        0
       0        0        0

3.232060e+05 1.086559e+05        0
1.086559e+05 -4.197068e+04        0
       0        0        0

7.982720e+04 1.181835e+05        0
1.181835e+05 -4.188171e+04        0
       0        0        0

-1.635563e+05 1.181649e+05        0
1.181649e+05 -4.187447e+04        0
       0        0        0

-4.069457e+05 1.086046e+05        0
1.086046e+05 -4.195008e+04        0
       0        0        0

-6.503417e+05 8.950753e+04        0
8.950753e+04 -4.210767e+04        0
       0        0        0

-8.937438e+05 6.087730e+04        0
6.087730e+04 -4.234382e+04        0
       0        0        0

-1.137148e+06 2.271526e+04        0
2.271526e+04 -4.265429e+04        0
       0        0        0

1.005683e+06 2.274539e+04        0
2.274539e+04 -4.736038e+04        0
       0        0        0

7.719394e+05 6.094219e+04        0
6.094219e+04 -4.696667e+04        0
       0        0        0

5.381756e+05 8.957681e+04        0
8.957681e+04 -4.666608e+04        0
       0        0        0

3.043894e+05 1.086553e+05        0
1.086553e+05 -4.646218e+04        0
       0        0        0

7.057816e+04 1.181832e+05        0
1.181832e+05 -4.635676e+04        0
       0        0        0

-1.632605e+05 1.181653e+05        0
1.181653e+05 -4.635058e+04        0
       0        0        0

-3.971278e+05 1.086060e+05        0
1.086060e+05 -4.644347e+04        0
       0        0        0

-6.310240e+05 8.950907e+04        0
8.950907e+04 -4.663394e+04        0
       0        0        0

-8.649473e+05 6.087783e+04        0
6.087783e+04 -4.691929e+04        0
       0        0        0

-1.098893e+06 2.271487e+04        0
2.271487e+04 -4.729637e+04        0
       0        0        0

9.579955e+05 2.274400e+04        0
2.274400e+04 -5.203381e+04        0
       0        0        0

7.338873e+05 6.093989e+04        0
6.093989e+04 -5.157525e+04        0
       0        0        0

5.097360e+05 8.957508e+04        0
8.957508e+04 -5.122566e+04        0
       0        0        0

2.855393e+05 1.086546e+05        0
1.086546e+05 -5.098880e+04        0
       0        0        0

6.129495e+04 1.181835e+05        0
1.181835e+05 -5.086675e+04        0
       0        0        0

-1.629989e+05 1.181663e+05        0
1.181663e+05 -5.086025e+04        0
       0        0        0

-3.873432e+05 1.086073e+05        0
1.086073e+05 -5.096887e+04        0
       0        0        0

-6.117373e+05 8.951011e+04        0
8.951011e+04 -5.119108e+04        0
       0        0        0

-8.361791e+05 6.087815e+04        0
6.087815e+04 -5.152449e+04        0
       0        0        0

-1.060664e+06 2.271473e+04        0
2.271473e+04 -5.196605e+04        0
       0        0        0

9.103102e+05 2.274290e+04        0
2.274290e+04 -5.670829e+04        0
       0        0        0

6.958326e+05 6.093780e+04        0
6.093780e+04 -5.618768e+04        0
       0        0        0

4.812907e+05 8.957328e+04        0
8.957328e+04 -5.579141e+04        0
       0        0        0

2.666817e+05 1.086537e+05        0
1.086537e+05 -5.552312e+04        0
       0        0        0

5.200354e+04 1.181835e+05        0
1.181835e+05 -5.538500e+04        0
       0        0        0

-1.627453e+05 1.181671e+05        0
1.181671e+05 -5.537790e+04        0
       0        0        0

-3.775653e+05 1.086084e+05        0
1.086084e+05 -5.550144e+04        0
       0        0        0

-5.924555e+05 8.951107e+04        0
8.951107e+04 -5.575422e+04        0
       0        0        0

-8.074137e+05 6.087870e+04        0
6.087870e+04 -5.613390e+04        0
       0        0        0

-1.022436e+06 2.271486e+04        0
2.271486e+04 -5.663735e+04        0
       0        0        0

8.626520e+05 2.274198e+04        0
2.274198e+04 -6.135878e+04        0
       0        0        0

6.578008e+05 6.093596e+04        0
6.093596e+04 -6.077882e+04        0
       0        0        0

4.528650e+05 8.957150e+04        0
8.957150e+04 -6.033795e+04        0
       0        0        0

2.478418e+05 1.086526e+05        0
1.086526e+05 -6.003971e+04        0
       0        0        0

4.272898e+04 1.181833e+05        0
1.181833e+05 -5.988630e+04        0
       0        0        0

-1.624747e+05 1.181676e+05        0
1.181676e+05 -5.987867e+04        0
       0        0        0

-3.677693e+05 1.086093e+05        0
1.086093e+05 -6.001656e+04        0
       0        0        0

-5.731539e+05 8.951206e+04        0
8.951206e+04 -6.029866e+04        0
       0        0        0

-7.786261e+05 6.087948e+04        0
6.087948e+04 -6.072266e+04        0
       0        0        0

-9.841819e+05 2.271520e+04        0
2.271520e+04 -6.128530e+04        0
       0        0        0

8.150447e+05 2.274119e+04        0
2.274119e+04 -6.596136e+04        0
       0        0        0

6.198157e+05 6.093429e+04        0
6.093429e+04 -6.532473e+04        0
       0        0        0

4.244830e+05 8.956978e+04        0
8.956978e+04 -6.484132e+04        0
       0        0        0

2.290436e+05 1.086514e+05        0
1.086514e+05 -6.451456e+04        0
       0        0        0

3.349528e+04 1.181828e+05        0
1.181828e+05 -6.434667e+04        0
       0        0        0

-1.621631e+05 1.181678e+05        0
1.181678e+05 -6.433865e+04        0
       0        0        0

-3.579315e+05 1.086101e+05        0
1.086101e+05 -6.449035e+04        0
       0        0        0

-5.538087e+05 8.951311e+04        0
8.951311e+04 -6.480052e+04        0
       0        0        0

-7.497925e+05 6.088043e+04        0
6.088043e+04 -6.526685e+04        0
       0        0        0

-9.458791e+05 2.271565e+04        0
2.271565e+04 -6.588596e+04        0
       0        0        0

7.675109e+05 2.274046e+04        0
2.274046e+04 -7.049318e+04        0
       0        0        0

5.819002e+05 6.093273e+04        0
6.093273e+04 -6.980260e+04        0
       0        0        0

3.961677e+05 8.956811e+04        0
8.956811e+04 -6.927870e+04        0
       0        0        0

2.103102e+05 1.086501e+05        0
1.086501e+05 -6.892486e+04        0
       0        0        0

2.432535e+04 1.181822e+05        0
1.181822e+05 -6.874327e+04        0
       0        0        0

-1.617877e+05 1.181679e+05        0
1.181679e+05 -6.873499e+04        0
       0        0        0

-3.480290e+05 1.086108e+05        0
1.086108e+05 -6.889993e+04        0
       0        0        0

-5.343973e+05 8.951420e+04        0
8.951420e+04 -6.923690e+04        0
       0        0        0

-7.208901e+05 6.088150e+04        0
6.088150e+04 -6.974356e+04        0
       0        0        0

-9.075041e+05 2.271617e+04        0
2.271617e+04 -7.041649e+04        0
       0        0        0

7.200723e+05 2.273978e+04        0
2.273978e+04 -7.493249e+04        0
       0        0        0

5.440762e+05 6.093125e+04        0
6.093125e+04 -7.419071e+04        0
       0        0        0

3.679410e+05 8.956648e+04        0
8.956648e+04 -7.362841e+04        0
       0        0        0

1.916633e+05 1.086488e+05        0
1.086488e+05 -7.324889e+04        0
       0        0        0

1.524098e+04 1.181815e+05        0
1.181815e+05 -7.305436e+04        0
       0        0        0

-1.613270e+05 1.181679e+05        0
1.181679e+05 -7.304590e+04        0
       0        0        0

-3.380404e+05 1.086115e+05        0
1.086115e+05 -7.322349e+04        0
       0        0        0

-5.148979e+05 8.951533e+04        0
8.951533e+04 -7.358598e+04        0
       0        0        0

-6.918973e+05 6.088265e+04        0
6.088265e+04 -7.413101e+04        0
       0        0        0

-8.690350e+05 2.271673e+04        0
2.271673e+04 -7.485511e+04        0
       0        0        0

6.727496e+05 2.273915e+04        0
2.273915e+04 -7.925863e+04        0
       0        0        0

5.063643e+05 6.092987e+04        0
6.092987e+04 -7.846843e+04        0
       0        0        0

3.398235e+05 8.956489e+04        0
8.956489e+04 -7.786983e+04        0
       0        0        0

1.731238e+05 1.086474e+05        0
1.086474e+05 -7.746605e+04        0
       0        0        0

6.262879e+03 1.181806e+05        0
1.181806e+05 -7.725929e+04        0
       0        0        0

-1.607601e+05 1.181679e+05        0
1.181679e+05 -7.725069e+04        0
       0        0        0

-3.279448e+05 1.086121e+05        0
1.086121e+05 -7.744030e+04        0
       0        0        0

-4.952900e+05 8.951651e+04        0
8.951651e+04 -7.782701e+04        0
       0        0        0

-6.627933e+05 6.088389e+04        0
6.088389e+04 -7.840849e+04        0
       0        0        0

-8.304513e+05 2.271735e+04        0
2.271735e+04 -7.918115e+04        0
       0        0        0

6.255623e+05 2.273859e+04        0
2.273859e+04 -8.345202e+04        0
       0        0        0

4.687842e+05 6.092860e+04        0
6.092860e+04 -8.261621e+04        0
       0        0        0

3.118350e+05 8.956335e+04        0
8.956335e+04 -8.198342e+04        0
       0        0        0

1.547113e+05 1.086460e+05        0
1.086460e+05 -8.155678e+04        0
       0        0        0

-2.589332e+03 1.181797e+05        0
1.181797e+05 -8.133849e+04        0
       0        0        0

-1.600676e+05 1.181676e+05        0
1.181676e+05 -8.132976e+04        0
       0        0        0

-3.177230e+05 1.086127e+05        0
1.086127e+05 -8.153073e+04        0
       0        0        0

-4.755540e+05 8.951773e+04        0
8.951773e+04 -8.194037e+04        0
       0        0        0

-6.335585e+05 6.088526e+04        0
6.088526e+04 -8.255636e+04        0
       0        0        0

-7.917331e+05 2.271804e+04        0
2.271804e+04 -8.337502e+04        0
       0        0        0

5.785286e+05 2.273817e+04        0
2.273817e+04 -8.749418e+04        0
       0        0        0

4.313542e+05 6.092752e+04        0
6.092752e+04 -8.661559e+04        0
       0        0        0

2.839942e+05 8.956185e+04        0
8.956185e+04 -8.595072e+04        0
       0        0        0

1.364444e+05 1.086444e+05        0
1.086444e+05 -8.550260e+04        0
       0        0        0

-1.129712e+04 1.181785e+05        0
1.181785e+05 -8.527347e+04        0
       0        0        0

-1.592310e+05 1.181672e+05        0
1.181672e+05 -8.526462e+04        0
       0        0        0

-3.073564e+05 1.086132e+05        0
1.086132e+05 -8.547630e+04        0
       0        0        0

-4.556717e+05 8.951900e+04        0
8.951900e+04 -8.590754e+04        0
       0        0        0

-6.041745e+05 6.088680e+04        0
6.088680e+04 -8.655609e+04        0
       0        0        0

-7.528619e+05 2.271886e+04        0
2.271886e+04 -8.741820e+04        0
       0        0        0

5.316658e+05 2.273795e+04        0
2.273795e+04 -9.136769e+04        0
       0        0        0

3.940921e+05 6.092663e+04        0
6.092663e+04 -9.044910e+04        0
       0        0        0

2.563184e+05 8.956035e+04        0
8.956035e+04 -8.975416e+04        0
       0        0        0

1.183407e+05 1.086427e+05        0
1.086427e+05 -8.928591e+04        0
       0        0        0

-1.984304e+04 1.181771e+05        0
1.181771e+05 -8.904674e+04        0
       0        0        0

-1.582329e+05 1.181665e+05        0
1.181665e+05 -8.903797e+04        0
       0        0        0

-2.968278e+05 1.086135e+05        0
1.086135e+05 -8.925978e+04        0
       0        0        0

-4.356257e+05 8.952026e+04        0
8.952026e+04 -8.971126e+04        0
       0        0        0

-5.746240e+05 6.088854e+04        0
6.088854e+04 -9.039032e+04        0
       0        0        0

-7.138200e+05 2.271989e+04        0
2.271989e+04 -9.129325e+04        0
       0        0        0

4.849900e+05 2.273796e+04        0
2.273796e+04 -9.505616e+04        0
       0        0        0

3.570143e+05 6.092577e+04        0
6.092577e+04 -9.410011e+04        0
       0        0        0

2.288244e+05 8.955862e+04        0
8.955862e+04 -9.337680e+04        0
       0        0        0

1.004164e+05 1.086409e+05        0
1.086409e+05 -9.288973e+04        0
       0        0        0

-2.821084e+04 1.181759e+05        0
1.181759e+05 -9.264170e+04        0
       0        0        0

-1.570570e+05 1.181660e+05        0
1.181660e+05 -9.263379e+04        0
       0        0        0

-2.861209e+05 1.086137e+05        0
1.086137e+05 -9.286554e+04        0
       0        0        0

-4.153999e+05 8.952130e+04        0
8.952130e+04 -9.333582e+04        0
       0        0        0

-5.448908e+05 6.089031e+04        0
6.089031e+04 -9.404299e+04        0
       0        0        0

-6.745908e+05 2.272114e+04        0
2.272114e+04 -9.498387e+04        0
       0        0        0

4.385165e+05 2.273798e+04        0
2.273798e+04 -9.854412e+04        0
       0        0        0

3.201365e+05 6.092413e+04        0
6.092413e+04 -9.755241e+04        0
       0        0        0

2.015270e+05 8.955604e+04        0
8.955604e+04 -9.680154e+04        0
       0        0        0

8.268605e+04 1.086393e+05        0
1.086393e+05 -9.629692e+04        0
       0        0        0

-3.638570e+04 1.181760e+05        0
1.181760e+05 -9.604233e+04        0
       0        0        0

-1.556878e+05 1.181669e+05        0
1.181669e+05 -9.603768e+04        0
       0        0        0

-2.752197e+05 1.086142e+05        0
1.086142e+05 -9.628030e+04        0
       0        0        0

-3.949789e+05 8.952148e+04        0
8.952148e+04 -9.676788e+04        0
       0        0        0

-5.149601e+05 6.089129e+04        0
6.089129e+04 -9.749979e+04        0
       0        0        0

-6.351590e+05 2.272241e+04        0
2.272241e+04 -9.847493e+04        0
       0        0        0

3.922608e+05 2.273705e+04        0
2.273705e+04 -1.018168e+05        0
       0        0        0

2.834737e+05 6.091918e+04        0
6.091918e+04 -1.007892e+05        0
       0        0        0

1.744389e+05 8.955103e+04        0
8.955103e+04 -1.000095e+05        0
       0        0        0

6.516112e+04 1.086394e+05        0
1.086394e+05 -9.948864e+04        0
       0        0        0

-4.435479e+04 1.181814e+05        0
1.181814e+05 -9.923256e+04        0
       0        0        0

-1.541098e+05 1.181730e+05        0
1.181730e+05 -9.923756e+04        0
       0        0        0

-2.641076e+05 1.086162e+05        0
1.086162e+05 -9.949471e+04        0
       0        0        0

-3.743470e+05 8.951924e+04        0
8.951924e+04 -9.999807e+04        0
       0        0        0

-4.848186e+05 6.088897e+04        0
6.088897e+04 -1.007491e+05        0
       0        0        0

-5.955116e+05 2.272272e+04        0
2.272272e+04 -1.017526e+05        0
       0        0        0

3.462408e+05 2.273213e+04        0
2.273213e+04 -1.048596e+05        0
       0        0        0

2.470402e+05 6.090435e+04        0
6.090435e+04 -1.037913e+05        0
       0        0        0

1.475679e+05 8.953998e+04        0
8.953998e+04 -1.029768e+05        0
       0        0        0

4.784706e+04 1.086446e+05        0
1.086446e+05 -1.024414e+05        0
       0        0        0

-5.210859e+04 1.182015e+05        0
1.182015e+05 -1.021950e+05        0
       0        0        0

-1.523066e+05 1.181938e+05        0
1.181938e+05 -1.022248e+05        0
       0        0        0

-2.527641e+05 1.086235e+05        0
1.086235e+05 -1.025064e+05        0
       0        0        0

-3.534861e+05 8.951095e+04        0
8.951095e+04 -1.030243e+05        0
       0        0        0

-4.544544e+05 6.087677e+04        0
6.087677e+04 -1.037842e+05        0
       0        0        0

-5.556397e+05 2.271905e+04        0
2.271905e+04 -1.048050e+05        0
       0        0        0

3.004822e+05 2.271539e+04        0
2.271539e+04 -1.076574e+05        0
       0        0        0

2.108493e+05 6.086437e+04        0
6.086437e+04 -1.065333e+05        0
       0        0        0

1.209111e+05 8.951546e+04        0
8.951546e+04 -1.056691e+05        0
       0        0        0

3.073692e+04 1.086641e+05        0
1.086641e+05 -1.051219e+05        0
       0        0        0

-5.964355e+04 1.182578e+05        0
1.182578e+05 -1.049091e+05        0
       0        0        0

-1.502580e+05 1.182508e+05        0
1.182508e+05 -1.049962e+05        0
       0        0        0

-2.411586e+05 1.086450e+05        0
1.086450e+05 -1.053249e+05        0
       0        0        0

-3.323700e+05 8.948920e+04        0
8.948920e+04 -1.058577e+05        0
       0        0        0

-4.238570e+05 6.083943e+04        0
6.083943e+04 -1.066065e+05        0
       0        0        0

-5.155448e+05 2.270357e+04        0
2.270357e+04 -1.076228e+05        0
       0        0        0

2.550302e+05 2.266861e+04        0
2.266861e+04 -1.101928e+05        0
       0        0        0

1.749112e+05 6.076689e+04        0
6.076689e+04 -1.089786e+05        0
       0        0        0

9.444394e+04 8.946363e+04        0
8.946363e+04 -1.080332e+05        0
       0        0        0

1.379929e+04 1.087177e+05        0
1.087177e+05 -1.074804e+05        0
       0        0        0

-6.696699e+04 1.183950e+05        0
1.183950e+05 -1.073481e+05        0
       0        0        0

-1.479345e+05 1.183887e+05        0
1.183887e+05 -1.075565e+05        0
       0        0        0

-2.292386e+05 1.087005e+05        0
1.087005e+05 -1.079789e+05        0
       0        0        0

-3.109536e+05 8.944014e+04        0
8.944014e+04 -1.085307e+05        0
       0        0        0

-3.930164e+05 6.074460e+04        0
6.074460e+04 -1.092323e+05        0
       0        0        0

-4.752498e+05 2.265805e+04        0
2.265805e+04 -1.102010e+05        0
       0        0        0

2.099707e+05 2.255312e+04        0
2.255312e+04 -1.124452e+05        0
       0        0        0

1.392276e+05 6.054966e+04        0
6.054966e+04 -1.110720e+05        0
       0        0        0

6.809783e+04 8.936201e+04        0
8.936201e+04 -1.099896e+05        0
       0        0        0

-3.042201e+03 1.088455e+05        0
1.088455e+05 -1.094456e+05        0
       0        0        0

-7.410476e+04 1.186961e+05        0
1.186961e+05 -1.094775e+05        0
       0        0        0

-1.452897e+05 1.186906e+05        0
1.186906e+05 -1.099193e+05        0
       0        0        0

-2.169085e+05 1.088304e+05        0
1.088304e+05 -1.105207e+05        0
       0        0        0

-2.891518e+05 8.934130e+04        0
8.934130e+04 -1.111065e+05        0
       0        0        0

-3.619182e+05 6.053005e+04        0
6.053005e+04 -1.117009e+05        0
       0        0        0

-4.348222e+05 2.254384e+04        0
2.254384e+04 -1.125421e+05        0
       0        0        0

1.654676e+05 2.229389e+04        0
2.229389e+04 -1.143894e+05        0
       0        0        0

1.037757e+05 6.010633e+04        0
6.010633e+04 -1.127378e+05        0
       0        0        0

4.172434e+04 8.918285e+04        0
8.918285e+04 -1.114369e+05        0
       0        0        0

-1.993674e+04 1.091211e+05        0
1.091211e+05 -1.109352e+05        0
       0        0        0

-8.111029e+04 1.192969e+05        0
1.192969e+05 -1.112604e+05        0
       0        0        0

-1.422485e+05 1.192922e+05        0
1.192922e+05 -1.121001e+05        0
       0        0        0

-2.040019e+05 1.091080e+05        0
1.091080e+05 -1.130150e+05        0
       0        0        0

-2.668047e+05 8.916493e+04        0
8.916493e+04 -1.136749e+05        0
       0        0        0

-3.305323e+05 6.008944e+04        0
6.008944e+04 -1.140806e+05        0
       0        0        0

-3.944153e+05 2.228592e+04        0
2.228592e+04 -1.146607e+05        0
       0        0        0

1.218143e+05 2.175987e+04        0
2.175987e+04 -1.160001e+05        0
       0        0        0

6.846991e+04 5.928775e+04        0
5.928775e+04 -1.139016e+05        0
       0        0        0

1.504776e+04 8.891653e+04        0
8.891653e+04 -1.123083e+05        0
       0        0        0

-3.712658e+04 1.096611e+05        0
1.096611e+05 -1.119237e+05        0
       0        0        0

-8.806576e+04 1.203706e+05        0
1.203706e+05 -1.126850e+05        0
       0        0        0

-1.387020e+05 1.203666e+05        0
1.203666e+05 -1.140839e+05        0
       0        0        0

-1.902583e+05 1.096500e+05        0
1.096500e+05 -1.154691e+05        0
       0        0        0

-2.436324e+05 8.890144e+04        0
8.890144e+04 -1.162985e+05        0
       0        0        0

-2.987810e+05 5.927361e+04        0
5.927361e+04 -1.164537e+05        0
       0        0        0

-3.543298e+05 2.175326e+04        0
2.175326e+04 -1.165894e+05        0
       0        0        0

7.947515e+04 2.075678e+04        0
2.075678e+04 -1.172821e+05        0
       0        0        0

3.307865e+04 5.797447e+04        0
5.797447e+04 -1.145899e+05        0
       0        0        0

-1.236393e+04 8.865059e+04        0
8.865059e+04 -1.127886e+05        0
       0        0        0

-5.490063e+04 1.106013e+05        0
1.106013e+05 -1.126577e+05        0
       0        0        0

-9.504947e+04 1.220074e+05        0
1.220074e+05 -1.138552e+05        0
       0        0        0

-1.345317e+05 1.220041e+05        0
1.220041e+05 -1.157267e+05        0
       0        0        0

-1.753639e+05 1.105923e+05        0
1.105923e+05 -1.176118e+05        0
       0        0        0

-2.192067e+05 8.863840e+04        0
8.863840e+04 -1.187962e+05        0
       0        0        0

-2.664683e+05 5.796312e+04        0
5.796312e+04 -1.188293e+05        0
       0        0        0

-3.150782e+05 2.075156e+04        0
2.075156e+04 -1.183719e+05        0
       0        0        0

3.901604e+04 1.910250e+04        0
1.910250e+04 -1.183311e+05        0
       0        0        0

-2.945801e+03 5.638064e+04        0
5.638064e+04 -1.153385e+05        0
       0        0        0

-4.097162e+04 8.874194e+04        0
8.874194e+04 -1.139163e+05        0
       0        0        0

-7.334316e+04 1.119428e+05        0
1.119428e+05 -1.141993e+05        0
       0        0        0

-1.020044e+05 1.238170e+05        0
1.238170e+05 -1.151847e+05        0
       0        0        0

-1.297257e+05 1.238146e+05        0
1.238146e+05 -1.165458e+05        0
       0        0        0

-1.591896e+05 1.119363e+05        0
1.119363e+05 -1.183359e+05        0
       0        0        0

-1.930733e+05 8.873286e+04        0
8.873286e+04 -1.201362e+05        0
       0        0        0

-2.331278e+05 5.637209e+04        0
5.637209e+04 -1.207525e+05        0
       0        0        0

-2.773664e+05 1.909865e+04        0
1.909865e+04 -1.200521e+05        0
       0        0        0

5.231884e+02 1.710271e+04        0
1.710271e+04 -1.199683e+05        0
       0        0        0

-4.055900e+04 5.592265e+04        0
5.592265e+04 -1.183223e+05        0
       0        0        0

-7.064224e+04 9.001307e+04        0
9.001307e+04 -1.192608e+05        0
       0        0        0

-9.160225e+04 1.128998e+05        0
1.128998e+05 -1.193451e+05        0
       0        0        0

-1.084793e+05 1.240404e+05        0
1.240404e+05 -1.176209e+05        0
       0        0        0

-1.246149e+05 1.240392e+05        0
1.240392e+05 -1.154734e+05        0
       0        0        0

-1.424954e+05 1.128964e+05        0
1.128964e+05 -1.147534e+05        0
       0        0        0

-1.653497e+05 9.000769e+04        0
9.000769e+04 -1.167341e+05        0
       0        0        0

-1.979384e+05 5.591692e+04        0
5.591692e+04 -1.201833e+05        0
       0        0        0

-2.416132e+05 1.710010e+04        0
1.710010e+04 -1.211410e+05        0
       0        0        0

-3.838756e+04 1.780089e+04        0
1.780089e+04 -1.241547e+05        0
       0        0        0

-8.056431e+04 6.133461e+04        0
6.133461e+04 -1.329179e+05        0
       0        0        0

-9.823377e+04 9.241439e+04        0
9.241439e+04 -1.376493e+05        0
       0        0        0

-1.069299e+05 1.101518e+05        0
1.101518e+05 -1.330247e+05        0
       0        0        0

-1.134903e+05 1.182691e+05        0
1.182691e+05 -1.226657e+05        0
       0        0        0

-1.199857e+05 1.182695e+05        0
1.182695e+05 -1.108102e+05        0
       0        0        0

-1.278480e+05 1.101525e+05        0
1.101525e+05 -1.017531e+05        0
       0        0        0

-1.390687e+05 9.241419e+04        0
9.241419e+04 -9.965328e+04        0
       0        0        0

-1.602170e+05 6.133242e+04        0
6.133242e+04 -1.078653e+05        0
       0        0        0

-2.060740e+05 1.779909e+04        0
1.779909e+04 -1.203165e+05        0
       0        0        0

-9.041227e+04 4.054631e+04        0
4.054631e+04 -1.562833e+05        0
       0        0        0

-1.138421e+05 7.593486e+04        0
7.593486e+04 -1.858539e+05        0
       0        0        0

-1.150718e+05 8.920336e+04        0
8.920336e+04 -1.817339e+05        0
       0        0        0

-1.153875e+05 9.571255e+04        0
9.571255e+04 -1.608397e+05        0
       0        0        0

-1.157489e+05 9.856239e+04        0
9.856239e+04 -1.317915e+05        0
       0        0        0

-1.168366e+05 9.856429e+04        0
9.856429e+04 -1.007937e+05        0
       0        0        0

-1.188659e+05 9.571771e+04        0
9.571771e+04 -7.341100e+04        0
       0        0        0

-1.225609e+05 8.921016e+04        0
8.921016e+04 -5.589328e+04        0
       0        0        0

-1.289065e+05 7.594047e+04        0
7.594047e+04 -5.688864e+04        0
       0        0        0

-1.586523e+05 4.054609e+04        0
4.054609e+04 -9.278138e+04        0
       0        0        0

POINT_DATA     451
VECTORS DISPLACEMENT_5.600000e-01 double
0.000000e+00    0.000000e+00    0.000000e+00
0.000000e+00    0.000000e+00    0.000000e+00
0.000000e+00    0.000000e+00    0.000000e+00
0.000000e+00    0.000000e+00    0.000000e+00
0.000000e+00    0.000000e+00    0.000000e+00
0.000000e+00    0.000000e+00    0.000000e+00
0.000000e+00    0.000000e+00    0.000000e+00
0.000000e+00    0.000000e+00    0.000000e+00
0.000000e+00    0.000000e+00    0.000000e+00
0.000000e+00    0.000000e+00    0.000000e+00
0.000000e+00    0.000000e+00    0.000000e+00
-1.141595e-06    -8.299605e-07    0.000000e+00
-7.233448e-07    -4.163094e-07    0.000000e+00
-5.161144e-07    -2.157261e-07    0.000000e+00
-3.332233e-07    -1.068318e-07    0.000000e+00
-1.642863e-07    -5.047426e-08    0.000000e+00
-3.793315e-20    -3.295145e-08    0.000000e+00
1.642863e-07    -5.047426e-08    0.000000e+00
3.332233e-07    -1.068318e-07    0.000000e+00
5.161144e-07    -2.157261e-07    0.000000e+00
7.233448e-07    -4.163094e-07    0.000000e+00
1.141595e-06    -8.299605e-07    0.000000e+00
-2.153941e-06    -1.380309e-06    0.000000e+00
-1.574436e-06    -9.987668e-07    0.000000e+00
-1.105093e-06    -7.015532e-07    0.000000e+00
-7.128292e-07    -5.177059e-07    0.000000e+00
-3.501023e-07    -4.175298e-07    0.000000e+00
-8.019681e-20    -3.857102e-07    0.000000e+00
3.501023e-07    -4.175298e-07    0.000000e+00
7.128292e-07    -5.177059e-07    0.000000e+00
1.105093e-06    -7.015532e-07    0.000000e+00
1.574436e-06    -9.987668e-07    0.000000e+00
2.153941e-06    -1.380309e-06    0.000000e+00
-3.132427e-06    -2.064634e-06    0.000000e+00
-2.394168e-06    -1.682257e-06    0.000000e+00
-1.722702e-06    -1.380761e-06    0.000000e+00
-1.115240e-06    -1.168096e-06    0.000000e+00
-5.487489e-07    -1.045521e-06    0.000000e+00
-1.264858e-19    -1.005593e-06    0.000000e+00
5.487489e-07    -1.045521e-06    0.000000e+00
1.115240e-06    -1.168096e-06    0.000000e+00
1.722702e-06    -1.380761e-06    0.000000e+00
2.394168e-06    -1.682257e-06    0.000000e+00
3.132427e-06    -2.064634e-06    0.000000e+00
-4.100076e-06    -2.909172e-06    0.000000e+00
-3.186876e-06    -2.535522e-06    0.000000e+00
-2.326958e-06    -2.239053e-06    0.000000e+00
-1.519408e-06    -2.025105e-06    0.000000e+00
-7.500557e-07    -1.896684e-06    0.000000e+00
-1.741976e-19    -1.854101e-06    0.000000e+00
7.500557e-07    -1.896684e-06    0.000000e+00
1.519408e-06    -2.025105e-06    0.000000e+00
2.326958e-06    -2.239053e-06    0.000000e+00
3.186876e-06    -2.535522e-06    0.000000e+00
4.100076e-06    -2.909172e-06    0.000000e+00
-5.051341e-06    -3.936654e-06    0.000000e+00
-3.956477e-06    -3.571725e-06    0.000000e+00
-2.911986e-06    -3.284208e-06    0.000000e+00
-1.912865e-06    -3.075889e-06    0.000000e+00
-9.475500e-07    -2.949778e-06    0.000000e+00
-2.234579e-19    -2.907564e-06    0.000000e+00
9.475500e-07    -2.949778e-06    0.000000e+00
1.912865e-06    -3.075889e-06    0.000000e+00
2.911986e-06    -3.284208e-06    0.000000e+00
3.956477e-06    -3.571725e-06    0.000000e+00
5.051341e-06    -3.936654e-06    0.000000e+00
-5.981873e-06    -5.149742e-06    0.000000e+00
-4.704513e-06    -4.794468e-06    0.000000e+00
-3.477740e-06    -4.516043e-06    0.000000e+00
-2.292922e-06    -4.315096e-06    0.000000e+00
-1.138484e-06    -4.193469e-06    0.000000e+00
-2.737372e-19    -4.152740e-06    0.000000e+00
1.138484e-06    -4.193469e-06    0.000000e+00
2.292922e-06    -4.315096e-06    0.000000e+00
3.477740e-06    -4.516043e-06    0.000000e+00
4.704513e-06    -4.794468e-06    0.000000e+00
5.981873e-06    -5.149742e-06    0.000000e+00
-6.888558e-06    -6.546376e-06    0.000000e+00
-5.431254e-06    -6.201154e-06    0.000000e+00
-4.025294e-06    -5.931590e-06    0.000000e+00
-2.659769e-06    -5.737829e-06    0.000000e+00
-1.322562e-06    -5.620886e-06    0.000000e+00
-3.207343e-19    -5.581769e-06    0.000000e+00
1.322562e-06    -5.620886e-06    0.000000e+00
2.659769e-06    -5.737829e-06    0.000000e+00
4.025294e-06    -5.931590e-06    0.000000e+00
5.431254e-06    -6.201154e-06    0.000000e+00
6.888558e-06    -6.546376e-06    0.000000e+00
-7.769676e-06    -8.122139e-06    0.000000e+00
-6.136609e-06    -7.787205e-06    0.000000e+00
-4.555509e-06    -7.526210e-06    0.000000e+00
-3.014226e-06    -7.339157e-06    0.000000e+00
-1.500173e-06    -7.226543e-06    0.000000e+00
-3.670829e-19    -7.188927e-06    0.000000e+00
1.500173e-06    -7.226543e-06    0.000000e+00
3.014226e-06    -7.339157e-06    0.000000e+00
4.555509e-06    -7.526210e-06    0.000000e+00
6.136609e-06    -7.787205e-06    0.000000e+00
7.769676e-06    -8.122139e-06    0.000000e+00
-8.624338e-06    -9.871838e-06    0.000000e+00
-6.820449e-06    -9.547301e-06    0.000000e+00
-5.068913e-06    -9.294676e-06    0.000000e+00
-3.356973e-06    -9.113935e-06    0.000000e+00
-1.671744e-06    -9.005300e-06    0.000000e+00
-4.154961e-19    -8.969049e-06    0.000000e+00
1.671744e-06    -9.005300e-06    0.000000e+00
3.356973e-06    -9.113935e-06    0.000000e+00
5.068913e-06    -9.294676e-06    0.000000e+00
6.820449e-06    -9.547301e-06    0.000000e+00
8.624338e-06    -9.871838e-06    0.000000e+00
-9.452128e-06    -1.179002e-05    0.000000e+00
-7.482678e-06    -1.147593e-05    0.000000e+00
-5.565791e-06    -1.123156e-05    0.000000e+00
-3.688437e-06    -1.105688e-05    0.000000e+00
-1.837569e-06    -1.095199e-05    0.000000e+00
-4.643329e-19    -1.091701e-05    0.000000e+00
1.837569e-06    -1.095199e-05    0.000000e+00
3.688437e-06    -1.105688e-05    0.000000e+00
5.565791e-06    -1.123156e-05    0.000000e+00
7.482678e-06    -1.147593e-05    0.000000e+00
9.452128e-06    -1.179002e-05    0.000000e+00
-1.025287e-05    -1.387120e-05    0.000000e+00
-8.123242e-06    -1.356758e-05    0.000000e+00
-6.046283e-06    -1.333140e-05    0.000000e+00
-4.008850e-06    -1.316265e-05    0.000000e+00
-1.997814e-06    -1.306137e-05    0.000000e+00
-5.071080e-19    -1.302760e-05    0.000000e+00
1.997814e-06    -1.306137e-05    0.000000e+00
4.008850e-06    -1.316265e-05    0.000000e+00
6.046283e-06    -1.333140e-05    0.000000e+00
8.123242e-06    -1.356758e-05    0.000000e+00
1.025287e-05    -1.387120e-05    0.000000e+00
-1.102648e-05    -1.610989e-05    0.000000e+00
-8.742113e-06    -1.581673e-05    0.000000e+00
-6.510452e-06    -1.558871e-05    0.000000e+00
-4.318325e-06    -1.542583e-05    0.000000e+00
-2.152566e-06    -1.532809e-05    0.000000e+00
-5.518420e-19    -1.529550e-05    0.000000e+00
2.152566e-06    -1.532809e-05    0.000000e+00
4.318325e-06    -1.542583e-05    0.000000e+00
6.510452e-06    -1.558871e-05    0.000000e+00
8.742113e-06    -1.581673e-05    0.000000e+00
1.102648e-05    -1.610989e-05    0.000000e+00
-1.177296e-05    -1.850062e-05    0.000000e+00
-9.339276e-06    -1.821793e-05    0.000000e+00
-6.958324e-06    -1.799806e-05    0.000000e+00
-4.616914e-06    -1.784101e-05    0.000000e+00
-2.301865e-06    -1.774678e-05    0.000000e+00
-5.995405e-19    -1.771537e-05    0.000000e+00
2.301865e-06    -1.774678e-05    0.000000e+00
4.616914e-06    -1.784101e-05    0.000000e+00
6.958324e-06    -1.799806e-05    0.000000e+00
9.339276e-06    -1.821793e-05    0.000000e+00
1.177296e-05    -1.850062e-05    0.000000e+00
-1.249228e-05    -2.103794e-05    0.000000e+00
-9.914727e-06    -2.076572e-05    0.000000e+00
-7.389909e-06    -2.055400e-05    0.000000e+00
-4.904637e-06    -2.040277e-05    0.000000e+00
-2.445728e-06    -2.031204e-05    0.000000e+00
-6.345336e-19    -2.028179e-05    0.000000e+00
2.445728e-06    -2.031204e-05    0.000000e+00
4.904637e-06    -2.040277e-05    0.000000e+00
7.389909e-06    -2.055400e-05    0.000000e+00
9.914727e-06    -2.076572e-05    0.000000e+00
1.249228e-05    -2.103794e-05    0.000000e+00
-1.318446e-05    -2.371642e-05    0.000000e+00
-1.046846e-05    -2.345467e-05    0.000000e+00
-7.805208e-06    -2.325109e-05    0.000000e+00
-5.181501e-06    -2.310568e-05    0.000000e+00
-2.584160e-06    -2.301844e-05    0.000000e+00
-6.632268e-19    -2.298935e-05    0.000000e+00
2.584160e-06    -2.301844e-05    0.000000e+00
5.181501e-06    -2.310568e-05    0.000000e+00
7.805208e-06    -2.325109e-05    0.000000e+00
1.046846e-05    -2.345467e-05    0.000000e+00
1.318446e-05    -2.371642e-05    0.000000e+00
-1.384949e-05    -2.653062e-05    0.000000e+00
-1.100049e-05    -2.627934e-05    0.000000e+00
-8.204222e-06    -2.608391e-05    0.000000e+00
-5.447509e-06    -2.594431e-05    0.000000e+00
-2.717163e-06    -2.586055e-05    0.000000e+00
-6.845085e-19    -2.583264e-05    0.000000e+00
2.717163e-06    -2.586055e-05    0.000000e+00
5.447509e-06    -2.594431e-05    0.000000e+00
8.204222e-06    -2.608391e-05    0.000000e+00
1.100049e-05    -2.627934e-05    0.000000e+00
1.384949e-05    -2.653062e-05    0.000000e+00
-1.448737e-05    -2.947511e-05    0.000000e+00
-1.151079e-05    -2.923430e-05    0.000000e+00
-8.586950e-06    -2.904701e-05    0.000000e+00
-5.702661e-06    -2.891323e-05    0.000000e+00
-2.844739e-06    -2.883296e-05    0.000000e+00
-6.921318e-19    -2.880621e-05    0.000000e+00
2.844739e-06    -2.883296e-05    0.000000e+00
5.702661e-06    -2.891323e-05    0.000000e+00
8.586950e-06    -2.904701e-05    0.000000e+00
1.151079e-05    -2.923430e-05    0.000000e+00
1.448737e-05    -2.947511e-05    0.000000e+00
-1.509811e-05    -3.254446e-05    0.000000e+00
-1.199938e-05    -3.231413e-05    0.000000e+00
-8.953392e-06    -3.213498e-05    0.000000e+00
-5.946955e-06    -3.200701e-05    0.000000e+00
-2.966886e-06    -3.193024e-05    0.000000e+00
-7.118253e-19    -3.190464e-05    0.000000e+00
2.966886e-06    -3.193024e-05    0.000000e+00
5.946955e-06    -3.200701e-05    0.000000e+00
8.953392e-06    -3.213498e-05    0.000000e+00
1.199938e-05    -3.231413e-05    0.000000e+00
1.509811e-05    -3.254446e-05    0.000000e+00
-1.568170e-05    -3.573325e-05    0.000000e+00
-1.246626e-05    -3.551338e-05    0.000000e+00
-9.303549e-06    -3.534238e-05    0.000000e+00
-6.180392e-06    -3.522023e-05    0.000000e+00
-3.083604e-06    -3.514694e-05    0.000000e+00
-7.435890e-19    -3.512251e-05    0.000000e+00
3.083604e-06    -3.514694e-05    0.000000e+00
6.180392e-06    -3.522023e-05    0.000000e+00
9.303549e-06    -3.534238e-05    0.000000e+00
1.246626e-05    -3.551338e-05    0.000000e+00
1.568170e-05    -3.573325e-05    0.000000e+00
-1.623815e-05    -3.903604e-05    0.000000e+00
-1.291142e-05    -3.882665e-05    0.000000e+00
-9.637419e-06    -3.866378e-05    0.000000e+00
-6.402972e-06    -3.854745e-05    0.000000e+00
-3.194894e-06    -3.847765e-05    0.000000e+00
-7.947287e-19    -3.845439e-05    0.000000e+00
3.194894e-06    -3.847765e-05    0.000000e+00
6.402972e-06    -3.854745e-05    0.000000e+00
9.637419e-06    -3.866378e-05    0.000000e+00
1.291142e-05    -3.882665e-05    0.000000e+00
1.623815e-05    -3.903604e-05    0.000000e+00
-1.676746e-05    -4.244741e-05    0.000000e+00
-1.333486e-05    -4.224848e-05    0.000000e+00
-9.955003e-06    -4.209376e-05    0.000000e+00
-6.614695e-06    -4.198325e-05    0.000000e+00
-3.300755e-06    -4.191694e-05    0.000000e+00
-8.699028e-19    -4.189484e-05    0.000000e+00
3.300755e-06    -4.191694e-05    0.000000e+00
6.614695e-06    -4.198325e-05    0.000000e+00
9.955003e-06    -4.209376e-05    0.000000e+00
1.333486e-05    -4.224848e-05    0.000000e+00
1.676746e-05    -4.244741e-05    0.000000e+00
-1.726962e-05    -4.596192e-05    0.000000e+00
-1.373659e-05    -4.577347e-05    0.000000e+00
-1.025630e-05    -4.562689e-05    0.000000e+00
-6.815560e-06    -4.552219e-05    0.000000e+00
-3.401188e-06    -4.545937e-05    0.000000e+00
-9.230542e-19    -4.543843e-05    0.000000e+00
3.401188e-06    -4.545937e-05    0.000000e+00
6.815560e-06    -4.552219e-05    0.000000e+00
1.025630e-05    -4.562689e-05    0.000000e+00
1.373659e-05    -4.577347e-05    0.000000e+00
1.726962e-05    -4.596192e-05    0.000000e+00
-1.774464e-05    -4.957415e-05    0.000000e+00
-1.411661e-05    -4.939617e-05    0.000000e+00
-1.054131e-05    -4.925773e-05    0.000000e+00
-7.005568e-06    -4.915885e-05    0.000000e+00
-3.496192e-06    -4.909952e-05    0.000000e+00
-9.575707e-19    -4.907975e-05    0.000000e+00
3.496192e-06    -4.909952e-05    0.000000e+00
7.005568e-06    -4.915885e-05    0.000000e+00
1.054131e-05    -4.925773e-05    0.000000e+00
1.411661e-05    -4.939617e-05    0.000000e+00
1.774464e-05    -4.957415e-05    0.000000e+00
-1.819252e-05    -5.327868e-05    0.000000e+00
-1.447491e-05    -5.311116e-05    0.000000e+00
-1.081004e-05    -5.298087e-05    0.000000e+00
-7.184718e-06    -5.288780e-05    0.000000e+00
-3.585767e-06    -5.283196e-05    0.000000e+00
-1.002252e-18    -5.281335e-05    0.000000e+00
3.585767e-06    -5.283196e-05    0.000000e+00
7.184718e-06    -5.288780e-05    0.000000e+00
1.081004e-05    -5.298087e-05    0.000000e+00
1.447491e-05    -5.311116e-05    0.000000e+00
1.819252e-05    -5.327868e-05    0.000000e+00
-1.861325e-05    -5.707006e-05    0.000000e+00
-1.481149e-05    -5.691301e-05    0.000000e+00
-1.106248e-05    -5.679086e-05    0.000000e+00
-7.353011e-06    -5.670361e-05    0.000000e+00
-3.669914e-06    -5.665126e-05    0.000000e+00
-1.019192e-18    -5.663381e-05    0.000000e+00
3.669914e-06    -5.665126e-05    0.000000e+00
7.353011e-06    -5.670361e-05    0.000000e+00
1.106248e-05    -5.679086e-05    0.000000e+00
1.481149e-05    -5.691301e-05    0.000000e+00
1.861325e-05    -5.707006e-05    0.000000e+00
-1.900683e-05    -6.094287e-05    0.000000e+00
-1.512636e-05    -6.079629e-05    0.000000e+00
-1.129863e-05    -6.068229e-05    0.000000e+00
-7.510448e-06    -6.060086e-05    0.000000e+00
-3.748633e-06    -6.055200e-05    0.000000e+00
-1.045027e-18    -6.053571e-05    0.000000e+00
3.748633e-06    -6.055200e-05    0.000000e+00
7.510448e-06    -6.060086e-05    0.000000e+00
1.129863e-05    -6.068229e-05    0.000000e+00
1.512636e-05    -6.079629e-05    0.000000e+00
1.900683e-05    -6.094287e-05    0.000000e+00
-1.937327e-05    -6.489169e-05    0.000000e+00
-1.541952e-05    -6.475558e-05    0.000000e+00
-1.151850e-05    -6.464972e-05    0.000000e+00
-7.657028e-06    -6.457410e-05    0.000000e+00
-3.821923e-06    -6.452873e-05    0.000000e+00
-1.056674e-18    -6.451361e-05    0.000000e+00
3.821923e-06    -6.452873e-05    0.000000e+00
7.657028e-06    -6.457410e-05    0.000000e+00
1.151850e-05    -6.464972e-05    0.000000e+00
1.541952e-05    -6.475558e-05    0.000000e+00
1.937327e-05    -6.489169e-05    0.000000e+00
-1.971256e-05    -6.891107e-05    0.000000e+00
-1.569095e-05    -6.878544e-05    0.000000e+00
-1.172208e-05    -6.868772e-05    0.000000e+00
-7.792750e-06    -6.861792e-05    0.000000e+00
-3.889784e-06    -6.857604e-05    0.000000e+00
-1.046086e-18    -6.856208e-05    0.000000e+00
3.889784e-06    -6.857604e-05    0.000000e+00
7.792750e-06    -6.861792e-05    0.000000e+00
1.172208e-05    -6.868772e-05    0.000000e+00
1.569095e-05    -6.878544e-05    0.000000e+00
1.971256e-05    -6.891107e-05    0.000000e+00
-2.002471e-05    -7.299559e-05    0.000000e+00
-1.594068e-05    -7.288043e-05    0.000000e+00
-1.190938e-05    -7.279086e-05    0.000000e+00
-7.917611e-06    -7.272688e-05    0.000000e+00
-3.952212e-06    -7.268851e-05    0.000000e+00
-1.043545e-18    -7.267572e-05    0.000000e+00
3.952212e-06    -7.268851e-05    0.000000e+00
7.917611e-06    -7.272688e-05    0.000000e+00
1.190938e-05    -7.279086e-05    0.000000e+00
1.594068e-05    -7.288043e-05    0.000000e+00
2.002471e-05    -7.299559e-05    0.000000e+00
-2.030971e-05    -7.713981e-05    0.000000e+00
-1.616869e-05    -7.703511e-05    0.000000e+00
-1.208038e-05    -7.695370e-05    0.000000e+00
-8.031599e-06    -7.689557e-05    0.000000e+00
-4.009198e-06    -7.686071e-05    0.000000e+00
-1.077849e-18    -7.684909e-05    0.000000e+00
4.009198e-06    -7.686071e-05    0.000000e+00
8.031599e-06    -7.689557e-05    0.000000e+00
1.208038e-05    -7.695370e-05    0.000000e+00
1.616869e-05    -7.703511e-05    0.000000e+00
2.030971e-05    -7.713981e-05    0.000000e+00
-2.056757e-05    -8.133827e-05    0.000000e+00
-1.637501e-05    -8.124404e-05    0.000000e+00
-1.223508e-05    -8.117079e-05    0.000000e+00
-8.134685e-06    -8.111855e-05    0.000000e+00
-4.060719e-06    -8.108725e-05    0.000000e+00
-1.125707e-18    -8.107682e-05    0.000000e+00
4.060719e-06    -8.108725e-05    0.000000e+00
8.134685e-06    -8.111855e-05    0.000000e+00
1.223508e-05    -8.117079e-05    0.000000e+00
1.637501e-05    -8.124404e-05    0.000000e+00
2.056757e-05    -8.133827e-05    0.000000e+00
-2.079833e-05    -8.558550e-05    0.000000e+00
-1.655963e-05    -8.550173e-05    0.000000e+00
-1.237344e-05    -8.543669e-05    0.000000e+00
-8.226802e-06    -8.539041e-05    0.000000e+00
-4.106724e-06    -8.536275e-05    0.000000e+00
-1.201516e-18    -8.535356e-05    0.000000e+00
4.106724e-06    -8.536275e-05    0.000000e+00
8.226802e-06    -8.539041e-05    0.000000e+00
1.237344e-05    -8.543669e-05    0.000000e+00
1.655963e-05    -8.550173e-05    0.000000e+00
2.079833e-05    -8.558550e-05    0.000000e+00
-2.100210e-05    -8.987603e-05    0.000000e+00
-1.672261e-05    -8.980269e-05    0.000000e+00
-1.249537e-05    -8.974594e-05    0.000000e+00
-8.307807e-06    -8.970578e-05    0.000000e+00
-4.147107e-06    -8.968192e-05    0.000000e+00
-1.270126e-18    -8.967401e-05    0.000000e+00
4.147107e-06    -8.968192e-05    0.000000e+00
8.307807e-06    -8.970578e-05    0.000000e+00
1.249537e-05    -8.974594e-05    0.000000e+00
1.672261e-05    -8.980269e-05    0.000000e+00
2.100210e-05    -8.987603e-05    0.000000e+00
-2.117912e-05    -9.420439e-05    0.000000e+00
-1.686399e-05    -9.414142e-05    0.000000e+00
-1.260070e-05    -9.409307e-05    0.000000e+00
-8.377428e-06    -9.405931e-05    0.000000e+00
-4.181679e-06    -9.403948e-05    0.000000e+00
-1.306125e-18    -9.403296e-05    0.000000e+00
4.181679e-06    -9.403948e-05    0.000000e+00
8.377428e-06    -9.405931e-05    0.000000e+00
1.260070e-05    -9.409307e-05    0.000000e+00
1.686399e-05    -9.414142e-05    0.000000e+00
2.117912e-05    -9.420439e-05    0.000000e+00
-2.132994e-05    -9.856523e-05    0.000000e+00
-1.698387e-05    -9.851248e-05    0.000000e+00
-1.268909e-05    -9.847276e-05    0.000000e+00
-8.435205e-06    -9.844575e-05    0.000000e+00
-4.210141e-06    -9.843026e-05    0.000000e+00
-1.367111e-18    -9.842523e-05    0.000000e+00
4.210141e-06    -9.843026e-05    0.000000e+00
8.435205e-06    -9.844575e-05    0.000000e+00
1.268909e-05    -9.847276e-05    0.000000e+00
1.698387e-05    -9.851248e-05    0.000000e+00
2.132994e-05    -9.856523e-05    0.000000e+00
-2.145562e-05    -1.029537e-04    0.000000e+00
-1.708235e-05    -1.029109e-04    0.000000e+00
-1.275997e-05    -1.028800e-04    0.000000e+00
-8.480517e-06    -1.028600e-04    0.000000e+00
-4.232143e-06    -1.028489e-04    0.000000e+00
-1.412004e-18    -1.028454e-04    0.000000e+00
4.232143e-06    -1.028489e-04    0.000000e+00
8.480517e-06    -1.028600e-04    0.000000e+00
1.275997e-05    -1.028800e-04    0.000000e+00
1.708235e-05    -1.029109e-04    0.000000e+00
2.145562e-05    -1.029537e-04    0.000000e+00
-2.155817e-05    -1.073660e-04    0.000000e+00
-1.715935e-05    -1.073327e-04    0.000000e+00
-1.281258e-05    -1.073105e-04    0.000000e+00
-8.512904e-06    -1.072970e-04    0.000000e+00
-4.247579e-06    -1.072895e-04    0.000000e+00
-1.347206e-18    -1.072870e-04    0.000000e+00
4.247579e-06    -1.072895e-04    0.000000e+00
8.512904e-06    -1.072970e-04    0.000000e+00
1.281258e-05    -1.073105e-04    0.000000e+00
1.715935e-05    -1.073327e-04    0.000000e+00
2.155817e-05    -1.073660e-04    0.000000e+00
-2.164067e-05    -1.118022e-04    0.000000e+00
-1.721429e-05    -1.117772e-04    0.000000e+00
-1.284670e-05    -1.117621e-04    0.000000e+00
-8.533270e-06    -1.117511e-04    0.000000e+00
-4.257281e-06    -1.117436e-04    0.000000e+00
-1.260809e-18    -1.117409e-04    0.000000e+00
4.257281e-06    -1.117436e-04    0.000000e+00
8.533270e-06    -1.117511e-04    0.000000e+00
1.284670e-05    -1.117621e-04    0.000000e+00
1.721429e-05    -1.117772e-04    0.000000e+00
2.164067e-05    -1.118022e-04    0.000000e+00
-2.170513e-05    -1.162704e-04    0.000000e+00
-1.724615e-05    -1.162523e-04    0.000000e+00
-1.286626e-05    -1.162338e-04    0.000000e+00
-8.546206e-06    -1.162132e-04    0.000000e+00
-4.263865e-06    -1.161978e-04    0.000000e+00
-1.244291e-18    -1.161922e-04    0.000000e+00
4.263865e-06    -1.161978e-04    0.000000e+00
8.546206e-06    -1.162132e-04    0.000000e+00
1.286626e-05    -1.162338e-04    0.000000e+00
1.724615e-05    -1.162523e-04    0.000000e+00
2.170513e-05    -1.162704e-04    0.000000e+00
-2.173924e-05    -1.208105e-04    0.000000e+00
-1.726634e-05    -1.207758e-04    0.000000e+00
-1.288608e-05    -1.207173e-04    0.000000e+00
-8.561321e-06    -1.206645e-04    0.000000e+00
-4.272039e-06    -1.206293e-04    0.000000e+00
-1.251068e-18    -1.206170e-04    0.000000e+00
4.272039e-06    -1.206293e-04    0.000000e+00
8.561321e-06    -1.206645e-04    0.000000e+00
1.288608e-05    -1.207173e-04    0.000000e+00
1.726634e-05    -1.207758e-04    0.000000e+00
2.173924e-05    -1.208105e-04    0.000000e+00

CELL_DATA      400
TENSORS Element_Stress5.600000e-01 double
1.820598e+06 2.551812e+05        0
2.551812e+05 4.163488e+05        0
       0        0        0

1.243720e+06 1.308538e+05        0
1.308538e+05 3.566178e+05        0
       0        0        0

8.651185e+05 4.301032e+04        0
4.301032e+04 2.749959e+05        0
       0        0        0

5.100063e+05 -3.578363e+03        0
-3.578363e+03 1.690094e+05        0
       0        0        0

1.688541e+05 -2.488323e+04        0
-2.488323e+04 5.694968e+04        0
       0        0        0

-1.688184e+05 -2.487711e+04        0
-2.487711e+04 -5.695775e+04        0
       0        0        0

-5.095306e+05 -3.579112e+03        0
-3.579112e+03 -1.688447e+05        0
       0        0        0

-8.637077e+05 4.293851e+04        0
4.293851e+04 -2.744671e+05        0
       0        0        0

-1.240734e+06 1.305652e+05        0
1.305652e+05 -3.554740e+05        0
       0        0        0

-1.814375e+06 2.543707e+05        0
2.543707e+05 -4.141970e+05        0
       0        0        0

1.642070e+06 4.159748e+04        0
4.159748e+04 4.234799e+03        0
       0        0        0

1.322354e+06 1.206454e+05        0
1.206454e+05 1.286843e+05        0
       0        0        0

9.082521e+05 9.900755e+04        0
9.900755e+04 1.315191e+05        0
       0        0        0

5.364025e+05 7.580678e+04        0
7.580678e+04 9.193311e+04        0
       0        0        0

1.768172e+05 6.321707e+04        0
6.321707e+04 3.207757e+04        0
       0        0        0

-1.778550e+05 6.319873e+04        0
6.319873e+04 -3.316896e+04        0
       0        0        0

-5.369363e+05 7.574133e+04        0
7.574133e+04 -9.284490e+04        0
       0        0        0

-9.077061e+05 9.886737e+04        0
9.886737e+04 -1.320379e+05        0
       0        0        0

-1.319830e+06 1.204079e+05        0
1.204079e+05 -1.284324e+05        0
       0        0        0

-1.637466e+06 4.151082e+04        0
4.151082e+04 -3.136555e+03        0
       0        0        0

1.584953e+06 1.541639e+04        0
1.541639e+04 6.615316e+03        0
       0        0        0

1.271591e+06 6.833109e+04        0
6.833109e+04 1.757728e+04        0
       0        0        0

9.146413e+05 1.015639e+05        0
1.015639e+05 4.237686e+04        0
       0        0        0

5.430826e+05 1.074765e+05        0
1.074765e+05 3.592346e+04        0
       0        0        0

1.791459e+05 1.074054e+05        0
1.074054e+05 1.272037e+04        0
       0        0        0

-1.824790e+05 1.073775e+05        0
1.073775e+05 -1.611190e+04        0
       0        0        0

-5.458838e+05 1.073933e+05        0
1.073933e+05 -3.912503e+04        0
       0        0        0

-9.163117e+05 1.014348e+05        0
1.014348e+05 -4.515293e+04        0
       0        0        0

-1.271565e+06 6.821622e+04        0
6.821622e+04 -1.966893e+04        0
       0        0        0

-1.582978e+06 1.538448e+04        0
1.538448e+04 -7.911807e+03        0
       0        0        0

1.546129e+06 1.427370e+04        0
1.427370e+04 -3.975752e+03        0
       0        0        0

1.226683e+06 5.548208e+04        0
5.548208e+04 -1.953361e+03        0
       0        0        0

8.865538e+05 9.245024e+04        0
9.245024e+04 2.933168e+03        0
       0        0        0

5.331314e+05 1.146030e+05        0
1.146030e+05 5.877770e+03        0
       0        0        0

1.753740e+05 1.233579e+05        0
1.233579e+05 6.880625e+02        0
       0        0        0

-1.820438e+05 1.233283e+05        0
1.233283e+05 -7.415933e+03        0
       0        0        0

-5.392752e+05 1.145213e+05        0
1.145213e+05 -1.241206e+04        0
       0        0        0

-8.916350e+05 9.234262e+04        0
9.234262e+04 -9.058365e+03        0
       0        0        0

-1.230189e+06 5.539388e+04        0
5.539388e+04 -3.528931e+03        0
       0        0        0

-1.547532e+06 1.424568e+04        0
1.424568e+04 -5.504384e+02        0
       0        0        0

1.509427e+06 1.713063e+04        0
1.713063e+04 -5.567249e+03        0
       0        0        0

1.185340e+06 5.448733e+04        0
5.448733e+04 -8.577651e+03        0
       0        0        0

8.541561e+05 8.905469e+04        0
8.905469e+04 -8.329305e+03        0
       0        0        0

5.137340e+05 1.136408e+05        0
1.136408e+05 -6.745280e+03        0
       0        0        0

1.681056e+05 1.258450e+05        0
1.258450e+05 -5.639044e+03        0
       0        0        0

-1.789903e+05 1.258166e+05        0
1.258166e+05 -5.300819e+03        0
       0        0        0

-5.241237e+05 1.135646e+05        0
1.135646e+05 -4.010288e+03        0
       0        0        0

-8.635542e+05 8.895612e+04        0
8.895612e+04 -2.042812e+03        0
       0        0        0

-1.193244e+06 5.440409e+04        0
5.440409e+04 -1.179541e+03        0
       0        0        0

-1.515273e+06 1.709766e+04        0
1.709766e+04 -3.264824e+03        0
       0        0        0

1.469671e+06 1.958963e+04        0
1.958963e+04 -7.911531e+03        0
       0        0        0

1.147077e+06 5.644559e+04        0
5.644559e+04 -1.054799e+04        0
       0        0        0

8.224151e+05 8.838594e+04        0
8.838594e+04 -1.192774e+04        0
       0        0        0

4.928620e+05 1.117722e+05        0
1.117722e+05 -1.113898e+04        0
       0        0        0

1.594065e+05 1.239614e+05        0
1.239614e+05 -9.157848e+03        0
       0        0        0

-1.752704e+05 1.239347e+05        0
1.239347e+05 -6.757342e+03        0
       0        0        0

-5.082716e+05 1.117003e+05        0
1.117003e+05 -4.611022e+03        0
       0        0        0

-8.369138e+05 8.829171e+04        0
8.829171e+04 -3.479956e+03        0
       0        0        0

-1.160194e+06 5.636191e+04        0
5.636191e+04 -4.312364e+03        0
       0        0        0

-1.480879e+06 1.955284e+04        0
1.955284e+04 -6.139554e+03        0
       0        0        0

1.427069e+06 2.114429e+04        0
2.114429e+04 -1.052964e+04        0
       0        0        0

1.109854e+06 5.834958e+04        0
5.834958e+04 -1.236661e+04        0
       0        0        0

7.924051e+05 8.864128e+04        0
8.864128e+04 -1.362108e+04        0
       0        0        0

4.726277e+05 1.103428e+05        0
1.103428e+05 -1.337050e+04        0
       0        0        0

1.506199e+05 1.216735e+05        0
1.216735e+05 -1.181697e+04        0
       0        0        0

-1.721469e+05 1.216483e+05        0
1.216483e+05 -9.757740e+03        0
       0        0        0

-4.937482e+05 1.102742e+05        0
1.102742e+05 -8.067258e+03        0
       0        0        0

-8.127094e+05 8.854973e+04        0
8.854973e+04 -7.533908e+03        0
       0        0        0

-1.128918e+06 5.826553e+04        0
5.826553e+04 -8.339735e+03        0
       0        0        0

-1.444434e+06 2.110561e+04        0
2.110561e+04 -9.528609e+03        0
       0        0        0

1.382471e+06 2.200181e+04        0
2.200181e+04 -1.363722e+04        0
       0        0        0

1.072891e+06 5.961398e+04        0
5.961398e+04 -1.472183e+04        0
       0        0        0

7.635785e+05 8.901007e+04        0
8.901007e+04 -1.557414e+04        0
       0        0        0

4.533125e+05 1.094858e+05        0
1.094858e+05 -1.552412e+04        0
       0        0        0

1.419522e+05 1.200358e+05        0
1.200358e+05 -1.458784e+04        0
       0        0        0

-1.697603e+05 1.200117e+05        0
1.200117e+05 -1.326479e+04        0
       0        0        0

-4.807667e+05 1.094198e+05        0
1.094198e+05 -1.222641e+04        0
       0        0        0

-7.903212e+05 8.892090e+04        0
8.892090e+04 -1.196593e+04        0
       0        0        0

-1.098554e+06 5.953060e+04        0
5.953060e+04 -1.248635e+04        0
       0        0        0

-1.406666e+06 2.196271e+04        0
2.196271e+04 -1.309846e+04        0
       0        0        0

1.336650e+06 2.243103e+04        0
2.243103e+04 -1.712975e+04        0
       0        0        0

1.035846e+06 6.032508e+04        0
6.032508e+04 -1.770734e+04        0
       0        0        0

7.353690e+05 8.928001e+04        0
8.928001e+04 -1.819357e+04        0
       0        0        0

4.345842e+05 1.090314e+05        0
1.090314e+05 -1.820574e+04        0
       0        0        0

1.333510e+05 1.190751e+05        0
1.190751e+05 -1.770719e+04        0
       0        0        0

-1.679948e+05 1.190519e+05        0
1.190519e+05 -1.697818e+04        0
       0        0        0

-4.689286e+05 1.089678e+05        0
1.089678e+05 -1.641605e+04        0
       0        0        0

-7.691116e+05 8.919329e+04        0
8.919329e+04 -1.629667e+04        0
       0        0        0

-1.068676e+06 6.024325e+04        0
6.024325e+04 -1.657480e+04        0
       0        0        0

-1.368246e+06 2.239236e+04        0
2.239236e+04 -1.685617e+04        0
       0        0        0

1.290108e+06 2.262769e+04        0
2.262769e+04 -2.093370e+04        0
       0        0        0

9.986145e+05 6.068320e+04        0
6.068320e+04 -2.119241e+04        0
       0        0        0

7.073840e+05 8.943847e+04        0
8.943847e+04 -2.142407e+04        0
       0        0        0

4.161153e+05 1.088122e+05        0
1.088122e+05 -2.143279e+04        0
       0        0        0

1.247137e+05 1.185759e+05        0
1.185759e+05 -2.118594e+04        0
       0        0        0

-1.666835e+05 1.185536e+05        0
1.185536e+05 -2.082274e+04        0
       0        0        0

-4.578408e+05 1.087507e+05        0
1.087507e+05 -2.055219e+04        0
       0        0        0

-7.486181e+05 8.935433e+04        0
8.935433e+04 -2.051028e+04        0
       0        0        0

-1.039104e+06 6.060345e+04        0
6.060345e+04 -2.065826e+04        0
       0        0        0

-1.329592e+06 2.258991e+04        0
2.258991e+04 -2.079207e+04        0
       0        0        0

1.243138e+06 2.270943e+04        0
2.270943e+04 -2.498210e+04        0
       0        0        0

9.611829e+05 6.084707e+04        0
6.084707e+04 -2.504187e+04        0
       0        0        0

6.794119e+05 8.952007e+04        0
8.952007e+04 -2.510676e+04        0
       0        0        0

3.976942e+05 1.087151e+05        0
1.087151e+05 -2.508705e+04        0
       0        0        0

1.159751e+05 1.183403e+05        0
1.183403e+05 -2.496213e+04        0
       0        0        0

-1.656966e+05 1.183187e+05        0
1.183187e+05 -2.479576e+04        0
       0        0        0

-4.472257e+05 1.086557e+05        0
1.086557e+05 -2.468699e+04        0
       0        0        0

-7.285608e+05 8.943859e+04        0
8.943859e+04 -2.469694e+04        0
       0        0        0

-1.009752e+06 6.076971e+04        0
6.076971e+04 -2.480000e+04        0
       0        0        0

-1.290922e+06 2.267274e+04        0
2.267274e+04 -2.489961e+04        0
       0        0        0

1.195902e+06 2.273919e+04        0
2.273919e+04 -2.922324e+04        0
       0        0        0

9.235708e+05 6.091458e+04        0
6.091458e+04 -2.915047e+04        0
       0        0        0

6.513590e+05 8.955767e+04        0
8.955767e+04 -2.910387e+04        0
       0        0        0

3.792147e+05 1.086759e+05        0
1.086759e+05 -2.904718e+04        0
       0        0        0

1.071092e+05 1.182389e+05        0
1.182389e+05 -2.896999e+04        0
       0        0        0

-1.649443e+05 1.182180e+05        0
1.182180e+05 -2.889900e+04        0
       0        0        0

-4.369126e+05 1.086185e+05        0
1.086185e+05 -2.887696e+04        0
       0        0        0

-7.087800e+05 8.947891e+04        0
8.947891e+04 -2.892824e+04        0
       0        0        0

-9.805709e+05 6.083975e+04        0
6.083975e+04 -2.903784e+04        0
       0        0        0

-1.252330e+06 2.270369e+04        0
2.270369e+04 -2.916302e+04        0
       0        0        0

1.148491e+06 2.274763e+04        0
2.274763e+04 -3.361527e+04        0
       0        0        0

8.858087e+05 6.093851e+04        0
6.093851e+04 -3.344415e+04        0
       0        0        0

6.231974e+05 8.957284e+04        0
8.957284e+04 -3.331675e+04        0
       0        0        0

3.606384e+05 1.086618e+05        0
1.086618e+05 -3.322145e+04        0
       0        0        0

9.811734e+04 1.181997e+05        0
1.181997e+05 -3.315416e+04        0
       0        0        0

-1.643651e+05 1.181796e+05        0
1.181796e+05 -3.312513e+04        0
       0        0        0

-4.268000e+05 1.086064e+05        0
1.086064e+05 -3.315081e+04        0
       0        0        0

-6.891844e+05 8.949683e+04        0
8.949683e+04 -3.323922e+04        0
       0        0        0

-9.515284e+05 6.086627e+04        0
6.086627e+04 -3.338182e+04        0
       0        0        0

-1.213844e+06 2.271337e+04        0
2.271337e+04 -3.356049e+04        0
       0        0        0

1.100960e+06 2.274841e+04        0
2.274841e+04 -3.812278e+04        0
       0        0        0

8.479289e+05 6.094459e+04        0
6.094459e+04 -3.787019e+04        0
       0        0        0

5.949322e+05 8.957762e+04        0
8.957762e+04 -3.767803e+04        0
       0        0        0

3.419635e+05 1.086573e+05        0
1.086573e+05 -3.754494e+04        0
       0        0        0

8.901558e+04 1.181867e+05        0
1.181867e+05 -3.747027e+04        0
       0        0        0

-1.639142e+05 1.181674e+05        0
1.181674e+05 -3.745768e+04        0
       0        0        0

-4.168253e+05 1.086039e+05        0
1.086039e+05 -3.751247e+04        0
       0        0        0

-6.697180e+05 8.950436e+04        0
8.950436e+04 -3.763608e+04        0
       0        0        0

-9.225952e+05 6.087498e+04        0
6.087498e+04 -3.782343e+04        0
       0        0        0

-1.175457e+06 2.271539e+04        0
2.271539e+04 -3.806658e+04        0
       0        0        0

1.053347e+06 2.274703e+04        0
2.274703e+04 -4.271420e+04        0
       0        0        0

8.099626e+05 6.094429e+04        0
6.094429e+04 -4.238866e+04        0
       0        0        0

5.665832e+05 8.957803e+04        0
8.957803e+04 -4.214000e+04        0
       0        0        0

3.232060e+05 1.086559e+05        0
1.086559e+05 -4.197068e+04        0
       0        0        0

7.982720e+04 1.181835e+05        0
1.181835e+05 -4.188171e+04        0
       0        0        0

-1.635563e+05 1.181649e+05        0
1.181649e+05 -4.187447e+04        0
       0        0        0

-4.069457e+05 1.086046e+05        0
1.086046e+05 -4.195008e+04        0
       0        0        0

-6.503417e+05 8.950753e+04        0
8.950753e+04 -4.210767e+04        0
       0        0        0

-8.937438e+05 6.087730e+04        0
6.087730e+04 -4.234382e+04        0
       0        0        0

-1.137148e+06 2.271526e+04        0
2.271526e+04 -4.265429e+04        0
       0        0        0

1.005683e+06 2.274539e+04        0
2.274539e+04 -4.736038e+04        0
       0        0        0

7.719394e+05 6.094219e+04        0
6.094219e+04 -4.696667e+04        0
       0        0        0

5.381756e+05 8.957681e+04        0
8.957681e+04 -4.666608e+04        0
       0        0        0

3.043894e+05 1.086553e+05        0
1.086553e+05 -4.646218e+04        0
       0        0        0

7.057816e+04 1.181832e+05        0
1.181832e+05 -4.635676e+04        0
       0        0        0

-1.632605e+05 1.181653e+05        0
1.181653e+05 -4.635058e+04        0
       0        0        0

-3.971278e+05 1.086060e+05        0
1.086060e+05 -4.644347e+04        0
       0        0        0

-6.310240e+05 8.950907e+04        0
8.950907e+04 -4.663394e+04        0
       0        0        0

-8.649473e+05 6.087783e+04        0
6.087783e+04 -4.691929e+04        0
       0        0        0

-1.098893e+06 2.271487e+04        0
2.271487e+04 -4.729637e+04        0
       0        0        0

9.579955e+05 2.274400e+04        0
2.274400e+04 -5.203381e+04        0
       0        0        0

7.338873e+05 6.093989e+04        0
6.093989e+04 -5.157525e+04        0
       0        0        0

5.097360e+05 8.957508e+04        0
8.957508e+04 -5.122566e+04        0
       0        0        0

2.855393e+05 1.086546e+05        0
1.086546e+05 -5.098880e+04        0
       0        0        0

6.129495e+04 1.181835e+05        0
1.181835e+05 -5.086675e+04        0
       0        0        0

-1.629989e+05 1.181663e+05        0
1.181663e+05 -5.086025e+04        0
       0        0        0

-3.873432e+05 1.086073e+05        0
1.086073e+05 -5.096887e+04        0
       0        0        0

-6.117373e+05 8.951011e+04        0
8.951011e+04 -5.119108e+04        0
       0        0        0

-8.361791e+05 6.087815e+04        0
6.087815e+04 -5.152449e+04        0
       0        0        0

-1.060664e+06 2.271473e+04        0
2.271473e+04 -5.196605e+04        0
       0        0        0

9.103102e+05 2.274290e+04        0
2.274290e+04 -5.670829e+04        0
       0        0        0

6.958326e+05 6.093780e+04        0
6.093780e+04 -5.618768e+04        0
       0        0        0

4.812907e+05 8.957328e+04        0
8.957328e+04 -5.579141e+04        0
       0        0        0

2.666817e+05 1.086537e+05        0
1.086537e+05 -5.552312e+04        0
       0        0        0

5.200354e+04 1.181835e+05        0
1.181835e+05 -5.538500e+04        0
       0        0        0

-1.627453e+05 1.181671e+05        0
1.181671e+05 -5.537790e+04        0
       0        0        0

-3.775653e+05 1.086084e+05        0
1.086084e+05 -5.550144e+04        0
       0        0        0

-5.924555e+05 8.951107e+04        0
8.951107e+04 -5.575422e+04        0
       0        0        0

-8.074137e+05 6.087870e+04        0
6.087870e+04 -5.613390e+04        0
       0        0        0

-1.022436e+06 2.271486e+04        0
2.271486e+04 -5.663735e+04        0
       0        0        0

8.626520e+05 2.274198e+04        0
2.274198e+04 -6.135878e+04        0
       0        0        0

6.578008e+05 6.093596e+04        0
6.093596e+04 -6.077882e+04        0
       0        0        0

4.528650e+05 8.957150e+04        0
8.957150e+04 -6.033795e+04        0
       0        0        0

2.478418e+05 1.086526e+05        0
1.086526e+05 -6.003971e+04        0
       0        0        0

4.272898e+04 1.181833e+05        0
1.181833e+05 -5.988630e+04        0
       0        0        0

-1.624747e+05 1.181676e+05        0
1.181676e+05 -5.987867e+04        0
       0        0        0

-3.677693e+05 1.086093e+05        0
1.086093e+05 -6.001656e+04        0
       0        0        0

-5.731539e+05 8.951206e+04        0
8.951206e+04 -6.029866e+04        0
       0        0        0

-7.786261e+05 6.087948e+04        0
6.087948e+04 -6.072266e+04        0
       0        0        0

-9.841819e+05 2.271520e+04        0
2.271520e+04 -6.128530e+04        0
       0        0        0

8.150447e+05 2.274119e+04        0
2.274119e+04 -6.596136e+04        0
       0        0        0

6.198157e+05 6.093429e+04        0
6.093429e+04 -6.532473e+04        0
       0        0        0

4.244830e+05 8.956978e+04        0
8.956978e+04 -6.484132e+04        0
       0        0        0

2.290436e+05 1.086514e+05        0
1.086514e+05 -6.451456e+04        0
       0        0        0

3.349528e+04 1.181828e+05        0
1.181828e+05 -6.434667e+04        0
       0        0        0

-1.621631e+05 1.181678e+05        0
1.181678e+05 -6.433865e+04        0
       0        0        0

-3.579315e+05 1.086101e+05        0
1.086101e+05 -6.449035e+04        0
       0        0        0

-5.538087e+05 8.951311e+04        0
8.951311e+04 -6.480052e+04        0
       0        0        0

-7.497925e+05 6.088043e+04        0
6.088043e+04 -6.526685e+04        0
       0        0        0

-9.458791e+05 2.271565e+04        0
2.271565e+04 -6.588596e+04        0
       0        0        0

7.675109e+05 2.274046e+04        0
2.274046e+04 -7.049318e+04        0
       0        0        0

5.819002e+05 6.093273e+04        0
6.093273e+04 -6.980260e+04        0
       0        0        0

3.961677e+05 8.956811e+04        0
8.956811e+04 -6.927870e+04        0
       0        0        0

2.103102e+05 1.086501e+05        0
1.086501e+05 -6.892486e+04        0
       0        0        0

2.432535e+04 1.181822e+05        0
1.181822e+05 -6.874327e+04        0
       0        0        0

-1.617877e+05 1.181679e+05        0
1.181679e+05 -6.873499e+04        0
       0        0        0

-3.480290e+05 1.086108e+05        0
1.086108e+05 -6.889993e+04        0
       0        0        0

-5.343973e+05 8.951420e+04        0
8.951420e+04 -6.923690e+04        0
       0        0        0

-7.208901e+05 6.088150e+04        0
6.088150e+04 -6.974356e+04        0
       0        0        0

-9.075040e+05 2.271617e+04        0
2.271617e+04 -7.041649e+04        0
       0        0        0

7.200723e+05 2.273978e+04        0
2.273978e+04 -7.493249e+04        0
       0        0        0

5.440762e+05 6.093125e+04        0
6.093125e+04 -7.419071e+04        0
       0        0        0

3.679410e+05 8.956648e+04        0
8.956648e+04 -7.362841e+04        0
       0        0        0

1.916633e+05 1.086488e+05        0
1.086488e+05 -7.324889e+04        0
       0        0        0

1.524098e+04 1.181815e+05        0
1.181815e+05 -7.305436e+04        0
       0        0        0

-1.613270e+05 1.181679e+05        0
1.181679e+05 -7.304590e+04        0
       0        0        0

-3.380404e+05 1.086115e+05        0
1.086115e+05 -7.322349e+04        0
       0        0        0

-5.148979e+05 8.951533e+04        0
8.951533e+04 -7.358597e+04        0
       0        0        0

-6.918973e+05 6.088265e+04        0
6.088265e+04 -7.413101e+04        0
       0        0        0

-8.690350e+05 2.271673e+04        0
2.271673e+04 -7.485511e+04        0
       0        0        0

6.727496e+05 2.273915e+04        0
2.273915e+04 -7.925863e+04        0
       0        0        0

5.063643e+05 6.092987e+04        0
6.092987e+04 -7.846843e+04        0
       0        0        0

3.398235e+05 8.956489e+04        0
8.956489e+04 -7.786983e+04        0
       0        0        0

1.731238e+05 1.086474e+05        0
1.086474e+05 -7.746605e+04        0
       0        0        0

6.262879e+03 1.181806e+05        0
1.181806e+05 -7.725929e+04        0
       0        0        0

-1.607601e+05 1.181679e+05        0
1.181679e+05 -7.725069e+04        0
       0        0        0

-3.279448e+05 1.086121e+05        0
1.086121e+05 -7.744030e+04        0
       0        0        0

-4.952900e+05 8.951651e+04        0
8.951651e+04 -7.782701e+04        0
       0        0        0

-6.627933e+05 6.088389e+04        0
6.088389e+04 -7.840849e+04        0
       0        0        0

-8.304513e+05 2.271735e+04        0
2.271735e+04 -7.918115e+04        0
       0        0        0

6.255623e+05 2.273859e+04        0
2.273859e+04 -8.345202e+04        0
       0        0        0

4.687842e+05 6.092860e+04        0
6.092860e+04 -8.261621e+04        0
       0        0        0

3.118350e+05 8.956335e+04        0
8.956335e+04 -8.198342e+04        0
       0        0        0

1.547113e+05 1.086460e+05        0
1.086460e+05 -8.155678e+04        0
       0        0        0

-2.589332e+03 1.181797e+05        0
1.181797e+05 -8.133849e+04        0
       0        0        0

-1.600676e+05 1.181676e+05        0
1.181676e+05 -8.132976e+04        0
       0        0        0

-3.177230e+05 1.086127e+05        0
1.086127e+05 -8.153073e+04        0
       0        0        0

-4.755540e+05 8.951773e+04        0
8.951773e+04 -8.194037e+04        0
       0        0        0

-6.335585e+05 6.088526e+04        0
6.088526e+04 -8.255636e+04        0
       0        0        0

-7.917331e+05 2.271804e+04        0
2.271804e+04 -8.337502e+04        0
       0        0        0

5.785286e+05 2.273817e+04        0
2.273817e+04 -8.749418e+04        0
       0        0        0

4.313542e+05 6.092752e+04        0
6.092752e+04 -8.661559e+04        0
       0        0        0

2.839942e+05 8.956185e+04        0
8.956185e+04 -8.595072e+04        0
       0        0        0

1.364444e+05 1.086444e+05        0
1.086444e+05 -8.550260e+04        0
       0        0        0

-1.129712e+04 1.181785e+05        0
1.181785e+05 -8.527347e+04        0
       0        0        0

-1.592310e+05 1.181672e+05        0
1.181672e+05 -8.526462e+04        0
       0        0        0

-3.073564e+05 1.086132e+05        0
1.086132e+05 -8.547630e+04        0
       0        0        0

-4.556717e+05 8.951900e+04        0
8.951900e+04 -8.590754e+04        0
       0        0        0

-6.041745e+05 6.088680e+04        0
6.088680e+04 -8.655609e+04        0
       0        0        0

-7.528619e+05 2.271886e+04        0
2.271886e+04 -8.741819e+04        0
       0        0        0

5.316658e+05 2.273795e+04        0
2.273795e+04 -9.136769e+04        0
       0        0        0

3.940921e+05 6.092663e+04        0
6.092663e+04 -9.044910e+04        0
       0        0        0

2.563184e+05 8.956035e+04        0
8.956035e+04 -8.975416e+04        0
       0        0        0

1.183407e+05 1.086427e+05        0
1.086427e+05 -8.928591e+04        0
       0        0        0

-1.984304e+04 1.181771e+05        0
1.181771e+05 -8.904673e+04        0
       0        0        0

-1.582329e+05 1.181665e+05        0
1.181665e+05 -8.903797e+04        0
       0        0        0

-2.968278e+05 1.086135e+05        0
1.086135e+05 -8.925978e+04        0
       0        0        0

-4.356257e+05 8.952026e+04        0
8.952026e+04 -8.971126e+04        0
       0        0        0

-5.746240e+05 6.088854e+04        0
6.088854e+04 -9.039032e+04        0
       0        0        0

-7.138200e+05 2.271989e+04        0
2.271989e+04 -9.129325e+04        0
       0        0        0

4.849900e+05 2.273796e+04        0
2.273796e+04 -9.505616e+04        0
       0        0        0

3.570143e+05 6.092577e+04        0
6.092577e+04 -9.410011e+04        0
       0        0        0

2.288244e+05 8.955862e+04        0
8.955862e+04 -9.337680e+04        0
       0        0        0

1.004164e+05 1.086409e+05        0
1.086409e+05 -9.288973e+04        0
       0        0        0

-2.821084e+04 1.181759e+05        0
1.181759e+05 -9.264170e+04        0
       0        0        0

-1.570570e+05 1.181660e+05        0
1.181660e+05 -9.263378e+04        0
       0        0        0

-2.861209e+05 1.086137e+05        0
1.086137e+05 -9.286554e+04        0
       0        0        0

-4.153999e+05 8.952130e+04        0
8.952130e+04 -9.333582e+04        0
       0        0        0

-5.448908e+05 6.089031e+04        0
6.089031e+04 -9.404299e+04        0
       0        0        0

-6.745908e+05 2.272114e+04        0
2.272114e+04 -9.498387e+04        0
       0        0        0

4.385165e+05 2.273798e+04        0
2.273798e+04 -9.854412e+04        0
       0        0        0

3.201365e+05 6.092413e+04        0
6.092413e+04 -9.755241e+04        0
       0        0        0

2.015270e+05 8.955604e+04        0
8.955604e+04 -9.680154e+04        0
       0        0        0

8.268605e+04 1.086393e+05        0
1.086393e+05 -9.629692e+04        0
       0        0        0

-3.638570e+04 1.181760e+05        0
1.181760e+05 -9.604233e+04        0
       0        0        0

-1.556878e+05 1.181669e+05        0
1.181669e+05 -9.603768e+04        0
       0        0        0

-2.752197e+05 1.086142e+05        0
1.086142e+05 -9.628030e+04        0
       0        0        0

-3.949789e+05 8.952148e+04        0
8.952148e+04 -9.676788e+04        0
       0        0        0

-5.149601e+05 6.089129e+04        0
6.089129e+04 -9.749979e+04        0
       0        0        0

-6.351590e+05 2.272241e+04        0
2.272241e+04 -9.847493e+04        0
       0        0        0

3.922608e+05 2.273705e+04        0
2.273705e+04 -1.018168e+05        0
       0        0        0

2.834737e+05 6.091918e+04        0
6.091918e+04 -1.007892e+05        0
       0        0        0

1.744389e+05 8.955103e+04        0
8.955103e+04 -1.000095e+05        0
       0        0        0

6.516112e+04 1.086394e+05        0
1.086394e+05 -9.948864e+04        0
       0        0        0

-4.435479e+04 1.181814e+05        0
1.181814e+05 -9.923256e+04        0
       0        0        0

-1.541098e+05 1.181730e+05        0
1.181730e+05 -9.923756e+04        0
       0        0        0

-2.641076e+05 1.086162e+05        0
1.086162e+05 -9.949471e+04        0
       0        0        0

-3.743470e+05 8.951924e+04        0
8.951924e+04 -9.999807e+04        0
       0        0        0

-4.848186e+05 6.088897e+04        0
6.088897e+04 -1.007491e+05        0
       0        0        0

-5.955116e+05 2.272272e+04        0
2.272272e+04 -1.017526e+05        0
       0        0        0

3.462408e+05 2.273213e+04        0
2.273213e+04 -1.048596e+05        0
       0        0        0

2.470402e+05 6.090435e+04        0
6.090435e+04 -1.037913e+05        0
       0        0        0

1.475679e+05 8.953998e+04        0
8.953998e+04 -1.029768e+05        0
       0        0        0

4.784706e+04 1.086446e+05        0
1.086446e+05 -1.024414e+05        0
       0        0        0

-5.210859e+04 1.182015e+05        0
1.182015e+05 -1.021950e+05        0
       0        0        0

-1.523066e+05 1.181938e+05        0
1.181938e+05 -1.022248e+05        0
       0        0        0

-2.527641e+05 1.086235e+05        0
1.086235e+05 -1.025064e+05        0
       0        0        0

-3.534861e+05 8.951095e+04        0
8.951095e+04 -1.030243e+05        0
       0        0        0

-4.544544e+05 6.087677e+04        0
6.087677e+04 -1.037842e+05        0
       0        0        0

-5.556397e+05 2.271905e+04        0
2.271905e+04 -1.048050e+05        0
       0        0        0

3.004822e+05 2.271539e+04        0
2.271539e+04 -1.076574e+05        0
       0        0        0

2.108493e+05 6.086437e+04        0
6.086437e+04 -1.065333e+05        0
       0        0        0

1.209111e+05 8.951546e+04        0
8.951546e+04 -1.056691e+05        0
       0        0        0

3.073692e+04 1.086641e+05        0
1.086641e+05 -1.051219e+05        0
       0        0        0

-5.964355e+04 1.182578e+05        0
1.182578e+05 -1.049091e+05        0
       0        0        0

-1.502580e+05 1.182508e+05        0
1.182508e+05 -1.049962e+05        0
       0        0        0

-2.411586e+05 1.086450e+05        0
1.086450e+05 -1.053249e+05        0
       0        0        0

-3.323700e+05 8.948920e+04        0
8.948920e+04 -1.058577e+05        0
       0        0        0

-4.238570e+05 6.083943e+04        0
6.083943e+04 -1.066065e+05        0
       0        0        0

-5.155448e+05 2.270357e+04        0
2.270357e+04 -1.076228e+05        0
       0        0        0

2.550302e+05 2.266861e+04        0
2.266861e+04 -1.101928e+05        0
       0        0        0

1.749112e+05 6.076689e+04        0
6.076689e+04 -1.089786e+05        0
       0        0        0

9.444394e+04 8.946363e+04        0
8.946363e+04 -1.080332e+05        0
       0        0        0

1.379929e+04 1.087177e+05        0
1.087177e+05 -1.074804e+05        0
       0        0        0

-6.696699e+04 1.183950e+05        0
1.183950e+05 -1.073481e+05        0
       0        0        0

-1.479345e+05 1.183887e+05        0
1.183887e+05 -1.075565e+05        0
       0        0        0

-2.292386e+05 1.087005e+05        0
1.087005e+05 -1.079789e+05        0
       0        0        0

-3.109536e+05 8.944014e+04        0
8.944014e+04 -1.085307e+05        0
       0        0        0

-3.930164e+05 6.074460e+04        0
6.074460e+04 -1.092323e+05        0
       0        0        0

-4.752498e+05 2.265805e+04        0
2.265805e+04 -1.102010e+05        0
       0        0        0

2.099707e+05 2.255312e+04        0
2.255312e+04 -1.124452e+05        0
       0        0        0

1.392276e+05 6.054966e+04        0
6.054966e+04 -1.110720e+05        0
       0        0        0

6.809783e+04 8.936201e+04        0
8.936201e+04 -1.099896e+05        0
       0        0        0

-3.042201e+03 1.088455e+05        0
1.088455e+05 -1.094456e+05        0
       0        0        0

-7.410476e+04 1.186961e+05        0
1.186961e+05 -1.094775e+05        0
       0        0        0

-1.452897e+05 1.186906e+05        0
1.186906e+05 -1.099193e+05        0
       0        0        0

-2.169085e+05 1.088304e+05        0
1.088304e+05 -1.105207e+05        0
       0        0        0

-2.891518e+05 8.934130e+04        0
8.934130e+04 -1.111065e+05        0
       0        0        0

-3.619182e+05 6.053005e+04        0
6.053005e+04 -1.117009e+05        0
       0        0        0

-4.348222e+05 2.254384e+04        0
2.254384e+04 -1.125421e+05        0
       0        0        0

1.654676e+05 2.229389e+04        0
2.229389e+04 -1.143894e+05        0
       0        0        0

1.037757e+05 6.010633e+04        0
6.010633e+04 -1.127378e+05        0
       0        0        0

4.172434e+04 8.918285e+04        0
8.918285e+04 -1.114369e+05        0
       0        0        0

-1.993674e+04 1.091211e+05        0
1.091211e+05 -1.109352e+05        0
       0        0        0

-8.111029e+04 1.192969e+05        0
1.192969e+05 -1.112604e+05        0
       0        0        0

-1.422485e+05 1.192922e+05        0
1.192922e+05 -1.121001e+05        0
       0        0        0

-2.040019e+05 1.091080e+05        0
1.091080e+05 -1.130150e+05        0
       0        0        0

-2.668047e+05 8.916493e+04        0
8.916493e+04 -1.136749e+05        0
       0        0        0

-3.305323e+05 6.008944e+04        0
6.008944e+04 -1.140806e+05        0
       0        0        0

-3.944153e+05 2.228592e+04        0
2.228592e+04 -1.146607e+05        0
       0        0        0

1.218143e+05 2.175987e+04        0
2.175987e+04 -1.160001e+05        0
       0        0        0

6.846991e+04 5.928775e+04        0
5.928775e+04 -1.139016e+05        0
       0        0        0

1.504776e+04 8.891653e+04        0
8.891653e+04 -1.123083e+05        0
       0        0        0

-3.712658e+04 1.096611e+05        0
1.096611e+05 -1.119237e+05        0
       0        0        0

-8.806576e+04 1.203706e+05        0
1.203706e+05 -1.126850e+05        0
       0        0        0

-1.387020e+05 1.203666e+05        0
1.203666e+05 -1.140839e+05        0
       0        0        0

-1.902583e+05 1.096500e+05        0
1.096500e+05 -1.154691e+05        0
       0        0        0

-2.436324e+05 8.890144e+04        0
8.890144e+04 -1.162985e+05        0
       0        0        0

-2.987810e+05 5.927361e+04        0
5.927361e+04 -1.164537e+05        0
       0        0        0

-3.543298e+05 2.175326e+04        0
2.175326e+04 -1.165894e+05        0
       0        0        0

7.947515e+04 2.075678e+04        0
2.075678e+04 -1.172821e+05        0
       0        0        0

3.307865e+04 5.797447e+04        0
5.797447e+04 -1.145899e+05        0
       0        0        0

-1.236393e+04 8.865059e+04        0
8.865059e+04 -1.127886e+05        0
       0        0        0

-5.490063e+04 1.106013e+05        0
1.106013e+05 -1.126577e+05        0
       0        0        0

-9.504947e+04 1.220074e+05        0
1.220074e+05 -1.138552e+05        0
       0        0        0

-1.345317e+05 1.220041e+05        0
1.220041e+05 -1.157267e+05        0
       0        0        0

-1.753639e+05 1.105923e+05        0
1.105923e+05 -1.176118e+05        0
       0        0        0

-2.192067e+05 8.863840e+04        0
8.863840e+04 -1.187962e+05        0
       0        0        0

-2.664683e+05 5.796312e+04        0
5.796312e+04 -1.188293e+05        0
       0        0        0

-3.150782e+05 2.075156e+04        0
2.075156e+04 -1.183719e+05        0
       0        0        0

3.901604e+04 1.910250e+04        0
1.910250e+04 -1.183311e+05        0
       0        0        0

-2.945801e+03 5.638064e+04        0
5.638064e+04 -1.153385e+05        0
       0        0        0

-4.097162e+04 8.874194e+04        0
8.874194e+04 -1.139163e+05        0
       0        0        0

-7.334316e+04 1.119428e+05        0
1.119428e+05 -1.141993e+05        0
       0        0        0

-1.020044e+05 1.238170e+05        0
1.238170e+05 -1.151847e+05        0
       0        0        0

-1.297257e+05 1.238146e+05        0
1.238146e+05 -1.165458e+05        0
       0        0        0

-1.591896e+05 1.119363e+05        0
1.119363e+05 -1.183359e+05        0
       0        0        0

-1.930733e+05 8.873286e+04        0
8.873286e+04 -1.201362e+05        0
       0        0        0

-2.331278e+05 5.637209e+04        0
5.637209e+04 -1.207525e+05        0
       0        0        0

-2.773664e+05 1.909865e+04        0
1.909865e+04 -1.200521e+05        0
       0        0        0

5.231885e+02 1.710271e+04        0
1.710271e+04 -1.199683e+05        0
       0        0        0

-4.055900e+04 5.592265e+04        0
5.592265e+04 -1.183223e+05        0
       0        0        0

-7.064224e+04 9.001307e+04        0
9.001307e+04 -1.192608e+05        0
       0        0        0

-9.160225e+04 1.128998e+05        0
1.128998e+05 -1.193451e+05        0
       0        0        0

-1.084793e+05 1.240404e+05        0
1.240404e+05 -1.176209e+05        0
       0        0        0

-1.246149e+05 1.240392e+05        0
1.240392e+05 -1.154734e+05        0
       0        0        0

-1.424954e+05 1.128964e+05        0
1.128964e+05 -1.147534e+05        0
       0        0        0

-1.653497e+05 9.000769e+04        0
9.000769e+04 -1.167341e+05        0
       0        0        0

-1.979384e+05 5.591692e+04        0
5.591692e+04 -1.201833e+05        0
       0        0        0

-2.416132e+05 1.710010e+04        0
1.710010e+04 -1.211410e+05        0
       0        0        0

-3.838756e+04 1.780089e+04        0
1.780089e+04 -1.241547e+05        0
       0        0        0

-8.056431e+04 6.133461e+04        0
6.133461e+04 -1.329179e+05        0
       0        0        0

-9.823377e+04 9.241439e+04        0
9.241439e+04 -1.376493e+05        0
       0        0        0

-1.069299e+05 1.101518e+05        0
1.101518e+05 -1.330247e+05        0
       0        0        0

-1.134903e+05 1.182691e+05        0
1.182691e+05 -1.226657e+05        0
       0        0        0

-1.199857e+05 1.182695e+05        0
1.182695e+05 -1.108102e+05        0
       0        0        0

-1.278480e+05 1.101525e+05        0
1.101525e+05 -1.017531e+05        0
       0        0        0

-1.390687e+05 9.241419e+04        0
9.241419e+04 -9.965328e+04        0
       0        0        0

-1.602170e+05 6.133242e+04        0
6.133242e+04 -1.078653e+05        0
       0        0        0

-2.060740e+05 1.779909e+04        0
1.779909e+04 -1.203165e+05        0
       0        0        0

-9.041227e+04 4.054631e+04        0
4.054631e+04 -1.562833e+05        0
       0        0        0

-1.138421e+05 7.593486e+04        0
7.593486e+04 -1.858539e+05        0
       0        0        0

-1.150718e+05 8.920336e+04        0
8.920336e+04 -1.817339e+05        0
       0        0        0

-1.153875e+05 9.571255e+04        0
9.571255e+04 -1.608397e+05        0
       0        0        0

-1.157489e+05 9.856239e+04        0
9.856239e+04 -1.317915e+05        0
       0        0        0

-1.168366e+05 9.856429e+04        0
9.856429e+04 -1.007937e+05        0
       0        0        0

-1.188659e+05 9.571771e+04        0
9.571771e+04 -7.341100e+04        0
       0        0        0

-1.225609e+05 8.921016e+04        0
8.921016e+04 -5.589328e+04        0
       0        0        0

-1.289065e+05 7.594047e+04        0
7.594047e+04 -5.688864e+04        0
       0        0        0

-1.586523e+05 4.054609e+04        0
4.054609e+04 -9.278138e+04        0
       0        0        0

POINT_DATA     451
VECTORS DISPLACEMENT_5.800000e-01 double
0.000000e+00    0.000000e+00    0.000000e+00
0.000000e+00    0.000000e+00    0.000000e+00
0.000000e+00    0.000000e+00    0.000000e+00
0.000000e+00    0.000000e+00    0.000000e+00
0.000000e+00    0.000000e+00    0.000000e+00
0.000000e+00    0.000000e+00    0.000000e+00
0.000000e+00    0.000000e+00    0.000000e+00
0.000000e+00    0.000000e+00    0.000000e+00
0.000000e+00    0.000000e+00    0.000000e+00
0.000000e+00    0.000000e+00    0.000000e+00
0.000000e+00    0.000000e+00    0.000000e+00
-1.141595e-06    -8.299605e-07    0.000000e+00
-7.233448e-07    -4.163094e-07    0.000000e+00
-5.161144e-07    -2.157261e-07    0.000000e+00
-3.332233e-07    -1.068318e-07    0.000000e+00
-1.642863e-07    -5.047426e-08    0.000000e+00
-3.653521e-20    -3.295145e-08    0.000000e+00
1.642863e-07    -5.047426e-08    0.000000e+00
3.332233e-07    -1.068318e-07    0.000000e+00
5.161144e-07    -2.157261e-07    0.000000e+00
7.233448e-07    -4.163094e-07    0.000000e+00
1.141595e-06    -8.299605e-07    0.000000e+00
-2.153941e-06    -1.380309e-06    0.000000e+00
-1.574436e-06    -9.987668e-07    0.000000e+00
-1.105093e-06    -7.015532e-07    0.000000e+00
-7.128292e-07    -5.177059e-07    0.000000e+00
-3.501023e-07    -4.175298e-07    0.000000e+00
-7.714535e-20    -3.857102e-07    0.000000e+00
3.501023e-07    -4.175298e-07    0.000000e+00
7.128292e-07    -5.177059e-07    0.000000e+00
1.105093e-06    -7.015532e-07    0.000000e+00
1.574436e-06    -9.987668e-07    0.000000e+00
2.153941e-06    -1.380309e-06    0.000000e+00
-3.132427e-06    -2.064634e-06    0.000000e+00
-2.394168e-06    -1.682257e-06    0.000000e+00
-1.722702e-06    -1.380761e-06    0.000000e+00
-1.115240e-06    -1.168096e-06    0.000000e+00
-5.487489e-07    -1.045521e-06    0.000000e+00
-1.214070e-19    -1.005593e-06    0.000000e+00
5.487489e-07    -1.045521e-06    0.000000e+00
1.115240e-06    -1.168096e-06    0.000000e+00
1.722702e-06    -1.380761e-06    0.000000e+00
2.394168e-06    -1.682257e-06    0.000000e+00
3.132427e-06    -2.064634e-06    0.000000e+00
-4.100076e-06    -2.909172e-06    0.000000e+00
-3.186876e-06    -2.535522e-06    0.000000e+00
-2.326958e-06    -2.239053e-06    0.000000e+00
-1.519408e-06    -2.025105e-06    0.000000e+00
-7.500557e-07    -1.896684e-06    0.000000e+00
-1.673486e-19    -1.854101e-06    0.000000e+00
7.500557e-07    -1.896684e-06    0.000000e+00
1.519408e-06    -2.025105e-06    0.000000e+00
2.326958e-06    -2.239053e-06    0.000000e+00
3.186876e-06    -2.535522e-06    0.000000e+00
4.100076e-06    -2.909172e-06    0.000000e+00
-5.051341e-06    -3.936654e-06    0.000000e+00
-3.956477e-06    -3.571725e-06    0.000000e+00
-2.911986e-06    -3.284208e-06    0.000000e+00
-1.912865e-06    -3.075889e-06    0.000000e+00
-9.475500e-07    -2.949778e-06    0.000000e+00
-2.147493e-19    -2.907564e-06    0.000000e+00
9.475500e-07    -2.949778e-06    0.000000e+00
1.912865e-06    -3.075889e-06    0.000000e+00
2.911986e-06    -3.284208e-06    0.000000e+00
3.956477e-06    -3.571725e-06    0.000000e+00
5.051341e-06    -3.936654e-06    0.000000e+00
-5.981873e-06    -5.149742e-06    0.000000e+00
-4.704513e-06    -4.794468e-06    0.000000e+00
-3.477740e-06    -4.516043e-06    0.000000e+00
-2.292922e-06    -4.315096e-06    0.000000e+00
-1.138484e-06    -4.193469e-06    0.000000e+00
-2.633743e-19    -4.152740e-06    0.000000e+00
1.138484e-06    -4.193469e-06    0.000000e+00
2.292922e-06    -4.315096e-06    0.000000e+00
3.477740e-06    -4.516043e-06    0.000000e+00
4.704513e-06    -4.794468e-06    0.000000e+00
5.981873e-06    -5.149742e-06    0.000000e+00
-6.888558e-06    -6.546376e-06    0.000000e+00
-5.431254e-06    -6.201154e-06    0.000000e+00
-4.025294e-06    -5.931590e-06    0.000000e+00
-2.659769e-06    -5.737829e-06    0.000000e+00
-1.322562e-06    -5.620886e-06    0.000000e+00
-3.090611e-19    -5.581769e-06    0.000000e+00
1.322562e-06    -5.620886e-06    0.000000e+00
2.659769e-06    -5.737829e-06    0.000000e+00
4.025294e-06    -5.931590e-06    0.000000e+00
5.431254e-06    -6.201154e-06    0.000000e+00
6.888558e-06    -6.546376e-06    0.000000e+00
-7.769676e-06    -8.122139e-06    0.000000e+00
-6.136609e-06    -7.787205e-06    0.000000e+00
-4.555509e-06    -7.526210e-06    0.000000e+00
-3.014226e-06    -7.339157e-06    0.000000e+00
-1.500173e-06    -7.226543e-06    0.000000e+00
-3.543245e-19    -7.188927e-06    0.000000e+00
1.500173e-06    -7.226543e-06    0.000000e+00
3.014226e-06    -7.339157e-06    0.000000e+00
4.555509e-06    -7.526210e-06    0.000000e+00
6.136609e-06    -7.787205e-06    0.000000e+00
7.769676e-06    -8.122139e-06    0.000000e+00
-8.624338e-06    -9.871838e-06    0.000000e+00
-6.820449e-06    -9.547301e-06    0.000000e+00
-5.068913e-06    -9.294676e-06    0.000000e+00
-3.356973e-06    -9.113935e-06    0.000000e+00
-1.671744e-06    -9.005300e-06    0.000000e+00
-3.999584e-19    -8.969049e-06    0.000000e+00
1.671744e-06    -9.005300e-06    0.000000e+00
3.356973e-06    -9.113935e-06    0.000000e+00
5.068913e-06    -9.294676e-06    0.000000e+00
6.820449e-06    -9.547301e-06    0.000000e+00
8.624338e-06    -9.871838e-06    0.000000e+00
-9.452128e-06    -1.179002e-05    0.000000e+00
-7.482678e-06    -1.147593e-05    0.000000e+00
-5.565791e-06    -1.123156e-05    0.000000e+00
-3.688437e-06    -1.105688e-05    0.000000e+00
-1.837569e-06    -1.095199e-05    0.000000e+00
-4.478687e-19    -1.091701e-05    0.000000e+00
1.837569e-06    -1.095199e-05    0.000000e+00
3.688437e-06    -1.105688e-05    0.000000e+00
5.565791e-06    -1.123156e-05    0.000000e+00
7.482678e-06    -1.147593e-05    0.000000e+00
9.452128e-06    -1.179002e-05    0.000000e+00
-1.025287e-05    -1.387120e-05    0.000000e+00
-8.123242e-06    -1.356758e-05    0.000000e+00
-6.046283e-06    -1.333140e-05    0.000000e+00
-4.008850e-06    -1.316265e-05    0.000000e+00
-1.997814e-06    -1.306137e-05    0.000000e+00
-4.900615e-19    -1.302760e-05    0.000000e+00
1.997814e-06    -1.306137e-05    0.000000e+00
4.008850e-06    -1.316265e-05    0.000000e+00
6.046283e-06    -1.333140e-05    0.000000e+00
8.123242e-06    -1.356758e-05    0.000000e+00
1.025287e-05    -1.387120e-05    0.000000e+00
-1.102648e-05    -1.610989e-05    0.000000e+00
-8.742113e-06    -1.581673e-05    0.000000e+00
-6.510452e-06    -1.558871e-05    0.000000e+00
-4.318325e-06    -1.542583e-05    0.000000e+00
-2.152566e-06    -1.532809e-05    0.000000e+00
-5.306132e-19    -1.529550e-05    0.000000e+00
2.152566e-06    -1.532809e-05    0.000000e+00
4.318325e-06    -1.542583e-05    0.000000e+00
6.510452e-06    -1.558871e-05    0.000000e+00
8.742113e-06    -1.581673e-05    0.000000e+00
1.102648e-05    -1.610989e-05    0.000000e+00
-1.177296e-05    -1.850062e-05    0.000000e+00
-9.339276e-06    -1.821793e-05    0.000000e+00
-6.958324e-06    -1.799806e-05    0.000000e+00
-4.616914e-06    -1.784101e-05    0.000000e+00
-2.301865e-06    -1.774678e-05    0.000000e+00
-5.756118e-19    -1.771537e-05    0.000000e+00
2.301865e-06    -1.774678e-05    0.000000e+00
4.616914e-06    -1.784101e-05    0.000000e+00
6.958324e-06    -1.799806e-05    0.000000e+00
9.339276e-06    -1.821793e-05    0.000000e+00
1.177296e-05    -1.850062e-05    0.000000e+00
-1.249228e-05    -2.103794e-05    0.000000e+00
-9.914727e-06    -2.076572e-05    0.000000e+00
-7.389909e-06    -2.055400e-05    0.000000e+00
-4.904637e-06    -2.040277e-05    0.000000e+00
-2.445728e-06    -2.031204e-05    0.000000e+00
-6.046756e-19    -2.028179e-05    0.000000e+00
2.445728e-06    -2.031204e-05    0.000000e+00
4.904637e-06    -2.040277e-05    0.000000e+00
7.389909e-06    -2.055400e-05    0.000000e+00
9.914727e-06    -2.076572e-05    0.000000e+00
1.249228e-05    -2.103794e-05    0.000000e+00
-1.318446e-05    -2.371642e-05    0.000000e+00
-1.046846e-05    -2.345467e-05    0.000000e+00
-7.805208e-06    -2.325109e-05    0.000000e+00
-5.181501e-06    -2.310568e-05    0.000000e+00
-2.584160e-06    -2.301844e-05    0.000000e+00
-6.332630e-19    -2.298935e-05    0.000000e+00
2.584160e-06    -2.301844e-05    0.000000e+00
5.181501e-06    -2.310568e-05    0.000000e+00
7.805208e-06    -2.325109e-05    0.000000e+00
1.046846e-05    -2.345467e-05    0.000000e+00
1.318446e-05    -2.371642e-05    0.000000e+00
-1.384949e-05    -2.653062e-05    0.000000e+00
-1.100049e-05    -2.627934e-05    0.000000e+00
-8.204222e-06    -2.608391e-05    0.000000e+00
-5.447509e-06    -2.594431e-05    0.000000e+00
-2.717163e-06    -2.586055e-05    0.000000e+00
-6.543330e-19    -2.583264e-05    0.000000e+00
2.717163e-06    -2.586055e-05    0.000000e+00
5.447509e-06    -2.594431e-05    0.000000e+00
8.204222e-06    -2.608391e-05    0.000000e+00
1.100049e-05    -2.627934e-05    0.000000e+00
1.384949e-05    -2.653062e-05    0.000000e+00
-1.448737e-05    -2.947511e-05    0.000000e+00
-1.151079e-05    -2.923430e-05    0.000000e+00
-8.586950e-06    -2.904701e-05    0.000000e+00
-5.702661e-06    -2.891323e-05    0.000000e+00
-2.844739e-06    -2.883296e-05    0.000000e+00
-6.568741e-19    -2.880621e-05    0.000000e+00
2.844739e-06    -2.883296e-05    0.000000e+00
5.702661e-06    -2.891323e-05    0.000000e+00
8.586950e-06    -2.904701e-05    0.000000e+00
1.151079e-05    -2.923430e-05    0.000000e+00
1.448737e-05    -2.947511e-05    0.000000e+00
-1.509811e-05    -3.254446e-05    0.000000e+00
-1.199938e-05    -3.231413e-05    0.000000e+00
-8.953392e-06    -3.213498e-05    0.000000e+00
-5.946955e-06    -3.200701e-05    0.000000e+00
-2.966886e-06    -3.193024e-05    0.000000e+00
-6.711677e-19    -3.190464e-05    0.000000e+00
2.966886e-06    -3.193024e-05    0.000000e+00
5.946955e-06    -3.200701e-05    0.000000e+00
8.953392e-06    -3.213498e-05    0.000000e+00
1.199938e-05    -3.231413e-05    0.000000e+00
1.509811e-05    -3.254446e-05    0.000000e+00
-1.568170e-05    -3.573325e-05    0.000000e+00
-1.246626e-05    -3.551338e-05    0.000000e+00
-9.303549e-06    -3.534238e-05    0.000000e+00
-6.180392e-06    -3.522023e-05    0.000000e+00
-3.083604e-06    -3.514694e-05    0.000000e+00
-6.949905e-19    -3.512251e-05    0.000000e+00
3.083604e-06    -3.514694e-05    0.000000e+00
6.180392e-06    -3.522023e-05    0.000000e+00
9.303549e-06    -3.534238e-05    0.000000e+00
1.246626e-05    -3.551338e-05    0.000000e+00
1.568170e-05    -3.573325e-05    0.000000e+00
-1.623815e-05    -3.903604e-05    0.000000e+00
-1.291142e-05    -3.882665e-05    0.000000e+00
-9.637419e-06    -3.866378e-05    0.000000e+00
-6.402972e-06    -3.854745e-05    0.000000e+00
-3.194894e-06    -3.847765e-05    0.000000e+00
-7.417891e-19    -3.845439e-05    0.000000e+00
3.194894e-06    -3.847765e-05    0.000000e+00
6.402972e-06    -3.854745e-05    0.000000e+00
9.637419e-06    -3.866378e-05    0.000000e+00
1.291142e-05    -3.882665e-05    0.000000e+00
1.623815e-05    -3.903604e-05    0.000000e+00
-1.676746e-05    -4.244741e-05    0.000000e+00
-1.333486e-05    -4.224848e-05    0.000000e+00
-9.955003e-06    -4.209376e-05    0.000000e+00
-6.614695e-06    -4.198325e-05    0.000000e+00
-3.300755e-06    -4.191694e-05    0.000000e+00
-8.053166e-19    -4.189484e-05    0.000000e+00
3.300755e-06    -4.191694e-05    0.000000e+00
6.614695e-06    -4.198325e-05    0.000000e+00
9.955003e-06    -4.209376e-05    0.000000e+00
1.333486e-05    -4.224848e-05    0.000000e+00
1.676746e-05    -4.244741e-05    0.000000e+00
-1.726962e-05    -4.596192e-05    0.000000e+00
-1.373659e-05    -4.577347e-05    0.000000e+00
-1.025630e-05    -4.562689e-05    0.000000e+00
-6.815560e-06    -4.552219e-05    0.000000e+00
-3.401188e-06    -4.545937e-05    0.000000e+00
-8.555033e-19    -4.543843e-05    0.000000e+00
3.401188e-06    -4.545937e-05    0.000000e+00
6.815560e-06    -4.552219e-05    0.000000e+00
1.025630e-05    -4.562689e-05    0.000000e+00
1.373659e-05    -4.577347e-05    0.000000e+00
1.726962e-05    -4.596192e-05    0.000000e+00
-1.774464e-05    -4.957415e-05    0.000000e+00
-1.411661e-05    -4.939617e-05    0.000000e+00
-1.054131e-05    -4.925773e-05    0.000000e+00
-7.005568e-06    -4.915885e-05    0.000000e+00
-3.496192e-06    -4.909952e-05    0.000000e+00
-8.868435e-19    -4.907975e-05    0.000000e+00
3.496192e-06    -4.909952e-05    0.000000e+00
7.005568e-06    -4.915885e-05    0.000000e+00
1.054131e-05    -4.925773e-05    0.000000e+00
1.411661e-05    -4.939617e-05    0.000000e+00
1.774464e-05    -4.957415e-05    0.000000e+00
-1.819252e-05    -5.327868e-05    0.000000e+00
-1.447491e-05    -5.311116e-05    0.000000e+00
-1.081004e-05    -5.298087e-05    0.000000e+00
-7.184718e-06    -5.288780e-05    0.000000e+00
-3.585767e-06    -5.283196e-05    0.000000e+00
-9.272893e-19    -5.281335e-05    0.000000e+00
3.585767e-06    -5.283196e-05    0.000000e+00
7.184718e-06    -5.288780e-05    0.000000e+00
1.081004e-05    -5.298087e-05    0.000000e+00
1.447491e-05    -5.311116e-05    0.000000e+00
1.819252e-05    -5.327868e-05    0.000000e+00
-1.861325e-05    -5.707006e-05    0.000000e+00
-1.481149e-05    -5.691301e-05    0.000000e+00
-1.106248e-05    -5.679086e-05    0.000000e+00
-7.353011e-06    -5.670361e-05    0.000000e+00
-3.669914e-06    -5.665126e-05    0.000000e+00
-9.438065e-19    -5.663381e-05    0.000000e+00
3.669914e-06    -5.665126e-05    0.000000e+00
7.353011e-06    -5.670361e-05    0.000000e+00
1.106248e-05    -5.679086e-05    0.000000e+00
1.481149e-05    -5.691301e-05    0.000000e+00
1.861325e-05    -5.707006e-05    0.000000e+00
-1.900683e-05    -6.094287e-05    0.000000e+00
-1.512636e-05    -6.079629e-05    0.000000e+00
-1.129863e-05    -6.068229e-05    0.000000e+00
-7.510448e-06    -6.060086e-05    0.000000e+00
-3.748633e-06    -6.055200e-05    0.000000e+00
-9.685822e-19    -6.053571e-05    0.000000e+00
3.748633e-06    -6.055200e-05    0.000000e+00
7.510448e-06    -6.060086e-05    0.000000e+00
1.129863e-05    -6.068229e-05    0.000000e+00
1.512636e-05    -6.079629e-05    0.000000e+00
1.900683e-05    -6.094287e-05    0.000000e+00
-1.937327e-05    -6.489169e-05    0.000000e+00
-1.541952e-05    -6.475558e-05    0.000000e+00
-1.151850e-05    -6.464972e-05    0.000000e+00
-7.657028e-06    -6.457410e-05    0.000000e+00
-3.821923e-06    -6.452873e-05    0.000000e+00
-9.870051e-19    -6.451361e-05    0.000000e+00
3.821923e-06    -6.452873e-05    0.000000e+00
7.657028e-06    -6.457410e-05    0.000000e+00
1.151850e-05    -6.464972e-05    0.000000e+00
1.541952e-05    -6.475558e-05    0.000000e+00
1.937327e-05    -6.489169e-05    0.000000e+00
-1.971256e-05    -6.891107e-05    0.000000e+00
-1.569095e-05    -6.878544e-05    0.000000e+00
-1.172208e-05    -6.868772e-05    0.000000e+00
-7.792750e-06    -6.861792e-05    0.000000e+00
-3.889784e-06    -6.857604e-05    0.000000e+00
-9.823465e-19    -6.856208e-05    0.000000e+00
3.889784e-06    -6.857604e-05    0.000000e+00
7.792750e-06    -6.861792e-05    0.000000e+00
1.172208e-05    -6.868772e-05    0.000000e+00
1.569095e-05    -6.878544e-05    0.000000e+00
1.971256e-05    -6.891107e-05    0.000000e+00
-2.002471e-05    -7.299559e-05    0.000000e+00
-1.594068e-05    -7.288043e-05    0.000000e+00
-1.190938e-05    -7.279086e-05    0.000000e+00
-7.917611e-06    -7.272688e-05    0.000000e+00
-3.952212e-06    -7.268851e-05    0.000000e+00
-9.880639e-19    -7.267572e-05    0.000000e+00
3.952212e-06    -7.268851e-05    0.000000e+00
7.917611e-06    -7.272688e-05    0.000000e+00
1.190938e-05    -7.279086e-05    0.000000e+00
1.594068e-05    -7.288043e-05    0.000000e+00
2.002471e-05    -7.299559e-05    0.000000e+00
-2.030971e-05    -7.713981e-05    0.000000e+00
-1.616869e-05    -7.703511e-05    0.000000e+00
-1.208038e-05    -7.695370e-05    0.000000e+00
-8.031599e-06    -7.689557e-05    0.000000e+00
-4.009198e-06    -7.686071e-05    0.000000e+00
-1.026604e-18    -7.684909e-05    0.000000e+00
4.009198e-06    -7.686071e-05    0.000000e+00
8.031599e-06    -7.689557e-05    0.000000e+00
1.208038e-05    -7.695370e-05    0.000000e+00
1.616869e-05    -7.703511e-05    0.000000e+00
2.030971e-05    -7.713981e-05    0.000000e+00
-2.056757e-05    -8.133827e-05    0.000000e+00
-1.637501e-05    -8.124404e-05    0.000000e+00
-1.223508e-05    -8.117079e-05    0.000000e+00
-8.134685e-06    -8.111855e-05    0.000000e+00
-4.060719e-06    -8.108725e-05    0.000000e+00
-1.068109e-18    -8.107682e-05    0.000000e+00
4.060719e-06    -8.108725e-05    0.000000e+00
8.134685e-06    -8.111855e-05    0.000000e+00
1.223508e-05    -8.117079e-05    0.000000e+00
1.637501e-05    -8.124404e-05    0.000000e+00
2.056757e-05    -8.133827e-05    0.000000e+00
-2.079833e-05    -8.558550e-05    0.000000e+00
-1.655963e-05    -8.550173e-05    0.000000e+00
-1.237344e-05    -8.543669e-05    0.000000e+00
-8.226802e-06    -8.539041e-05    0.000000e+00
-4.106724e-06    -8.536275e-05    0.000000e+00
-1.146459e-18    -8.535356e-05    0.000000e+00
4.106724e-06    -8.536275e-05    0.000000e+00
8.226802e-06    -8.539041e-05    0.000000e+00
1.237344e-05    -8.543669e-05    0.000000e+00
1.655963e-05    -8.550173e-05    0.000000e+00
2.079833e-05    -8.558550e-05    0.000000e+00
-2.100210e-05    -8.987603e-05    0.000000e+00
-1.672261e-05    -8.980269e-05    0.000000e+00
-1.249537e-05    -8.974594e-05    0.000000e+00
-8.307807e-06    -8.970578e-05    0.000000e+00
-4.147107e-06    -8.968192e-05    0.000000e+00
-1.228198e-18    -8.967401e-05    0.000000e+00
4.147107e-06    -8.968192e-05    0.000000e+00
8.307807e-06    -8.970578e-05    0.000000e+00
1.249537e-05    -8.974594e-05    0.000000e+00
1.672261e-05    -8.980269e-05    0.000000e+00
2.100210e-05    -8.987603e-05    0.000000e+00
-2.117912e-05    -9.420439e-05    0.000000e+00
-1.686399e-05    -9.414142e-05    0.000000e+00
-1.260070e-05    -9.409307e-05    0.000000e+00
-8.377428e-06    -9.405931e-05    0.000000e+00
-4.181679e-06    -9.403948e-05    0.000000e+00
-1.258267e-18    -9.403296e-05    0.000000e+00
4.181679e-06    -9.403948e-05    0.000000e+00
8.377428e-06    -9.405931e-05    0.000000e+00
1.260070e-05    -9.409307e-05    0.000000e+00
1.686399e-05    -9.414142e-05    0.000000e+00
2.117912e-05    -9.420439e-05    0.000000e+00
-2.132994e-05    -9.856523e-05    0.000000e+00
-1.698387e-05    -9.851248e-05    0.000000e+00
-1.268909e-05    -9.847276e-05    0.000000e+00
-8.435205e-06    -9.844575e-05    0.000000e+00
-4.210141e-06    -9.843026e-05    0.000000e+00
-1.306972e-18    -9.842523e-05    0.000000e+00
4.210141e-06    -9.843026e-05    0.000000e+00
8.435205e-06    -9.844575e-05    0.000000e+00
1.268909e-05    -9.847276e-05    0.000000e+00
1.698387e-05    -9.851248e-05    0.000000e+00
2.132994e-05    -9.856523e-05    0.000000e+00
-2.145562e-05    -1.029537e-04    0.000000e+00
-1.708235e-05    -1.029109e-04    0.000000e+00
-1.275997e-05    -1.028800e-04    0.000000e+00
-8.480517e-06    -1.028600e-04    0.000000e+00
-4.232143e-06    -1.028489e-04    0.000000e+00
-1.353559e-18    -1.028454e-04    0.000000e+00
4.232143e-06    -1.028489e-04    0.000000e+00
8.480517e-06    -1.028600e-04    0.000000e+00
1.275997e-05    -1.028800e-04    0.000000e+00
1.708235e-05    -1.029109e-04    0.000000e+00
2.145562e-05    -1.029537e-04    0.000000e+00
-2.155817e-05    -1.073660e-04    0.000000e+00
-1.715935e-05    -1.073327e-04    0.000000e+00
-1.281258e-05    -1.073105e-04    0.000000e+00
-8.512904e-06    -1.072970e-04    0.000000e+00
-4.247579e-06    -1.072895e-04    0.000000e+00
-1.295537e-18    -1.072870e-04    0.000000e+00
4.247579e-06    -1.072895e-04    0.000000e+00
8.512904e-06    -1.072970e-04    0.000000e+00
1.281258e-05    -1.073105e-04    0.000000e+00
1.715935e-05    -1.073327e-04    0.000000e+00
2.155817e-05    -1.073660e-04    0.000000e+00
-2.164067e-05    -1.118022e-04    0.000000e+00
-1.721429e-05    -1.117772e-04    0.000000e+00
-1.284670e-05    -1.117621e-04    0.000000e+00
-8.533270e-06    -1.117511e-04    0.000000e+00
-4.257281e-06    -1.117436e-04    0.000000e+00
-1.221845e-18    -1.117409e-04    0.000000e+00
4.257281e-06    -1.117436e-04    0.000000e+00
8.533270e-06    -1.117511e-04    0.000000e+00
1.284670e-05    -1.117621e-04    0.000000e+00
1.721429e-05    -1.117772e-04    0.000000e+00
2.164067e-05    -1.118022e-04    0.000000e+00
-2.170513e-05    -1.162704e-04    0.000000e+00
-1.724615e-05    -1.162523e-04    0.000000e+00
-1.286626e-05    -1.162338e-04    0.000000e+00
-8.546206e-06    -1.162132e-04    0.000000e+00
-4.263865e-06    -1.161978e-04    0.000000e+00
-1.203210e-18    -1.161922e-04    0.000000e+00
4.263865e-06    -1.161978e-04    0.000000e+00
8.546206e-06    -1.162132e-04    0.000000e+00
1.286626e-05    -1.162338e-04    0.000000e+00
1.724615e-05    -1.162523e-04    0.000000e+00
2.170513e-05    -1.162704e-04    0.000000e+00
-2.173924e-05    -1.208105e-04    0.000000e+00
-1.726634e-05    -1.207758e-04    0.000000e+00
-1.288608e-05    -1.207173e-04    0.000000e+00
-8.561321e-06    -1.206645e-04    0.000000e+00
-4.272039e-06    -1.206293e-04    0.000000e+00
-1.197493e-18    -1.206170e-04    0.000000e+00
4.272039e-06    -1.206293e-04    0.000000e+00
8.561321e-06    -1.206645e-04    0.000000e+00
1.288608e-05    -1.207173e-04    0.000000e+00
1.726634e-05    -1.207758e-04    0.000000e+00
2.173924e-05    -1.208105e-04    0.000000e+00

CELL_DATA      400
TENSORS Element_Stress5.800000e-01 double
1.820598e+06 2.551812e+05        0
2.551812e+05 4.163488e+05        0
       0        0        0

1.243720e+06 1.308538e+05        0
1.308538e+05 3.566178e+05        0
       0        0        0

8.651185e+05 4.301032e+04        0
4.301032e+04 2.749959e+05        0
       0        0        0

5.100063e+05 -3.578363e+03        0
-3.578363e+03 1.690094e+05        0
       0        0        0

1.688541e+05 -2.488323e+04        0
-2.488323e+04 5.694968e+04        0
       0        0        0

-1.688184e+05 -2.487711e+04        0
-2.487711e+04 -5.695775e+04        0
       0        0        0

-5.095306e+05 -3.579112e+03        0
-3.579112e+03 -1.688447e+05        0
       0        0        0

-8.637077e+05 4.293851e+04        0
4.293851e+04 -2.744671e+05        0
       0        0        0

-1.240734e+06 1.305652e+05        0
1.305652e+05 -3.554740e+05        0
       0        0        0

-1.814375e+06 2.543707e+05        0
2.543707e+05 -4.141970e+05        0
       0        0        0

1.642070e+06 4.159748e+04        0
4.159748e+04 4.234799e+03        0
       0        0        0

1.322354e+06 1.206454e+05        0
1.206454e+05 1.286843e+05        0
       0        0        0

9.082521e+05 9.900755e+04        0
9.900755e+04 1.315191e+05        0
       0        0        0

5.364025e+05 7.580678e+04        0
7.580678e+04 9.193311e+04        0
       0        0        0

1.768172e+05 6.321707e+04        0
6.321707e+04 3.207757e+04        0
       0        0        0

-1.778550e+05 6.319873e+04        0
6.319873e+04 -3.316896e+04        0
       0        0        0

-5.369363e+05 7.574133e+04        0
7.574133e+04 -9.284490e+04        0
       0        0        0

-9.077061e+05 9.886737e+04        0
9.886737e+04 -1.320379e+05        0
       0        0        0

-1.319830e+06 1.204079e+05        0
1.204079e+05 -1.284324e+05        0
       0        0        0

-1.637466e+06 4.151082e+04        0
4.151082e+04 -3.136555e+03        0
       0        0        0

1.584953e+06 1.541639e+04        0
1.541639e+04 6.615316e+03        0
       0        0        0

1.271591e+06 6.833109e+04        0
6.833109e+04 1.757728e+04        0
       0        0        0

9.146413e+05 1.015639e+05        0
1.015639e+05 4.237686e+04        0
       0        0        0

5.430826e+05 1.074765e+05        0
1.074765e+05 3.592346e+04        0
       0        0        0

1.791459e+05 1.074054e+05        0
1.074054e+05 1.272037e+04        0
       0        0        0

-1.824790e+05 1.073775e+05        0
1.073775e+05 -1.611190e+04        0
       0        0        0

-5.458838e+05 1.073933e+05        0
1.073933e+05 -3.912503e+04        0
       0        0        0

-9.163117e+05 1.014348e+05        0
1.014348e+05 -4.515293e+04        0
       0        0        0

-1.271565e+06 6.821622e+04        0
6.821622e+04 -1.966893e+04        0
       0        0        0

-1.582978e+06 1.538448e+04        0
1.538448e+04 -7.911807e+03        0
       0        0        0

1.546129e+06 1.427370e+04        0
1.427370e+04 -3.975752e+03        0
       0        0        0

1.226683e+06 5.548208e+04        0
5.548208e+04 -1.953361e+03        0
       0        0        0

8.865538e+05 9.245024e+04        0
9.245024e+04 2.933168e+03        0
       0        0        0

5.331314e+05 1.146030e+05        0
1.146030e+05 5.877770e+03        0
       0        0        0

1.753740e+05 1.233579e+05        0
1.233579e+05 6.880625e+02        0
       0        0        0

-1.820438e+05 1.233283e+05        0
1.233283e+05 -7.415933e+03        0
       0        0        0

-5.392752e+05 1.145213e+05        0
1.145213e+05 -1.241206e+04        0
       0        0        0

-8.916350e+05 9.234262e+04        0
9.234262e+04 -9.058365e+03        0
       0        0        0

-1.230189e+06 5.539388e+04        0
5.539388e+04 -3.528931e+03        0
       0        0        0

-1.547532e+06 1.424568e+04        0
1.424568e+04 -5.504384e+02        0
       0        0        0

1.509427e+06 1.713063e+04        0
1.713063e+04 -5.567249e+03        0
       0        0        0

1.185340e+06 5.448733e+04        0
5.448733e+04 -8.577651e+03        0
       0        0        0

8.541561e+05 8.905469e+04        0
8.905469e+04 -8.329305e+03        0
       0        0        0

5.137340e+05 1.136408e+05        0
1.136408e+05 -6.745280e+03        0
       0        0        0

1.681056e+05 1.258450e+05        0
1.258450e+05 -5.639044e+03        0
       0        0        0

-1.789903e+05 1.258166e+05        0
1.258166e+05 -5.300819e+03        0
       0        0        0

-5.241237e+05 1.135646e+05        0
1.135646e+05 -4.010288e+03        0
       0        0        0

-8.635542e+05 8.895612e+04        0
8.895612e+04 -2.042812e+03        0
       0        0        0

-1.193244e+06 5.440409e+04        0
5.440409e+04 -1.179541e+03        0
       0        0        0

-1.515273e+06 1.709766e+04        0
1.709766e+04 -3.264824e+03        0
       0        0        0

1.469671e+06 1.958963e+04        0
1.958963e+04 -7.911531e+03        0
       0        0        0

1.147077e+06 5.644559e+04        0
5.644559e+04 -1.054799e+04        0
       0        0        0

8.224151e+05 8.838594e+04        0
8.838594e+04 -1.192774e+04        0
       0        0        0

4.928620e+05 1.117722e+05        0
1.117722e+05 -1.113898e+04        0
       0        0        0

1.594065e+05 1.239614e+05        0
1.239614e+05 -9.157848e+03        0
       0        0        0

-1.752704e+05 1.239347e+05        0
1.239347e+05 -6.757342e+03        0
       0        0        0

-5.082716e+05 1.117003e+05        0
1.117003e+05 -4.611022e+03        0
       0        0        0

-8.369138e+05 8.829171e+04        0
8.829171e+04 -3.479956e+03        0
       0        0        0

-1.160194e+06 5.636191e+04        0
5.636191e+04 -4.312364e+03        0
       0        0        0

-1.480879e+06 1.955284e+04        0
1.955284e+04 -6.139554e+03        0
       0        0        0

1.427069e+06 2.114429e+04        0
2.114429e+04 -1.052964e+04        0
       0        0        0

1.109854e+06 5.834958e+04        0
5.834958e+04 -1.236661e+04        0
       0        0        0

7.924051e+05 8.864128e+04        0
8.864128e+04 -1.362108e+04        0
       0        0        0

4.726277e+05 1.103428e+05        0
1.103428e+05 -1.337050e+04        0
       0        0        0

1.506199e+05 1.216735e+05        0
1.216735e+05 -1.181697e+04        0
       0        0        0

-1.721469e+05 1.216483e+05        0
1.216483e+05 -9.757740e+03        0
       0        0        0

-4.937482e+05 1.102742e+05        0
1.102742e+05 -8.067258e+03        0
       0        0        0

-8.127094e+05 8.854973e+04        0
8.854973e+04 -7.533908e+03        0
       0        0        0

-1.128918e+06 5.826553e+04        0
5.826553e+04 -8.339735e+03        0
       0        0        0

-1.444434e+06 2.110561e+04        0
2.110561e+04 -9.528609e+03        0
       0        0        0

1.382471e+06 2.200181e+04        0
2.200181e+04 -1.363722e+04        0
       0        0        0

1.072891e+06 5.961398e+04        0
5.961398e+04 -1.472183e+04        0
       0        0        0

7.635785e+05 8.901007e+04        0
8.901007e+04 -1.557414e+04        0
       0        0        0

4.533125e+05 1.094858e+05        0
1.094858e+05 -1.552412e+04        0
       0        0        0

1.419522e+05 1.200358e+05        0
1.200358e+05 -1.458784e+04        0
       0        0        0

-1.697603e+05 1.200117e+05        0
1.200117e+05 -1.326479e+04        0
       0        0        0

-4.807667e+05 1.094198e+05        0
1.094198e+05 -1.222641e+04        0
       0        0        0

-7.903212e+05 8.892090e+04        0
8.892090e+04 -1.196593e+04        0
       0        0        0

-1.098554e+06 5.953060e+04        0
5.953060e+04 -1.248635e+04        0
       0        0        0

-1.406666e+06 2.196271e+04        0
2.196271e+04 -1.309846e+04        0
       0        0        0

1.336650e+06 2.243103e+04        0
2.243103e+04 -1.712975e+04        0
       0        0        0

1.035846e+06 6.032508e+04        0
6.032508e+04 -1.770734e+04        0
       0        0        0

7.353690e+05 8.928001e+04        0
8.928001e+04 -1.819357e+04        0
       0        0        0

4.345842e+05 1.090314e+05        0
1.090314e+05 -1.820574e+04        0
       0        0        0

1.333510e+05 1.190751e+05        0
1.190751e+05 -1.770719e+04        0
       0        0        0

-1.679948e+05 1.190519e+05        0
1.190519e+05 -1.697818e+04        0
       0        0        0

-4.689286e+05 1.089678e+05        0
1.089678e+05 -1.641605e+04        0
       0        0        0

-7.691116e+05 8.919329e+04        0
8.919329e+04 -1.629667e+04        0
       0        0        0

-1.068676e+06 6.024325e+04        0
6.024325e+04 -1.657480e+04        0
       0        0        0

-1.368246e+06 2.239236e+04        0
2.239236e+04 -1.685617e+04        0
       0        0        0

1.290108e+06 2.262769e+04        0
2.262769e+04 -2.093370e+04        0
       0        0        0

9.986145e+05 6.068320e+04        0
6.068320e+04 -2.119241e+04        0
       0        0        0

7.073840e+05 8.943847e+04        0
8.943847e+04 -2.142407e+04        0
       0        0        0

4.161153e+05 1.088122e+05        0
1.088122e+05 -2.143279e+04        0
       0        0        0

1.247137e+05 1.185759e+05        0
1.185759e+05 -2.118594e+04        0
       0        0        0

-1.666835e+05 1.185536e+05        0
1.185536e+05 -2.082274e+04        0
       0        0        0

-4.578408e+05 1.087507e+05        0
1.087507e+05 -2.055219e+04        0
       0        0        0

-7.486181e+05 8.935433e+04        0
8.935433e+04 -2.051028e+04        0
       0        0        0

-1.039104e+06 6.060345e+04        0
6.060345e+04 -2.065826e+04        0
       0        0        0

-1.329592e+06 2.258991e+04        0
2.258991e+04 -2.079207e+04        0
       0        0        0

1.243138e+06 2.270943e+04        0
2.270943e+04 -2.498210e+04        0
       0        0        0

9.611829e+05 6.084707e+04        0
6.084707e+04 -2.504187e+04        0
       0        0        0

6.794119e+05 8.952007e+04        0
8.952007e+04 -2.510676e+04        0
       0        0        0

3.976942e+05 1.087151e+05        0
1.087151e+05 -2.508705e+04        0
       0        0        0

1.159751e+05 1.183403e+05        0
1.183403e+05 -2.496213e+04        0
       0        0        0

-1.656966e+05 1.183187e+05        0
1.183187e+05 -2.479576e+04        0
       0        0        0

-4.472257e+05 1.086557e+05        0
1.086557e+05 -2.468699e+04        0
       0        0        0

-7.285608e+05 8.943859e+04        0
8.943859e+04 -2.469694e+04        0
       0        0        0

-1.009752e+06 6.076971e+04        0
6.076971e+04 -2.480000e+04        0
       0        0        0

-1.290922e+06 2.267274e+04        0
2.267274e+04 -2.489961e+04        0
       0        0        0

1.195902e+06 2.273919e+04        0
2.273919e+04 -2.922324e+04        0
       0        0        0

9.235708e+05 6.091458e+04        0
6.091458e+04 -2.915047e+04        0
       0        0        0

6.513590e+05 8.955767e+04        0
8.955767e+04 -2.910387e+04        0
       0        0        0

3.792147e+05 1.086759e+05        0
1.086759e+05 -2.904718e+04        0
       0        0        0

1.071092e+05 1.182389e+05        0
1.182389e+05 -2.896999e+04        0
       0        0        0

-1.649443e+05 1.182180e+05        0
1.182180e+05 -2.889900e+04        0
       0        0        0

-4.369126e+05 1.086185e+05        0
1.086185e+05 -2.887696e+04        0
       0        0        0

-7.087800e+05 8.947891e+04        0
8.947891e+04 -2.892824e+04        0
       0        0        0

-9.805709e+05 6.083975e+04        0
6.083975e+04 -2.903784e+04        0
       0        0        0

-1.252330e+06 2.270369e+04        0
2.270369e+04 -2.916302e+04        0
       0        0        0

1.148491e+06 2.274763e+04        0
2.274763e+04 -3.361527e+04        0
       0        0        0

8.858087e+05 6.093851e+04        0
6.093851e+04 -3.344415e+04        0
       0        0        0

6.231974e+05 8.957284e+04        0
8.957284e+04 -3.331675e+04        0
       0        0        0

3.606384e+05 1.086618e+05        0
1.086618e+05 -3.322145e+04        0
       0        0        0

9.811734e+04 1.181997e+05        0
1.181997e+05 -3.315416e+04        0
       0        0        0

-1.643651e+05 1.181796e+05        0
1.181796e+05 -3.312513e+04        0
       0        0        0

-4.268000e+05 1.086064e+05        0
1.086064e+05 -3.315081e+04        0
       0        0        0

-6.891844e+05 8.949683e+04        0
8.949683e+04 -3.323922e+04        0
       0        0        0

-9.515284e+05 6.086627e+04        0
6.086627e+04 -3.338182e+04        0
       0        0        0

-1.213844e+06 2.271337e+04        0
2.271337e+04 -3.356049e+04        0
       0        0        0

1.100960e+06 2.274841e+04        0
2.274841e+04 -3.812278e+04        0
       0        0        0

8.479289e+05 6.094459e+04        0
6.094459e+04 -3.787019e+04        0
       0        0        0

5.949322e+05 8.957762e+04        0
8.957762e+04 -3.767803e+04        0
       0        0        0

3.419635e+05 1.086573e+05        0
1.086573e+05 -3.754494e+04        0
       0        0        0

8.901558e+04 1.181867e+05        0
1.181867e+05 -3.747027e+04        0
       0        0        0

-1.639142e+05 1.181674e+05        0
1.181674e+05 -3.745768e+04        0
       0        0        0

-4.168253e+05 1.086039e+05        0
1.086039e+05 -3.751247e+04        0
       0        0        0

-6.697180e+05 8.950436e+04        0
8.950436e+04 -3.763608e+04        0
       0        0        0

-9.225952e+05 6.087498e+04        0
6.087498e+04 -3.782343e+04        0
       0        0        0

-1.175457e+06 2.271539e+04        0
2.271539e+04 -3.806658e+04        0
       0        0        0

1.053347e+06 2.274703e+04        0
2.274703e+04 -4.271420e+04        0
       0        0        0

8.099626e+05 6.094429e+04        0
6.094429e+04 -4.238866e+04        0
       0        0        0

5.665832e+05 8.957803e+04        0
8.957803e+04 -4.214000e+04        0
       0        0        0

3.232060e+05 1.086559e+05        0
1.086559e+05 -4.197068e+04        0
       0        0        0

7.982720e+04 1.181835e+05        0
1.181835e+05 -4.188171e+04        0
       0        0        0

-1.635563e+05 1.181649e+05        0
1.181649e+05 -4.187447e+04        0
       0        0        0

-4.069457e+05 1.086046e+05        0
1.086046e+05 -4.195008e+04        0
       0        0        0

-6.503417e+05 8.950753e+04        0
8.950753e+04 -4.210767e+04        0
       0        0        0

-8.937438e+05 6.087730e+04        0
6.087730e+04 -4.234382e+04        0
       0        0        0

-1.137148e+06 2.271526e+04        0
2.271526e+04 -4.265429e+04        0
       0        0        0

1.005683e+06 2.274539e+04        0
2.274539e+04 -4.736038e+04        0
       0        0        0

7.719394e+05 6.094219e+04        0
6.094219e+04 -4.696667e+04        0
       0        0        0

5.381756e+05 8.957681e+04        0
8.957681e+04 -4.666608e+04        0
       0        0        0

3.043894e+05 1.086553e+05        0
1.086553e+05 -4.646218e+04        0
       0        0        0

7.057816e+04 1.181832e+05        0
1.181832e+05 -4.635676e+04        0
       0        0        0

-1.632605e+05 1.181653e+05        0
1.181653e+05 -4.635058e+04        0
       0        0        0

-3.971278e+05 1.086060e+05        0
1.086060e+05 -4.644347e+04        0
       0        0        0

-6.310240e+05 8.950907e+04        0
8.950907e+04 -4.663394e+04        0
       0        0        0

-8.649473e+05 6.087783e+04        0
6.087783e+04 -4.691929e+04        0
       0        0        0

-1.098893e+06 2.271487e+04        0
2.271487e+04 -4.729637e+04        0
       0        0        0

9.579955e+05 2.274400e+04        0
2.274400e+04 -5.203381e+04        0
       0        0        0

7.338873e+05 6.093989e+04        0
6.093989e+04 -5.157525e+04        0
       0        0        0

5.097360e+05 8.957508e+04        0
8.957508e+04 -5.122566e+04        0
       0        0        0

2.855393e+05 1.086546e+05        0
1.086546e+05 -5.098880e+04        0
       0        0        0

6.129495e+04 1.181835e+05        0
1.181835e+05 -5.086675e+04        0
       0        0        0

-1.629989e+05 1.181663e+05        0
1.181663e+05 -5.086025e+04        0
       0        0        0

-3.873432e+05 1.086073e+05        0
1.086073e+05 -5.096887e+04        0
       0        0        0

-6.117373e+05 8.951011e+04        0
8.951011e+04 -5.119108e+04        0
       0        0        0

-8.361791e+05 6.087815e+04        0
6.087815e+04 -5.152449e+04        0
       0        0        0

-1.060664e+06 2.271473e+04        0
2.271473e+04 -5.196605e+04        0
       0        0        0

9.103102e+05 2.274290e+04        0
2.274290e+04 -5.670829e+04        0
       0        0        0

6.958326e+05 6.093780e+04        0
6.093780e+04 -5.618768e+04        0
       0        0        0

4.812907e+05 8.957328e+04        0
8.957328e+04 -5.579141e+04        0
       0        0        0

2.666817e+05 1.086537e+05        0
1.086537e+05 -5.552312e+04        0
       0        0        0

5.200354e+04 1.181835e+05        0
1.181835e+05 -5.538500e+04        0
       0        0        0

-1.627453e+05 1.181671e+05        0
1.181671e+05 -5.537790e+04        0
       0        0        0

-3.775653e+05 1.086084e+05        0
1.086084e+05 -5.550144e+04        0
       0        0        0

-5.924555e+05 8.951107e+04        0
8.951107e+04 -5.575422e+04        0
       0        0        0

-8.074137e+05 6.087870e+04        0
6.087870e+04 -5.613390e+04        0
       0        0        0

-1.022436e+06 2.271486e+04        0
2.271486e+04 -5.663735e+04        0
       0        0        0

8.626520e+05 2.274198e+04        0
2.274198e+04 -6.135878e+04        0
       0        0        0

6.578008e+05 6.093596e+04        0
6.093596e+04 -6.077882e+04        0
       0        0        0

4.528650e+05 8.957150e+04        0
8.957150e+04 -6.033795e+04        0
       0        0        0

2.478418e+05 1.086526e+05        0
1.086526e+05 -6.003971e+04        0
       0        0        0

4.272898e+04 1.181833e+05        0
1.181833e+05 -5.988630e+04        0
       0        0        0

-1.624747e+05 1.181676e+05        0
1.181676e+05 -5.987867e+04        0
       0        0        0

-3.677693e+05 1.086093e+05        0
1.086093e+05 -6.001656e+04        0
       0        0        0

-5.731539e+05 8.951206e+04        0
8.951206e+04 -6.029866e+04        0
       0        0        0

-7.786261e+05 6.087948e+04        0
6.087948e+04 -6.072266e+04        0
       0        0        0

-9.841819e+05 2.271520e+04        0
2.271520e+04 -6.128530e+04        0
       0        0        0

8.150447e+05 2.274119e+04        0
2.274119e+04 -6.596136e+04        0
       0        0        0

6.198157e+05 6.093429e+04        0
6.093429e+04 -6.532473e+04        0
       0        0        0

4.244830e+05 8.956978e+04        0
8.956978e+04 -6.484132e+04        0
       0        0        0

2.290436e+05 1.086514e+05        0
1.086514e+05 -6.451456e+04        0
       0        0        0

3.349528e+04 1.181828e+05        0
1.181828e+05 -6.434667e+04        0
       0        0        0

-1.621631e+05 1.181678e+05        0
1.181678e+05 -6.433865e+04        0
       0        0        0

-3.579315e+05 1.086101e+05        0
1.086101e+05 -6.449035e+04        0
       0        0        0

-5.538087e+05 8.951311e+04        0
8.951311e+04 -6.480052e+04        0
       0        0        0

-7.497925e+05 6.088043e+04        0
6.088043e+04 -6.526685e+04        0
       0        0        0

-9.458791e+05 2.271565e+04        0
2.271565e+04 -6.588596e+04        0
       0        0        0

7.675109e+05 2.274046e+04        0
2.274046e+04 -7.049318e+04        0
       0        0        0

5.819002e+05 6.093273e+04        0
6.093273e+04 -6.980260e+04        0
       0        0        0

3.961677e+05 8.956811e+04        0
8.956811e+04 -6.927870e+04        0
       0        0        0

2.103102e+05 1.086501e+05        0
1.086501e+05 -6.892486e+04        0
       0        0        0

2.432535e+04 1.181822e+05        0
1.181822e+05 -6.874327e+04        0
       0        0        0

-1.617877e+05 1.181679e+05        0
1.181679e+05 -6.873499e+04        0
       0        0        0

-3.480290e+05 1.086108e+05        0
1.086108e+05 -6.889993e+04        0
       0        0        0

-5.343973e+05 8.951420e+04        0
8.951420e+04 -6.923690e+04        0
       0        0        0

-7.208901e+05 6.088150e+04        0
6.088150e+04 -6.974356e+04        0
       0        0        0

-9.075040e+05 2.271617e+04        0
2.271617e+04 -7.041649e+04        0
       0        0        0

7.200723e+05 2.273978e+04        0
2.273978e+04 -7.493249e+04        0
       0        0        0

5.440762e+05 6.093125e+04        0
6.093125e+04 -7.419071e+04        0
       0        0        0

3.679410e+05 8.956648e+04        0
8.956648e+04 -7.362841e+04        0
       0        0        0

1.916633e+05 1.086488e+05        0
1.086488e+05 -7.324889e+04        0
       0        0        0

1.524098e+04 1.181815e+05        0
1.181815e+05 -7.305436e+04        0
       0        0        0

-1.613270e+05 1.181679e+05        0
1.181679e+05 -7.304590e+04        0
       0        0        0

-3.380404e+05 1.086115e+05        0
1.086115e+05 -7.322349e+04        0
       0        0        0

-5.148979e+05 8.951533e+04        0
8.951533e+04 -7.358597e+04        0
       0        0        0

-6.918973e+05 6.088265e+04        0
6.088265e+04 -7.413101e+04        0
       0        0        0

-8.690350e+05 2.271673e+04        0
2.271673e+04 -7.485511e+04        0
       0        0        0

6.727496e+05 2.273915e+04        0
2.273915e+04 -7.925863e+04        0
       0        0        0

5.063643e+05 6.092987e+04        0
6.092987e+04 -7.846843e+04        0
       0        0        0

3.398235e+05 8.956489e+04        0
8.956489e+04 -7.786983e+04        0
       0        0        0

1.731238e+05 1.086474e+05        0
1.086474e+05 -7.746605e+04        0
       0        0        0

6.262879e+03 1.181806e+05        0
1.181806e+05 -7.725929e+04        0
       0        0        0

-1.607601e+05 1.181679e+05        0
1.181679e+05 -7.725069e+04        0
       0        0        0

-3.279448e+05 1.086121e+05        0
1.086121e+05 -7.744030e+04        0
       0        0        0

-4.952900e+05 8.951651e+04        0
8.951651e+04 -7.782701e+04        0
       0        0        0

-6.627933e+05 6.088389e+04        0
6.088389e+04 -7.840849e+04        0
       0        0        0

-8.304513e+05 2.271735e+04        0
2.271735e+04 -7.918115e+04        0
       0        0        0

6.255623e+05 2.273859e+04        0
2.273859e+04 -8.345202e+04        0
       0        0        0

4.687842e+05 6.092860e+04        0
6.092860e+04 -8.261621e+04        0
       0        0        0

3.118350e+05 8.956335e+04        0
8.956335e+04 -8.198342e+04        0
       0        0        0

1.547113e+05 1.086460e+05        0
1.086460e+05 -8.155678e+04        0
       0        0        0

-2.589332e+03 1.181797e+05        0
1.181797e+05 -8.133849e+04        0
       0        0        0

-1.600676e+05 1.181676e+05        0
1.181676e+05 -8.132976e+04        0
       0        0        0

-3.177230e+05 1.086127e+05        0
1.086127e+05 -8.153073e+04        0
       0        0        0

-4.755540e+05 8.951773e+04        0
8.951773e+04 -8.194037e+04        0
       0        0        0

-6.335585e+05 6.088526e+04        0
6.088526e+04 -8.255636e+04        0
       0        0        0

-7.917331e+05 2.271804e+04        0
2.271804e+04 -8.337502e+04        0
       0        0        0

5.785286e+05 2.273817e+04        0
2.273817e+04 -8.749418e+04        0
       0        0        0

4.313542e+05 6.092752e+04        0
6.092752e+04 -8.661559e+04        0
       0        0        0

2.839942e+05 8.956185e+04        0
8.956185e+04 -8.595072e+04        0
       0        0        0

1.364444e+05 1.086444e+05        0
1.086444e+05 -8.550260e+04        0
       0        0        0

-1.129712e+04 1.181785e+05        0
1.181785e+05 -8.527347e+04        0
       0        0        0

-1.592310e+05 1.181672e+05        0
1.181672e+05 -8.526462e+04        0
       0        0        0

-3.073564e+05 1.086132e+05        0
1.086132e+05 -8.547630e+04        0
       0        0        0

-4.556717e+05 8.951900e+04        0
8.951900e+04 -8.590754e+04        0
       0        0        0

-6.041745e+05 6.088680e+04        0
6.088680e+04 -8.655609e+04        0
       0        0        0

-7.528619e+05 2.271886e+04        0
2.271886e+04 -8.741819e+04        0
       0        0        0

5.316658e+05 2.273795e+04        0
2.273795e+04 -9.136769e+04        0
       0        0        0

3.940921e+05 6.092663e+04        0
6.092663e+04 -9.044910e+04        0
       0        0        0

2.563184e+05 8.956035e+04        0
8.956035e+04 -8.975416e+04        0
       0        0        0

1.183407e+05 1.086427e+05        0
1.086427e+05 -8.928591e+04        0
       0        0        0

-1.984304e+04 1.181771e+05        0
1.181771e+05 -8.904673e+04        0
       0        0        0

-1.582329e+05 1.181665e+05        0
1.181665e+05 -8.903797e+04        0
       0        0        0

-2.968278e+05 1.086135e+05        0
1.086135e+05 -8.925978e+04        0
       0        0        0

-4.356257e+05 8.952026e+04        0
8.952026e+04 -8.971126e+04        0
       0        0        0

-5.746240e+05 6.088854e+04        0
6.088854e+04 -9.039032e+04        0
       0        0        0

-7.138200e+05 2.271989e+04        0
2.271989e+04 -9.129325e+04        0
       0        0        0

4.849900e+05 2.273796e+04        0
2.273796e+04 -9.505616e+04        0
       0        0        0

3.570143e+05 6.092577e+04        0
6.092577e+04 -9.410011e+04        0
       0        0        0

2.288244e+05 8.955862e+04        0
8.955862e+04 -9.337680e+04        0
       0        0        0

1.004164e+05 1.086409e+05        0
1.086409e+05 -9.288973e+04        0
       0        0        0

-2.821084e+04 1.181759e+05        0
1.181759e+05 -9.264170e+04        0
       0        0        0

-1.570570e+05 1.181660e+05        0
1.181660e+05 -9.263378e+04        0
       0        0        0

-2.861209e+05 1.086137e+05        0
1.086137e+05 -9.286554e+04        0
       0        0        0

-4.153999e+05 8.952130e+04        0
8.952130e+04 -9.333582e+04        0
       0        0        0

-5.448908e+05 6.089031e+04        0
6.089031e+04 -9.404299e+04        0
       0        0        0

-6.745908e+05 2.272114e+04        0
2.272114e+04 -9.498387e+04        0
       0        0        0

4.385165e+05 2.273798e+04        0
2.273798e+04 -9.854412e+04        0
       0        0        0

3.201365e+05 6.092413e+04        0
6.092413e+04 -9.755241e+04        0
       0        0        0

2.015270e+05 8.955604e+04        0
8.955604e+04 -9.680154e+04        0
       0        0        0

8.268605e+04 1.086393e+05        0
1.086393e+05 -9.629692e+04        0
       0        0        0

-3.638570e+04 1.181760e+05        0
1.181760e+05 -9.604233e+04        0
       0        0        0

-1.556878e+05 1.181669e+05        0
1.181669e+05 -9.603768e+04        0
       0        0        0

-2.752197e+05 1.086142e+05        0
1.086142e+05 -9.628030e+04        0
       0        0        0

-3.949789e+05 8.952148e+04        0
8.952148e+04 -9.676788e+04        0
       0        0        0

-5.149601e+05 6.089129e+04        0
6.089129e+04 -9.749979e+04        0
       0        0        0

-6.351590e+05 2.272241e+04        0
2.272241e+04 -9.847493e+04        0
       0        0        0

3.922608e+05 2.273705e+04        0
2.273705e+04 -1.018168e+05        0
       0        0        0

2.834737e+05 6.091918e+04        0
6.091918e+04 -1.007892e+05        0
       0        0        0

1.744389e+05 8.955103e+04        0
8.955103e+04 -1.000095e+05        0
       0        0        0

6.516112e+04 1.086394e+05        0
1.086394e+05 -9.948864e+04        0
       0        0        0

-4.435479e+04 1.181814e+05        0
1.181814e+05 -9.923256e+04        0
       0        0        0

-1.541098e+05 1.181730e+05        0
1.181730e+05 -9.923756e+04        0
       0        0        0

-2.641076e+05 1.086162e+05        0
1.086162e+05 -9.949471e+04        0
       0        0        0

-3.743470e+05 8.951924e+04        0
8.951924e+04 -9.999807e+04        0
       0        0        0

-4.848186e+05 6.088897e+04        0
6.088897e+04 -1.007491e+05        0
       0        0        0

-5.955116e+05 2.272272e+04        0
2.272272e+04 -1.017526e+05        0
       0        0        0

3.462408e+05 2.273213e+04        0
2.273213e+04 -1.048596e+05        0
       0        0        0

2.470402e+05 6.090435e+04        0
6.090435e+04 -1.037913e+05        0
       0        0        0

1.475679e+05 8.953998e+04        0
8.953998e+04 -1.029768e+05        0
       0        0        0

4.784706e+04 1.086446e+05        0
1.086446e+05 -1.024414e+05        0
       0        0        0

-5.210859e+04 1.182015e+05        0
1.182015e+05 -1.021950e+05        0
       0        0        0

-1.523066e+05 1.181938e+05        0
1.181938e+05 -1.022248e+05        0
       0        0        0

-2.527641e+05 1.086235e+05        0
1.086235e+05 -1.025064e+05        0
       0        0        0

-3.534861e+05 8.951095e+04        0
8.951095e+04 -1.030243e+05        0
       0        0        0

-4.544544e+05 6.087677e+04        0
6.087677e+04 -1.037842e+05        0
       0        0        0

-5.556397e+05 2.271905e+04        0
2.271905e+04 -1.048050e+05        0
       0        0        0

3.004822e+05 2.271539e+04        0
2.271539e+04 -1.076574e+05        0
       0        0        0

2.108493e+05 6.086437e+04        0
6.086437e+04 -1.065333e+05        0
       0        0        0

1.209111e+05 8.951546e+04        0
8.951546e+04 -1.056691e+05        0
       0        0        0

3.073692e+04 1.086641e+05        0
1.086641e+05 -1.051219e+05        0
       0        0        0

-5.964355e+04 1.182578e+05        0
1.182578e+05 -1.049091e+05        0
       0        0        0

-1.502580e+05 1.182508e+05        0
1.182508e+05 -1.049962e+05        0
       0        0        0

-2.411586e+05 1.086450e+05        0
1.086450e+05 -1.053249e+05        0
       0        0        0

-3.323700e+05 8.948920e+04        0
8.948920e+04 -1.058577e+05        0
       0        0        0

-4.238570e+05 6.083943e+04        0
6.083943e+04 -1.066065e+05        0
       0        0        0

-5.155448e+05 2.270357e+04        0
2.270357e+04 -1.076228e+05        0
       0        0        0

2.550302e+05 2.266861e+04        0
2.266861e+04 -1.101928e+05        0
       0        0        0

1.749112e+05 6.076689e+04        0
6.076689e+04 -1.089786e+05        0
       0        0        0

9.444394e+04 8.946363e+04        0
8.946363e+04 -1.080332e+05        0
       0        0        0

1.379929e+04 1.087177e+05        0
1.087177e+05 -1.074804e+05        0
       0        0        0

-6.696699e+04 1.183950e+05        0
1.183950e+05 -1.073481e+05        0
       0        0        0

-1.479345e+05 1.183887e+05        0
1.183887e+05 -1.075565e+05        0
       0        0        0

-2.292386e+05 1.087005e+05        0
1.087005e+05 -1.079789e+05        0
       0        0        0

-3.109536e+05 8.944014e+04        0
8.944014e+04 -1.085307e+05        0
       0        0        0

-3.930164e+05 6.074460e+04        0
6.074460e+04 -1.092323e+05        0
       0        0        0

-4.752498e+05 2.265805e+04        0
2.265805e+04 -1.102010e+05        0
       0        0        0

2.099707e+05 2.255312e+04        0
2.255312e+04 -1.124452e+05        0
       0        0        0

1.392276e+05 6.054966e+04        0
6.054966e+04 -1.110720e+05        0
       0        0        0

6.809783e+04 8.936201e+04        0
8.936201e+04 -1.099896e+05        0
       0        0        0

-3.042201e+03 1.088455e+05        0
1.088455e+05 -1.094456e+05        0
       0        0        0

-7.410476e+04 1.186961e+05        0
1.186961e+05 -1.094775e+05        0
       0        0        0

-1.452897e+05 1.186906e+05        0
1.186906e+05 -1.099193e+05        0
       0        0        0

-2.169085e+05 1.088304e+05        0
1.088304e+05 -1.105207e+05        0
       0        0        0

-2.891518e+05 8.934130e+04        0
8.934130e+04 -1.111065e+05        0
       0        0        0

-3.619182e+05 6.053005e+04        0
6.053005e+04 -1.117009e+05        0
       0        0        0

-4.348222e+05 2.254384e+04        0
2.254384e+04 -1.125421e+05        0
       0        0        0

1.654676e+05 2.229389e+04        0
2.229389e+04 -1.143894e+05        0
       0        0        0

1.037757e+05 6.010633e+04        0
6.010633e+04 -1.127378e+05        0
       0        0        0

4.172434e+04 8.918285e+04        0
8.918285e+04 -1.114369e+05        0
       0        0        0

-1.993674e+04 1.091211e+05        0
1.091211e+05 -1.109352e+05        0
       0        0        0

-8.111029e+04 1.192969e+05        0
1.192969e+05 -1.112604e+05        0
       0        0        0

-1.422485e+05 1.192922e+05        0
1.192922e+05 -1.121001e+05        0
       0        0        0

-2.040019e+05 1.091080e+05        0
1.091080e+05 -1.130150e+05        0
       0        0        0

-2.668047e+05 8.916493e+04        0
8.916493e+04 -1.136749e+05        0
       0        0        0

-3.305323e+05 6.008944e+04        0
6.008944e+04 -1.140806e+05        0
       0        0        0

-3.944153e+05 2.228592e+04        0
2.228592e+04 -1.146607e+05        0
       0        0        0

1.218143e+05 2.175987e+04        0
2.175987e+04 -1.160001e+05        0
       0        0        0

6.846991e+04 5.928775e+04        0
5.928775e+04 -1.139016e+05        0
       0        0        0

1.504776e+04 8.891653e+04        0
8.891653e+04 -1.123083e+05        0
       0        0        0

-3.712658e+04 1.096611e+05        0
1.096611e+05 -1.119237e+05        0
       0        0        0

-8.806576e+04 1.203706e+05        0
1.203706e+05 -1.126850e+05        0
       0        0        0

-1.387020e+05 1.203666e+05        0
1.203666e+05 -1.140839e+05        0
       0        0        0

-1.902583e+05 1.096500e+05        0
1.096500e+05 -1.154691e+05        0
       0        0        0

-2.436324e+05 8.890144e+04        0
8.890144e+04 -1.162985e+05        0
       0        0        0

-2.987810e+05 5.927361e+04        0
5.927361e+04 -1.164537e+05        0
       0        0        0

-3.543298e+05 2.175326e+04        0
2.175326e+04 -1.165894e+05        0
       0        0        0

7.947515e+04 2.075678e+04        0
2.075678e+04 -1.172821e+05        0
       0        0        0

3.307865e+04 5.797447e+04        0
5.797447e+04 -1.145899e+05        0
       0        0        0

-1.236393e+04 8.865059e+04        0
8.865059e+04 -1.127886e+05        0
       0        0        0

-5.490063e+04 1.106013e+05        0
1.106013e+05 -1.126577e+05        0
       0        0        0

-9.504947e+04 1.220074e+05        0
1.220074e+05 -1.138552e+05        0
       0        0        0

-1.345317e+05 1.220041e+05        0
1.220041e+05 -1.157267e+05        0
       0        0        0

-1.753639e+05 1.105923e+05        0
1.105923e+05 -1.176118e+05        0
       0        0        0

-2.192067e+05 8.863840e+04        0
8.863840e+04 -1.187962e+05        0
       0        0        0

-2.664683e+05 5.796312e+04        0
5.796312e+04 -1.188293e+05        0
       0        0        0

-3.150782e+05 2.075156e+04        0
2.075156e+04 -1.183719e+05        0
       0        0        0

3.901604e+04 1.910250e+04        0
1.910250e+04 -1.183311e+05        0
       0        0        0

-2.945801e+03 5.638064e+04        0
5.638064e+04 -1.153385e+05        0
       0        0        0

-4.097162e+04 8.874194e+04        0
8.874194e+04 -1.139163e+05        0
       0        0        0

-7.334316e+04 1.119428e+05        0
1.119428e+05 -1.141993e+05        0
       0        0        0

-1.020044e+05 1.238170e+05        0
1.238170e+05 -1.151847e+05        0
       0        0        0

-1.297257e+05 1.238146e+05        0
1.238146e+05 -1.165458e+05        0
       0        0        0

-1.591896e+05 1.119363e+05        0
1.119363e+05 -1.183359e+05        0
       0        0        0

-1.930733e+05 8.873286e+04        0
8.873286e+04 -1.201362e+05        0
       0        0        0

-2.331278e+05 5.637209e+04        0
5.637209e+04 -1.207525e+05        0
       0        0        0

-2.773664e+05 1.909865e+04        0
1.909865e+04 -1.200521e+05        0
       0        0        0

5.231885e+02 1.710271e+04        0
1.710271e+04 -1.199683e+05        0
       0        0        0

-4.055900e+04 5.592265e+04        0
5.592265e+04 -1.183223e+05        0
       0        0        0

-7.064224e+04 9.001307e+04        0
9.001307e+04 -1.192608e+05        0
       0        0        0

-9.160225e+04 1.128998e+05        0
1.128998e+05 -1.193451e+05        0
       0        0        0

-1.084793e+05 1.240404e+05        0
1.240404e+05 -1.176209e+05        0
       0        0        0

-1.246149e+05 1.240392e+05        0
1.240392e+05 -1.154734e+05        0
       0        0        0

-1.424954e+05 1.128964e+05        0
1.128964e+05 -1.147534e+05        0
       0        0        0

-1.653497e+05 9.000769e+04        0
9.000769e+04 -1.167341e+05        0
       0        0        0

-1.979384e+05 5.591692e+04        0
5.591692e+04 -1.201833e+05        0
       0        0        0

-2.416132e+05 1.710010e+04        0
1.710010e+04 -1.211410e+05        0
       0        0        0

-3.838756e+04 1.780089e+04        0
1.780089e+04 -1.241547e+05        0
       0        0        0

-8.056431e+04 6.133461e+04        0
6.133461e+04 -1.329179e+05        0
       0        0        0

-9.823377e+04 9.241439e+04        0
9.241439e+04 -1.376493e+05        0
       0        0        0

-1.069299e+05 1.101518e+05        0
1.101518e+05 -1.330247e+05        0
       0        0        0

-1.134903e+05 1.182691e+05        0
1.182691e+05 -1.226657e+05        0
       0        0        0

-1.199857e+05 1.182695e+05        0
1.182695e+05 -1.108102e+05        0
       0        0        0

-1.278480e+05 1.101525e+05        0
1.101525e+05 -1.017531e+05        0
       0        0        0

-1.390687e+05 9.241419e+04        0
9.241419e+04 -9.965328e+04        0
       0        0        0

-1.602170e+05 6.133242e+04        0
6.133242e+04 -1.078653e+05        0
       0        0        0

-2.060740e+05 1.779909e+04        0
1.779909e+04 -1.203165e+05        0
       0        0        0

-9.041227e+04 4.054631e+04        0
4.054631e+04 -1.562833e+05        0
       0        0        0

-1.138421e+05 7.593486e+04        0
7.593486e+04 -1.858539e+05        0
       0        0        0

-1.150718e+05 8.920336e+04        0
8.920336e+04 -1.817339e+05        0
       0        0        0

-1.153875e+05 9.571255e+04        0
9.571255e+04 -1.608397e+05        0
       0        0        0

-1.157489e+05 9.856239e+04        0
9.856239e+04 -1.317915e+05        0
       0        0        0

-1.168366e+05 9.856429e+04        0
9.856429e+04 -1.007937e+05        0
       0        0        0

-1.188659e+05 9.571771e+04        0
9.571771e+04 -7.341100e+04        0
       0        0        0

-1.225609e+05 8.921016e+04        0
8.921016e+04 -5.589328e+04        0
       0        0        0

-1.289065e+05 7.594047e+04        0
7.594047e+04 -5.688864e+04        0
       0        0        0

-1.586523e+05 4.054609e+04        0
4.054609e+04 -9.278138e+04        0
       0        0        0

POINT_DATA     451
VECTORS DISPLACEMENT_6.000000e-01 double
0.000000e+00    0.000000e+00    0.000000e+00
0.000000e+00    0.000000e+00    0.000000e+00
0.000000e+00    0.000000e+00    0.000000e+00
0.000000e+00    0.000000e+00    0.000000e+00
0.000000e+00    0.000000e+00    0.000000e+00
0.000000e+00    0.000000e+00    0.000000e+00
0.000000e+00    0.000000e+00    0.000000e+00
0.000000e+00    0.000000e+00    0.000000e+00
0.000000e+00    0.000000e+00    0.000000e+00
0.000000e+00    0.000000e+00    0.000000e+00
0.000000e+00    0.000000e+00    0.000000e+00
-1.141595e-06    -8.299605e-07    0.000000e+00
-7.233448e-07    -4.163094e-07    0.000000e+00
-5.161144e-07    -2.157261e-07    0.000000e+00
-3.332233e-07    -1.068318e-07    0.000000e+00
-1.642863e-07    -5.047426e-08    0.000000e+00
-3.487258e-20    -3.295145e-08    0.000000e+00
1.642863e-07    -5.047426e-08    0.000000e+00
3.332233e-07    -1.068318e-07    0.000000e+00
5.161144e-07    -2.157261e-07    0.000000e+00
7.233448e-07    -4.163094e-07    0.000000e+00
1.141595e-06    -8.299605e-07    0.000000e+00
-2.153941e-06    -1.380309e-06    0.000000e+00
-1.574436e-06    -9.987668e-07    0.000000e+00
-1.105093e-06    -7.015532e-07    0.000000e+00
-7.128292e-07    -5.177059e-07    0.000000e+00
-3.501023e-07    -4.175298e-07    0.000000e+00
-7.370179e-20    -3.857102e-07    0.000000e+00
3.501023e-07    -4.175298e-07    0.000000e+00
7.128292e-07    -5.177059e-07    0.000000e+00
1.105093e-06    -7.015532e-07    0.000000e+00
1.574436e-06    -9.987668e-07    0.000000e+00
2.153941e-06    -1.380309e-06    0.000000e+00
-3.132427e-06    -2.064634e-06    0.000000e+00
-2.394168e-06    -1.682257e-06    0.000000e+00
-1.722702e-06    -1.380761e-06    0.000000e+00
-1.115240e-06    -1.168096e-06    0.000000e+00
-5.487489e-07    -1.045521e-06    0.000000e+00
-1.160998e-19    -1.005593e-06    0.000000e+00
5.487489e-07    -1.045521e-06    0.000000e+00
1.115240e-06    -1.168096e-06    0.000000e+00
1.722702e-06    -1.380761e-06    0.000000e+00
2.394168e-06    -1.682257e-06    0.000000e+00
3.132427e-06    -2.064634e-06    0.000000e+00
-4.100076e-06    -2.909172e-06    0.000000e+00
-3.186876e-06    -2.535522e-06    0.000000e+00
-2.326958e-06    -2.239053e-06    0.000000e+00
-1.519408e-06    -2.025105e-06    0.000000e+00
-7.500557e-07    -1.896684e-06    0.000000e+00
-1.601620e-19    -1.854101e-06    0.000000e+00
7.500557e-07    -1.896684e-06    0.000000e+00
1.519408e-06    -2.025105e-06    0.000000e+00
2.326958e-06    -2.239053e-06    0.000000e+00
3.186876e-06    -2.535522e-06    0.000000e+00
4.100076e-06    -2.909172e-06    0.000000e+00
-5.051341e-06    -3.936654e-06    0.000000e+00
-3.956477e-06    -3.571725e-06    0.000000e+00
-2.911986e-06    -3.284208e-06    0.000000e+00
-1.912865e-06    -3.075889e-06    0.000000e+00
-9.475500e-07    -2.949778e-06    0.000000e+00
-2.054055e-19    -2.907564e-06    0.000000e+00
9.475500e-07    -2.949778e-06    0.000000e+00
1.912865e-06    -3.075889e-06    0.000000e+00
2.911986e-06    -3.284208e-06    0.000000e+00
3.956477e-06    -3.571725e-06    0.000000e+00
5.051341e-06    -3.936654e-06    0.000000e+00
-5.981873e-06    -5.149742e-06    0.000000e+00
-4.704513e-06    -4.794468e-06    0.000000e+00
-3.477740e-06    -4.516043e-06    0.000000e+00
-2.292922e-06    -4.315096e-06    0.000000e+00
-1.138484e-06    -4.193469e-06    0.000000e+00
-2.517011e-19    -4.152740e-06    0.000000e+00
1.138484e-06    -4.193469e-06    0.000000e+00
2.292922e-06    -4.315096e-06    0.000000e+00
3.477740e-06    -4.516043e-06    0.000000e+00
4.704513e-06    -4.794468e-06    0.000000e+00
5.981873e-06    -5.149742e-06    0.000000e+00
-6.888558e-06    -6.546376e-06    0.000000e+00
-5.431254e-06    -6.201154e-06    0.000000e+00
-4.025294e-06    -5.931590e-06    0.000000e+00
-2.659769e-06    -5.737829e-06    0.000000e+00
-1.322562e-06    -5.620886e-06    0.000000e+00
-2.946616e-19    -5.581769e-06    0.000000e+00
1.322562e-06    -5.620886e-06    0.000000e+00
2.659769e-06    -5.737829e-06    0.000000e+00
4.025294e-06    -5.931590e-06    0.000000e+00
5.431254e-06    -6.201154e-06    0.000000e+00
6.888558e-06    -6.546376e-06    0.000000e+00
-7.769676e-06    -8.122139e-06    0.000000e+00
-6.136609e-06    -7.787205e-06    0.000000e+00
-4.555509e-06    -7.526210e-06    0.000000e+00
-3.014226e-06    -7.339157e-06    0.000000e+00
-1.500173e-06    -7.226543e-06    0.000000e+00
-3.374103e-19    -7.188927e-06    0.000000e+00
1.500173e-06    -7.226543e-06    0.000000e+00
3.014226e-06    -7.339157e-06    0.000000e+00
4.555509e-06    -7.526210e-06    0.000000e+00
6.136609e-06    -7.787205e-06    0.000000e+00
7.769676e-06    -8.122139e-06    0.000000e+00
-8.624338e-06    -9.871838e-06    0.000000e+00
-6.820449e-06    -9.547301e-06    0.000000e+00
-5.068913e-06    -9.294676e-06    0.000000e+00
-3.356973e-06    -9.113935e-06    0.000000e+00
-1.671744e-06    -9.005300e-06    0.000000e+00
-3.801590e-19    -8.969049e-06    0.000000e+00
1.671744e-06    -9.005300e-06    0.000000e+00
3.356973e-06    -9.113935e-06    0.000000e+00
5.068913e-06    -9.294676e-06    0.000000e+00
6.820449e-06    -9.547301e-06    0.000000e+00
8.624338e-06    -9.871838e-06    0.000000e+00
-9.452128e-06    -1.179002e-05    0.000000e+00
-7.482678e-06    -1.147593e-05    0.000000e+00
-5.565791e-06    -1.123156e-05    0.000000e+00
-3.688437e-06    -1.105688e-05    0.000000e+00
-1.837569e-06    -1.095199e-05    0.000000e+00
-4.247870e-19    -1.091701e-05    0.000000e+00
1.837569e-06    -1.095199e-05    0.000000e+00
3.688437e-06    -1.105688e-05    0.000000e+00
5.565791e-06    -1.123156e-05    0.000000e+00
7.482678e-06    -1.147593e-05    0.000000e+00
9.452128e-06    -1.179002e-05    0.000000e+00
-1.025287e-05    -1.387120e-05    0.000000e+00
-8.123242e-06    -1.356758e-05    0.000000e+00
-6.046283e-06    -1.333140e-05    0.000000e+00
-4.008850e-06    -1.316265e-05    0.000000e+00
-1.997814e-06    -1.306137e-05    0.000000e+00
-4.618977e-19    -1.302760e-05    0.000000e+00
1.997814e-06    -1.306137e-05    0.000000e+00
4.008850e-06    -1.316265e-05    0.000000e+00
6.046283e-06    -1.333140e-05    0.000000e+00
8.123242e-06    -1.356758e-05    0.000000e+00
1.025287e-05    -1.387120e-05    0.000000e+00
-1.102648e-05    -1.610989e-05    0.000000e+00
-8.742113e-06    -1.581673e-05    0.000000e+00
-6.510452e-06    -1.558871e-05    0.000000e+00
-4.318325e-06    -1.542583e-05    0.000000e+00
-2.152566e-06    -1.532809e-05    0.000000e+00
-4.999612e-19    -1.529550e-05    0.000000e+00
2.152566e-06    -1.532809e-05    0.000000e+00
4.318325e-06    -1.542583e-05    0.000000e+00
6.510452e-06    -1.558871e-05    0.000000e+00
8.742113e-06    -1.581673e-05    0.000000e+00
1.102648e-05    -1.610989e-05    0.000000e+00
-1.177296e-05    -1.850062e-05    0.000000e+00
-9.339276e-06    -1.821793e-05    0.000000e+00
-6.958324e-06    -1.799806e-05    0.000000e+00
-4.616914e-06    -1.784101e-05    0.000000e+00
-2.301865e-06    -1.774678e-05    0.000000e+00
-5.417834e-19    -1.771537e-05    0.000000e+00
2.301865e-06    -1.774678e-05    0.000000e+00
4.616914e-06    -1.784101e-05    0.000000e+00
6.958324e-06    -1.799806e-05    0.000000e+00
9.339276e-06    -1.821793e-05    0.000000e+00
1.177296e-05    -1.850062e-05    0.000000e+00
-1.249228e-05    -2.103794e-05    0.000000e+00
-9.914727e-06    -2.076572e-05    0.000000e+00
-7.389909e-06    -2.055400e-05    0.000000e+00
-4.904637e-06    -2.040277e-05    0.000000e+00
-2.445728e-06    -2.031204e-05    0.000000e+00
-5.693120e-19    -2.028179e-05    0.000000e+00
2.445728e-06    -2.031204e-05    0.000000e+00
4.904637e-06    -2.040277e-05    0.000000e+00
7.389909e-06    -2.055400e-05    0.000000e+00
9.914727e-06    -2.076572e-05    0.000000e+00
1.249228e-05    -2.103794e-05    0.000000e+00
-1.318446e-05    -2.371642e-05    0.000000e+00
-1.046846e-05    -2.345467e-05    0.000000e+00
-7.805208e-06    -2.325109e-05    0.000000e+00
-5.181501e-06    -2.310568e-05    0.000000e+00
-2.584160e-06    -2.301844e-05    0.000000e+00
-5.947230e-19    -2.298935e-05    0.000000e+00
2.584160e-06    -2.301844e-05    0.000000e+00
5.181501e-06    -2.310568e-05    0.000000e+00
7.805208e-06    -2.325109e-05    0.000000e+00
1.046846e-05    -2.345467e-05    0.000000e+00
1.318446e-05    -2.371642e-05    0.000000e+00
-1.384949e-05    -2.653062e-05    0.000000e+00
-1.100049e-05    -2.627934e-05    0.000000e+00
-8.204222e-06    -2.608391e-05    0.000000e+00
-5.447509e-06    -2.594431e-05    0.000000e+00
-2.717163e-06    -2.586055e-05    0.000000e+00
-6.127225e-19    -2.583264e-05    0.000000e+00
2.717163e-06    -2.586055e-05    0.000000e+00
5.447509e-06    -2.594431e-05    0.000000e+00
8.204222e-06    -2.608391e-05    0.000000e+00
1.100049e-05    -2.627934e-05    0.000000e+00
1.384949e-05    -2.653062e-05    0.000000e+00
-1.448737e-05    -2.947511e-05    0.000000e+00
-1.151079e-05    -2.923430e-05    0.000000e+00
-8.586950e-06    -2.904701e-05    0.000000e+00
-5.702661e-06    -2.891323e-05    0.000000e+00
-2.844739e-06    -2.883296e-05    0.000000e+00
-6.143106e-19    -2.880621e-05    0.000000e+00
2.844739e-06    -2.883296e-05    0.000000e+00
5.702661e-06    -2.891323e-05    0.000000e+00
8.586950e-06    -2.904701e-05    0.000000e+00
1.151079e-05    -2.923430e-05    0.000000e+00
1.448737e-05    -2.947511e-05    0.000000e+00
-1.509811e-05    -3.254446e-05    0.000000e+00
-1.199938e-05    -3.231413e-05    0.000000e+00
-8.953392e-06    -3.213498e-05    0.000000e+00
-5.946955e-06    -3.200701e-05    0.000000e+00
-2.966886e-06    -3.193024e-05    0.000000e+00
-6.280749e-19    -3.190464e-05    0.000000e+00
2.966886e-06    -3.193024e-05    0.000000e+00
5.946955e-06    -3.200701e-05    0.000000e+00
8.953392e-06    -3.213498e-05    0.000000e+00
1.199938e-05    -3.231413e-05    0.000000e+00
1.509811e-05    -3.254446e-05    0.000000e+00
-1.568170e-05    -3.573325e-05    0.000000e+00
-1.246626e-05    -3.551338e-05    0.000000e+00
-9.303549e-06    -3.534238e-05    0.000000e+00
-6.180392e-06    -3.522023e-05    0.000000e+00
-3.083604e-06    -3.514694e-05    0.000000e+00
-6.551800e-19    -3.512251e-05    0.000000e+00
3.083604e-06    -3.514694e-05    0.000000e+00
6.180392e-06    -3.522023e-05    0.000000e+00
9.303549e-06    -3.534238e-05    0.000000e+00
1.246626e-05    -3.551338e-05    0.000000e+00
1.568170e-05    -3.573325e-05    0.000000e+00
-1.623815e-05    -3.903604e-05    0.000000e+00
-1.291142e-05    -3.882665e-05    0.000000e+00
-9.637419e-06    -3.866378e-05    0.000000e+00
-6.402972e-06    -3.854745e-05    0.000000e+00
-3.194894e-06    -3.847765e-05    0.000000e+00
-6.983787e-19    -3.845439e-05    0.000000e+00
3.194894e-06    -3.847765e-05    0.000000e+00
6.402972e-06    -3.854745e-05    0.000000e+00
9.637419e-06    -3.866378e-05    0.000000e+00
1.291142e-05    -3.882665e-05    0.000000e+00
1.623815e-05    -3.903604e-05    0.000000e+00
-1.676746e-05    -4.244741e-05    0.000000e+00
-1.333486e-05    -4.224848e-05    0.000000e+00
-9.955003e-06    -4.209376e-05    0.000000e+00
-6.614695e-06    -4.198325e-05    0.000000e+00
-3.300755e-06    -4.191694e-05    0.000000e+00
-7.578827e-19    -4.189484e-05    0.000000e+00
3.300755e-06    -4.191694e-05    0.000000e+00
6.614695e-06    -4.198325e-05    0.000000e+00
9.955003e-06    -4.209376e-05    0.000000e+00
1.333486e-05    -4.224848e-05    0.000000e+00
1.676746e-05    -4.244741e-05    0.000000e+00
-1.726962e-05    -4.596192e-05    0.000000e+00
-1.373659e-05    -4.577347e-05    0.000000e+00
-1.025630e-05    -4.562689e-05    0.000000e+00
-6.815560e-06    -4.552219e-05    0.000000e+00
-3.401188e-06    -4.545937e-05    0.000000e+00
-7.985403e-19    -4.543843e-05    0.000000e+00
3.401188e-06    -4.545937e-05    0.000000e+00
6.815560e-06    -4.552219e-05    0.000000e+00
1.025630e-05    -4.562689e-05    0.000000e+00
1.373659e-05    -4.577347e-05    0.000000e+00
1.726962e-05    -4.596192e-05    0.000000e+00
-1.774464e-05    -4.957415e-05    0.000000e+00
-1.411661e-05    -4.939617e-05    0.000000e+00
-1.054131e-05    -4.925773e-05    0.000000e+00
-7.005568e-06    -4.915885e-05    0.000000e+00
-3.496192e-06    -4.909952e-05    0.000000e+00
-8.286100e-19    -4.907975e-05    0.000000e+00
3.496192e-06    -4.909952e-05    0.000000e+00
7.005568e-06    -4.915885e-05    0.000000e+00
1.054131e-05    -4.925773e-05    0.000000e+00
1.411661e-05    -4.939617e-05    0.000000e+00
1.774464e-05    -4.957415e-05    0.000000e+00
-1.819252e-05    -5.327868e-05    0.000000e+00
-1.447491e-05    -5.311116e-05    0.000000e+00
-1.081004e-05    -5.298087e-05    0.000000e+00
-7.184718e-06    -5.288780e-05    0.000000e+00
-3.585767e-06    -5.283196e-05    0.000000e+00
-8.692676e-19    -5.281335e-05    0.000000e+00
3.585767e-06    -5.283196e-05    0.000000e+00
7.184718e-06    -5.288780e-05    0.000000e+00
1.081004e-05    -5.298087e-05    0.000000e+00
1.447491e-05    -5.311116e-05    0.000000e+00
1.819252e-05    -5.327868e-05    0.000000e+00
-1.861325e-05    -5.707006e-05    0.000000e+00
-1.481149e-05    -5.691301e-05    0.000000e+00
-1.106248e-05    -5.679086e-05    0.000000e+00
-7.353011e-06    -5.670361e-05    0.000000e+00
-3.669914e-06    -5.665126e-05    0.000000e+00
-8.821848e-19    -5.663381e-05    0.000000e+00
3.669914e-06    -5.665126e-05    0.000000e+00
7.353011e-06    -5.670361e-05    0.000000e+00
1.106248e-05    -5.679086e-05    0.000000e+00
1.481149e-05    -5.691301e-05    0.000000e+00
1.861325e-05    -5.707006e-05    0.000000e+00
-1.900683e-05    -6.094287e-05    0.000000e+00
-1.512636e-05    -6.079629e-05    0.000000e+00
-1.129863e-05    -6.068229e-05    0.000000e+00
-7.510448e-06    -6.060086e-05    0.000000e+00
-3.748633e-06    -6.055200e-05    0.000000e+00
-8.959491e-19    -6.053571e-05    0.000000e+00
3.748633e-06    -6.055200e-05    0.000000e+00
7.510448e-06    -6.060086e-05    0.000000e+00
1.129863e-05    -6.068229e-05    0.000000e+00
1.512636e-05    -6.079629e-05    0.000000e+00
1.900683e-05    -6.094287e-05    0.000000e+00
-1.937327e-05    -6.489169e-05    0.000000e+00
-1.541952e-05    -6.475558e-05    0.000000e+00
-1.151850e-05    -6.464972e-05    0.000000e+00
-7.657028e-06    -6.457410e-05    0.000000e+00
-3.821923e-06    -6.452873e-05    0.000000e+00
-9.124662e-19    -6.451361e-05    0.000000e+00
3.821923e-06    -6.452873e-05    0.000000e+00
7.657028e-06    -6.457410e-05    0.000000e+00
1.151850e-05    -6.464972e-05    0.000000e+00
1.541952e-05    -6.475558e-05    0.000000e+00
1.937327e-05    -6.489169e-05    0.000000e+00
-1.971256e-05    -6.891107e-05    0.000000e+00
-1.569095e-05    -6.878544e-05    0.000000e+00
-1.172208e-05    -6.868772e-05    0.000000e+00
-7.792750e-06    -6.861792e-05    0.000000e+00
-3.889784e-06    -6.857604e-05    0.000000e+00
-9.016666e-19    -6.856208e-05    0.000000e+00
3.889784e-06    -6.857604e-05    0.000000e+00
7.792750e-06    -6.861792e-05    0.000000e+00
1.172208e-05    -6.868772e-05    0.000000e+00
1.569095e-05    -6.878544e-05    0.000000e+00
1.971256e-05    -6.891107e-05    0.000000e+00
-2.002471e-05    -7.299559e-05    0.000000e+00
-1.594068e-05    -7.288043e-05    0.000000e+00
-1.190938e-05    -7.279086e-05    0.000000e+00
-7.917611e-06    -7.272688e-05    0.000000e+00
-3.952212e-06    -7.268851e-05    0.000000e+00
-9.016666e-19    -7.267572e-05    0.000000e+00
3.952212e-06    -7.268851e-05    0.000000e+00
7.917611e-06    -7.272688e-05    0.000000e+00
1.190938e-05    -7.279086e-05    0.000000e+00
1.594068e-05    -7.288043e-05    0.000000e+00
2.002471e-05    -7.299559e-05    0.000000e+00
-2.030971e-05    -7.713981e-05    0.000000e+00
-1.616869e-05    -7.703511e-05    0.000000e+00
-1.208038e-05    -7.695370e-05    0.000000e+00
-8.031599e-06    -7.689557e-05    0.000000e+00
-4.009198e-06    -7.686071e-05    0.000000e+00
-9.406301e-19    -7.684909e-05    0.000000e+00
4.009198e-06    -7.686071e-05    0.000000e+00
8.031599e-06    -7.689557e-05    0.000000e+00
1.208038e-05    -7.695370e-05    0.000000e+00
1.616869e-05    -7.703511e-05    0.000000e+00
2.030971e-05    -7.713981e-05    0.000000e+00
-2.056757e-05    -8.133827e-05    0.000000e+00
-1.637501e-05    -8.124404e-05    0.000000e+00
-1.223508e-05    -8.117079e-05    0.000000e+00
-8.134685e-06    -8.111855e-05    0.000000e+00
-4.060719e-06    -8.108725e-05    0.000000e+00
-9.838288e-19    -8.107682e-05    0.000000e+00
4.060719e-06    -8.108725e-05    0.000000e+00
8.134685e-06    -8.111855e-05    0.000000e+00
1.223508e-05    -8.117079e-05    0.000000e+00
1.637501e-05    -8.124404e-05    0.000000e+00
2.056757e-05    -8.133827e-05    0.000000e+00
-2.079833e-05    -8.558550e-05    0.000000e+00
-1.655963e-05    -8.550173e-05    0.000000e+00
-1.237344e-05    -8.543669e-05    0.000000e+00
-8.226802e-06    -8.539041e-05    0.000000e+00
-4.106724e-06    -8.536275e-05    0.000000e+00
-1.057521e-18    -8.535356e-05    0.000000e+00
4.106724e-06    -8.536275e-05    0.000000e+00
8.226802e-06    -8.539041e-05    0.000000e+00
1.237344e-05    -8.543669e-05    0.000000e+00
1.655963e-05    -8.550173e-05    0.000000e+00
2.079833e-05    -8.558550e-05    0.000000e+00
-2.100210e-05    -8.987603e-05    0.000000e+00
-1.672261e-05    -8.980269e-05    0.000000e+00
-1.249537e-05    -8.974594e-05    0.000000e+00
-8.307807e-06    -8.970578e-05    0.000000e+00
-4.147107e-06    -8.968192e-05    0.000000e+00
-1.125707e-18    -8.967401e-05    0.000000e+00
4.147107e-06    -8.968192e-05    0.000000e+00
8.307807e-06    -8.970578e-05    0.000000e+00
1.249537e-05    -8.974594e-05    0.000000e+00
1.672261e-05    -8.980269e-05    0.000000e+00
2.100210e-05    -8.987603e-05    0.000000e+00
-2.117912e-05    -9.420439e-05    0.000000e+00
-1.686399e-05    -9.414142e-05    0.000000e+00
-1.260070e-05    -9.409307e-05    0.000000e+00
-8.377428e-06    -9.405931e-05    0.000000e+00
-4.181679e-06    -9.403948e-05    0.000000e+00
-1.156623e-18    -9.403296e-05    0.000000e+00
4.181679e-06    -9.403948e-05    0.000000e+00
8.377428e-06    -9.405931e-05    0.000000e+00
1.260070e-05    -9.409307e-05    0.000000e+00
1.686399e-05    -9.414142e-05    0.000000e+00
2.117912e-05    -9.420439e-05    0.000000e+00
-2.132994e-05    -9.856523e-05    0.000000e+00
-1.698387e-05    -9.851248e-05    0.000000e+00
-1.268909e-05    -9.847276e-05    0.000000e+00
-8.435205e-06    -9.844575e-05    0.000000e+00
-4.210141e-06    -9.843026e-05    0.000000e+00
-1.217610e-18    -9.842523e-05    0.000000e+00
4.210141e-06    -9.843026e-05    0.000000e+00
8.435205e-06    -9.844575e-05    0.000000e+00
1.268909e-05    -9.847276e-05    0.000000e+00
1.698387e-05    -9.851248e-05    0.000000e+00
2.132994e-05    -9.856523e-05    0.000000e+00
-2.145562e-05    -1.029537e-04    0.000000e+00
-1.708235e-05    -1.029109e-04    0.000000e+00
-1.275997e-05    -1.028800e-04    0.000000e+00
-8.480517e-06    -1.028600e-04    0.000000e+00
-4.232143e-06    -1.028489e-04    0.000000e+00
-1.279020e-18    -1.028454e-04    0.000000e+00
4.232143e-06    -1.028489e-04    0.000000e+00
8.480517e-06    -1.028600e-04    0.000000e+00
1.275997e-05    -1.028800e-04    0.000000e+00
1.708235e-05    -1.029109e-04    0.000000e+00
2.145562e-05    -1.029537e-04    0.000000e+00
-2.155817e-05    -1.073660e-04    0.000000e+00
-1.715935e-05    -1.073327e-04    0.000000e+00
-1.281258e-05    -1.073105e-04    0.000000e+00
-8.512904e-06    -1.072970e-04    0.000000e+00
-4.247579e-06    -1.072895e-04    0.000000e+00
-1.236245e-18    -1.072870e-04    0.000000e+00
4.247579e-06    -1.072895e-04    0.000000e+00
8.512904e-06    -1.072970e-04    0.000000e+00
1.281258e-05    -1.073105e-04    0.000000e+00
1.715935e-05    -1.073327e-04    0.000000e+00
2.155817e-05    -1.073660e-04    0.000000e+00
-2.164067e-05    -1.118022e-04    0.000000e+00
-1.721429e-05    -1.117772e-04    0.000000e+00
-1.284670e-05    -1.117621e-04    0.000000e+00
-8.533270e-06    -1.117511e-04    0.000000e+00
-4.257281e-06    -1.117436e-04    0.000000e+00
-1.160859e-18    -1.117409e-04    0.000000e+00
4.257281e-06    -1.117436e-04    0.000000e+00
8.533270e-06    -1.117511e-04    0.000000e+00
1.284670e-05    -1.117621e-04    0.000000e+00
1.721429e-05    -1.117772e-04    0.000000e+00
2.164067e-05    -1.118022e-04    0.000000e+00
-2.170513e-05    -1.162704e-04    0.000000e+00
-1.724615e-05    -1.162523e-04    0.000000e+00
-1.286626e-05    -1.162338e-04    0.000000e+00
-8.546206e-06    -1.162132e-04    0.000000e+00
-4.263865e-06    -1.161978e-04    0.000000e+00
-1.157047e-18    -1.161922e-04    0.000000e+00
4.263865e-06    -1.161978e-04    0.000000e+00
8.546206e-06    -1.162132e-04    0.000000e+00
1.286626e-05    -1.162338e-04    0.000000e+00
1.724615e-05    -1.162523e-04    0.000000e+00
2.170513e-05    -1.162704e-04    0.000000e+00
-2.173924e-05    -1.208105e-04    0.000000e+00
-1.726634e-05    -1.207758e-04    0.000000e+00
-1.288608e-05    -1.207173e-04    0.000000e+00
-8.561321e-06    -1.206645e-04    0.000000e+00
-4.272039e-06    -1.206293e-04    0.000000e+00
-1.164035e-18    -1.206170e-04    0.000000e+00
4.272039e-06    -1.206293e-04    0.000000e+00
8.561321e-06    -1.206645e-04    0.000000e+00
1.288608e-05    -1.207173e-04    0.000000e+00
1.726634e-05    -1.207758e-04    0.000000e+00
2.173924e-05    -1.208105e-04    0.000000e+00

CELL_DATA      400
TENSORS Element_Stress6.000000e-01 double
1.820598e+06 2.551812e+05        0
2.551812e+05 4.163488e+05        0
       0        0        0

1.243720e+06 1.308538e+05        0
1.308538e+05 3.566178e+05        0
       0        0        0

8.651185e+05 4.301032e+04        0
4.301032e+04 2.749959e+05        0
       0        0        0

5.100063e+05 -3.578363e+03        0
-3.578363e+03 1.690094e+05        0
       0        0        0

1.688541e+05 -2.488323e+04        0
-2.488323e+04 5.694968e+04        0
       0        0        0

-1.688184e+05 -2.487711e+04        0
-2.487711e+04 -5.695775e+04        0
       0        0        0

-5.095306e+05 -3.579112e+03        0
-3.579112e+03 -1.688447e+05        0
       0        0        0

-8.637077e+05 4.293851e+04        0
4.293851e+04 -2.744671e+05        0
       0        0        0

-1.240734e+06 1.305652e+05        0
1.305652e+05 -3.554740e+05        0
       0        0        0

-1.814375e+06 2.543707e+05        0
2.543707e+05 -4.141970e+05        0
       0        0        0

1.642070e+06 4.159748e+04        0
4.159748e+04 4.234799e+03        0
       0        0        0

1.322354e+06 1.206454e+05        0
1.206454e+05 1.286843e+05        0
       0        0        0

9.082521e+05 9.900755e+04        0
9.900755e+04 1.315191e+05        0
       0        0        0

5.364025e+05 7.580678e+04        0
7.580678e+04 9.193311e+04        0
       0        0        0

1.768172e+05 6.321707e+04        0
6.321707e+04 3.207757e+04        0
       0        0        0

-1.778550e+05 6.319873e+04        0
6.319873e+04 -3.316896e+04        0
       0        0        0

-5.369363e+05 7.574133e+04        0
7.574133e+04 -9.284490e+04        0
       0        0        0

-9.077061e+05 9.886737e+04        0
9.886737e+04 -1.320379e+05        0
       0        0        0

-1.319830e+06 1.204079e+05        0
1.204079e+05 -1.284324e+05        0
       0        0        0

-1.637466e+06 4.151082e+04        0
4.151082e+04 -3.136555e+03        0
       0        0        0

1.584953e+06 1.541639e+04        0
1.541639e+04 6.615316e+03        0
       0        0        0

1.271591e+06 6.833109e+04        0
6.833109e+04 1.757728e+04        0
       0        0        0

9.146413e+05 1.015639e+05        0
1.015639e+05 4.237686e+04        0
       0        0        0

5.430826e+05 1.074765e+05        0
1.074765e+05 3.592346e+04        0
       0        0        0

1.791459e+05 1.074054e+05        0
1.074054e+05 1.272037e+04        0
       0        0        0

-1.824790e+05 1.073775e+05        0
1.073775e+05 -1.611190e+04        0
       0        0        0

-5.458838e+05 1.073933e+05        0
1.073933e+05 -3.912503e+04        0
       0        0        0

-9.163117e+05 1.014348e+05        0
1.014348e+05 -4.515293e+04        0
       0        0        0

-1.271565e+06 6.821622e+04        0
6.821622e+04 -1.966893e+04        0
       0        0        0

-1.582978e+06 1.538448e+04        0
1.538448e+04 -7.911807e+03        0
       0        0        0

1.546129e+06 1.427370e+04        0
1.427370e+04 -3.975752e+03        0
       0        0        0

1.226683e+06 5.548208e+04        0
5.548208e+04 -1.953361e+03        0
       0        0        0

8.865538e+05 9.245024e+04        0
9.245024e+04 2.933168e+03        0
       0        0        0

5.331314e+05 1.146030e+05        0
1.146030e+05 5.877770e+03        0
       0        0        0

1.753740e+05 1.233579e+05        0
1.233579e+05 6.880625e+02        0
       0        0        0

-1.820438e+05 1.233283e+05        0
1.233283e+05 -7.415933e+03        0
       0        0        0

-5.392752e+05 1.145213e+05        0
1.145213e+05 -1.241206e+04        0
       0        0        0

-8.916350e+05 9.234262e+04        0
9.234262e+04 -9.058365e+03        0
       0        0        0

-1.230189e+06 5.539388e+04        0
5.539388e+04 -3.528931e+03        0
       0        0        0

-1.547532e+06 1.424568e+04        0
1.424568e+04 -5.504384e+02        0
       0        0        0

1.509427e+06 1.713063e+04        0
1.713063e+04 -5.567249e+03        0
       0        0        0

1.185340e+06 5.448733e+04        0
5.448733e+04 -8.577651e+03        0
       0        0        0

8.541561e+05 8.905469e+04        0
8.905469e+04 -8.329305e+03        0
       0        0        0

5.137340e+05 1.136408e+05        0
1.136408e+05 -6.745280e+03        0
       0        0        0

1.681056e+05 1.258450e+05        0
1.258450e+05 -5.639044e+03        0
       0        0        0

-1.789903e+05 1.258166e+05        0
1.258166e+05 -5.300819e+03        0
       0        0        0

-5.241237e+05 1.135646e+05        0
1.135646e+05 -4.010288e+03        0
       0        0        0

-8.635542e+05 8.895612e+04        0
8.895612e+04 -2.042812e+03        0
       0        0        0

-1.193244e+06 5.440409e+04        0
5.440409e+04 -1.179541e+03        0
       0        0        0

-1.515273e+06 1.709766e+04        0
1.709766e+04 -3.264824e+03        0
       0        0        0

1.469671e+06 1.958963e+04        0
1.958963e+04 -7.911531e+03        0
       0        0        0

1.147077e+06 5.644559e+04        0
5.644559e+04 -1.054799e+04        0
       0        0        0

8.224151e+05 8.838594e+04        0
8.838594e+04 -1.192774e+04        0
       0        0        0

4.928620e+05 1.117722e+05        0
1.117722e+05 -1.113898e+04        0
       0        0        0

1.594065e+05 1.239614e+05        0
1.239614e+05 -9.157848e+03        0
       0        0        0

-1.752704e+05 1.239347e+05        0
1.239347e+05 -6.757342e+03        0
       0        0        0

-5.082716e+05 1.117003e+05        0
1.117003e+05 -4.611022e+03        0
       0        0        0

-8.369138e+05 8.829171e+04        0
8.829171e+04 -3.479956e+03        0
       0        0        0

-1.160194e+06 5.636191e+04        0
5.636191e+04 -4.312364e+03        0
       0        0        0

-1.480879e+06 1.955284e+04        0
1.955284e+04 -6.139554e+03        0
       0        0        0

1.427069e+06 2.114429e+04        0
2.114429e+04 -1.052964e+04        0
       0        0        0

1.109854e+06 5.834958e+04        0
5.834958e+04 -1.236661e+04        0
       0        0        0

7.924051e+05 8.864128e+04        0
8.864128e+04 -1.362108e+04        0
       0        0        0

4.726277e+05 1.103428e+05        0
1.103428e+05 -1.337050e+04        0
       0        0        0

1.506199e+05 1.216735e+05        0
1.216735e+05 -1.181697e+04        0
       0        0        0

-1.721469e+05 1.216483e+05        0
1.216483e+05 -9.757740e+03        0
       0        0        0

-4.937482e+05 1.102742e+05        0
1.102742e+05 -8.067258e+03        0
       0        0        0

-8.127094e+05 8.854973e+04        0
8.854973e+04 -7.533908e+03        0
       0        0        0

-1.128918e+06 5.826553e+04        0
5.826553e+04 -8.339735e+03        0
       0        0        0

-1.444434e+06 2.110561e+04        0
2.110561e+04 -9.528609e+03        0
       0        0        0

1.382471e+06 2.200181e+04        0
2.200181e+04 -1.363722e+04        0
       0        0        0

1.072891e+06 5.961398e+04        0
5.961398e+04 -1.472183e+04        0
       0        0        0

7.635785e+05 8.901007e+04        0
8.901007e+04 -1.557414e+04        0
       0        0        0

4.533125e+05 1.094858e+05        0
1.094858e+05 -1.552412e+04        0
       0        0        0

1.419522e+05 1.200358e+05        0
1.200358e+05 -1.458784e+04        0
       0        0        0

-1.697603e+05 1.200117e+05        0
1.200117e+05 -1.326479e+04        0
       0        0        0

-4.807667e+05 1.094198e+05        0
1.094198e+05 -1.222641e+04        0
       0        0        0

-7.903212e+05 8.892090e+04        0
8.892090e+04 -1.196593e+04        0
       0        0        0

-1.098554e+06 5.953060e+04        0
5.953060e+04 -1.248635e+04        0
       0        0        0

-1.406666e+06 2.196271e+04        0
2.196271e+04 -1.309846e+04        0
       0        0        0

1.336650e+06 2.243103e+04        0
2.243103e+04 -1.712975e+04        0
       0        0        0

1.035846e+06 6.032508e+04        0
6.032508e+04 -1.770734e+04        0
       0        0        0

7.353690e+05 8.928001e+04        0
8.928001e+04 -1.819357e+04        0
       0        0        0

4.345842e+05 1.090314e+05        0
1.090314e+05 -1.820574e+04        0
       0        0        0

1.333510e+05 1.190751e+05        0
1.190751e+05 -1.770719e+04        0
       0        0        0

-1.679948e+05 1.190519e+05        0
1.190519e+05 -1.697818e+04        0
       0        0        0

-4.689286e+05 1.089678e+05        0
1.089678e+05 -1.641605e+04        0
       0        0        0

-7.691116e+05 8.919329e+04        0
8.919329e+04 -1.629667e+04        0
       0        0        0

-1.068676e+06 6.024325e+04        0
6.024325e+04 -1.657480e+04        0
       0        0        0

-1.368246e+06 2.239236e+04        0
2.239236e+04 -1.685617e+04        0
       0        0        0

1.290108e+06 2.262769e+04        0
2.262769e+04 -2.093370e+04        0
       0        0        0

9.986145e+05 6.068320e+04        0
6.068320e+04 -2.119241e+04        0
       0        0        0

7.073840e+05 8.943847e+04        0
8.943847e+04 -2.142407e+04        0
       0        0        0

4.161153e+05 1.088122e+05        0
1.088122e+05 -2.143279e+04        0
       0        0        0

1.247137e+05 1.185759e+05        0
1.185759e+05 -2.118594e+04        0
       0        0        0

-1.666835e+05 1.185536e+05        0
1.185536e+05 -2.082274e+04        0
       0        0        0

-4.578408e+05 1.087507e+05        0
1.087507e+05 -2.055219e+04        0
       0        0        0

-7.486181e+05 8.935433e+04        0
8.935433e+04 -2.051028e+04        0
       0        0        0

-1.039104e+06 6.060345e+04        0
6.060345e+04 -2.065826e+04        0
       0        0        0

-1.329592e+06 2.258991e+04        0
2.258991e+04 -2.079207e+04        0
       0        0        0

1.243138e+06 2.270943e+04        0
2.270943e+04 -2.498210e+04        0
       0        0        0

9.611829e+05 6.084707e+04        0
6.084707e+04 -2.504187e+04        0
       0        0        0

6.794119e+05 8.952007e+04        0
8.952007e+04 -2.510676e+04        0
       0        0        0

3.976942e+05 1.087151e+05        0
1.087151e+05 -2.508705e+04        0
       0        0        0

1.159751e+05 1.183403e+05        0
1.183403e+05 -2.496213e+04        0
       0        0        0

-1.656966e+05 1.183187e+05        0
1.183187e+05 -2.479576e+04        0
       0        0        0

-4.472257e+05 1.086557e+05        0
1.086557e+05 -2.468699e+04        0
       0        0        0

-7.285608e+05 8.943859e+04        0
8.943859e+04 -2.469694e+04        0
       0        0        0

-1.009752e+06 6.076971e+04        0
6.076971e+04 -2.480000e+04        0
       0        0        0

-1.290922e+06 2.267274e+04        0
2.267274e+04 -2.489961e+04        0
       0        0        0

1.195902e+06 2.273919e+04        0
2.273919e+04 -2.922324e+04        0
       0        0        0

9.235708e+05 6.091458e+04        0
6.091458e+04 -2.915047e+04        0
       0        0        0

6.513590e+05 8.955767e+04        0
8.955767e+04 -2.910387e+04        0
       0        0        0

3.792147e+05 1.086759e+05        0
1.086759e+05 -2.904718e+04        0
       0        0        0

1.071092e+05 1.182389e+05        0
1.182389e+05 -2.896999e+04        0
       0        0        0

-1.649443e+05 1.182180e+05        0
1.182180e+05 -2.889900e+04        0
       0        0        0

-4.369126e+05 1.086185e+05        0
1.086185e+05 -2.887696e+04        0
       0        0        0

-7.087800e+05 8.947891e+04        0
8.947891e+04 -2.892824e+04        0
       0        0        0

-9.805709e+05 6.083975e+04        0
6.083975e+04 -2.903784e+04        0
       0        0        0

-1.252330e+06 2.270369e+04        0
2.270369e+04 -2.916302e+04        0
       0        0        0

1.148491e+06 2.274763e+04        0
2.274763e+04 -3.361527e+04        0
       0        0        0

8.858087e+05 6.093851e+04        0
6.093851e+04 -3.344415e+04        0
       0        0        0

6.231974e+05 8.957284e+04        0
8.957284e+04 -3.331675e+04        0
       0        0        0

3.606384e+05 1.086618e+05        0
1.086618e+05 -3.322145e+04        0
       0        0        0

9.811734e+04 1.181997e+05        0
1.181997e+05 -3.315416e+04        0
       0        0        0

-1.643651e+05 1.181796e+05        0
1.181796e+05 -3.312513e+04        0
       0        0        0

-4.268000e+05 1.086064e+05        0
1.086064e+05 -3.315081e+04        0
       0        0        0

-6.891844e+05 8.949683e+04        0
8.949683e+04 -3.323922e+04        0
       0        0        0

-9.515284e+05 6.086627e+04        0
6.086627e+04 -3.338182e+04        0
       0        0        0

-1.213844e+06 2.271337e+04        0
2.271337e+04 -3.356049e+04        0
       0        0        0

1.100960e+06 2.274841e+04        0
2.274841e+04 -3.812278e+04        0
       0        0        0

8.479289e+05 6.094459e+04        0
6.094459e+04 -3.787019e+04        0
       0        0        0

5.949322e+05 8.957762e+04        0
8.957762e+04 -3.767803e+04        0
       0        0        0

3.419635e+05 1.086573e+05        0
1.086573e+05 -3.754494e+04        0
       0        0        0

8.901558e+04 1.181867e+05        0
1.181867e+05 -3.747027e+04        0
       0        0        0

-1.639142e+05 1.181674e+05        0
1.181674e+05 -3.745768e+04        0
       0        0        0

-4.168253e+05 1.086039e+05        0
1.086039e+05 -3.751247e+04        0
       0        0        0

-6.697180e+05 8.950436e+04        0
8.950436e+04 -3.763608e+04        0
       0        0        0

-9.225952e+05 6.087498e+04        0
6.087498e+04 -3.782343e+04        0
       0        0        0

-1.175457e+06 2.271539e+04        0
2.271539e+04 -3.806658e+04        0
       0        0        0

1.053347e+06 2.274703e+04        0
2.274703e+04 -4.271420e+04        0
       0        0        0

8.099626e+05 6.094429e+04        0
6.094429e+04 -4.238866e+04        0
       0        0        0

5.665832e+05 8.957803e+04        0
8.957803e+04 -4.214000e+04        0
       0        0        0

3.232060e+05 1.086559e+05        0
1.086559e+05 -4.197068e+04        0
       0        0        0

7.982720e+04 1.181835e+05        0
1.181835e+05 -4.188171e+04        0
       0        0        0

-1.635563e+05 1.181649e+05        0
1.181649e+05 -4.187447e+04        0
       0        0        0

-4.069457e+05 1.086046e+05        0
1.086046e+05 -4.195008e+04        0
       0        0        0

-6.503417e+05 8.950753e+04        0
8.950753e+04 -4.210767e+04        0
       0        0        0

-8.937438e+05 6.087730e+04        0
6.087730e+04 -4.234382e+04        0
       0        0        0

-1.137148e+06 2.271526e+04        0
2.271526e+04 -4.265429e+04        0
       0        0        0

1.005683e+06 2.274539e+04        0
2.274539e+04 -4.736038e+04        0
       0        0        0

7.719394e+05 6.094219e+04        0
6.094219e+04 -4.696667e+04        0
       0        0        0

5.381756e+05 8.957681e+04        0
8.957681e+04 -4.666608e+04        0
       0        0        0

3.043894e+05 1.086553e+05        0
1.086553e+05 -4.646218e+04        0
       0        0        0

7.057816e+04 1.181832e+05        0
1.181832e+05 -4.635676e+04        0
       0        0        0

-1.632605e+05 1.181653e+05        0
1.181653e+05 -4.635058e+04        0
       0        0        0

-3.971278e+05 1.086060e+05        0
1.086060e+05 -4.644347e+04        0
       0        0        0

-6.310240e+05 8.950907e+04        0
8.950907e+04 -4.663394e+04        0
       0        0        0

-8.649473e+05 6.087783e+04        0
6.087783e+04 -4.691929e+04        0
       0        0        0

-1.098893e+06 2.271487e+04        0
2.271487e+04 -4.729637e+04        0
       0        0        0

9.579955e+05 2.274400e+04        0
2.274400e+04 -5.203381e+04        0
       0        0        0

7.338873e+05 6.093989e+04        0
6.093989e+04 -5.157525e+04        0
       0        0        0

5.097360e+05 8.957508e+04        0
8.957508e+04 -5.122566e+04        0
       0        0        0

2.855393e+05 1.086546e+05        0
1.086546e+05 -5.098880e+04        0
       0        0        0

6.129495e+04 1.181835e+05        0
1.181835e+05 -5.086675e+04        0
       0        0        0

-1.629989e+05 1.181663e+05        0
1.181663e+05 -5.086025e+04        0
       0        0        0

-3.873432e+05 1.086073e+05        0
1.086073e+05 -5.096887e+04        0
       0        0        0

-6.117373e+05 8.951011e+04        0
8.951011e+04 -5.119108e+04        0
       0        0        0

-8.361791e+05 6.087815e+04        0
6.087815e+04 -5.152449e+04        0
       0        0        0

-1.060664e+06 2.271473e+04        0
2.271473e+04 -5.196605e+04        0
       0        0        0

9.103102e+05 2.274290e+04        0
2.274290e+04 -5.670829e+04        0
       0        0        0

6.958326e+05 6.093780e+04        0
6.093780e+04 -5.618768e+04        0
       0        0        0

4.812907e+05 8.957328e+04        0
8.957328e+04 -5.579141e+04        0
       0        0        0

2.666817e+05 1.086537e+05        0
1.086537e+05 -5.552312e+04        0
       0        0        0

5.200354e+04 1.181835e+05        0
1.181835e+05 -5.538500e+04        0
       0        0        0

-1.627453e+05 1.181671e+05        0
1.181671e+05 -5.537790e+04        0
       0        0        0

-3.775653e+05 1.086084e+05        0
1.086084e+05 -5.550144e+04        0
       0        0        0

-5.924555e+05 8.951107e+04        0
8.951107e+04 -5.575422e+04        0
       0        0        0

-8.074137e+05 6.087870e+04        0
6.087870e+04 -5.613390e+04        0
       0        0        0

-1.022436e+06 2.271486e+04        0
2.271486e+04 -5.663735e+04        0
       0        0        0

8.626520e+05 2.274198e+04        0
2.274198e+04 -6.135878e+04        0
       0        0        0

6.578008e+05 6.093596e+04        0
6.093596e+04 -6.077882e+04        0
       0        0        0

4.528650e+05 8.957150e+04        0
8.957150e+04 -6.033795e+04        0
       0        0        0

2.478418e+05 1.086526e+05        0
1.086526e+05 -6.003971e+04        0
       0        0        0

4.272898e+04 1.181833e+05        0
1.181833e+05 -5.988630e+04        0
       0        0        0

-1.624747e+05 1.181676e+05        0
1.181676e+05 -5.987867e+04        0
       0        0        0

-3.677693e+05 1.086093e+05        0
1.086093e+05 -6.001656e+04        0
       0        0        0

-5.731539e+05 8.951206e+04        0
8.951206e+04 -6.029866e+04        0
       0        0        0

-7.786261e+05 6.087948e+04        0
6.087948e+04 -6.072266e+04        0
       0        0        0

-9.841819e+05 2.271520e+04        0
2.271520e+04 -6.128530e+04        0
       0        0        0

8.150447e+05 2.274119e+04        0
2.274119e+04 -6.596136e+04        0
       0        0        0

6.198157e+05 6.093429e+04        0
6.093429e+04 -6.532473e+04        0
       0        0        0

4.244830e+05 8.956978e+04        0
8.956978e+04 -6.484132e+04        0
       0        0        0

2.290436e+05 1.086514e+05        0
1.086514e+05 -6.451456e+04        0
       0        0        0

3.349528e+04 1.181828e+05        0
1.181828e+05 -6.434667e+04        0
       0        0        0

-1.621631e+05 1.181678e+05        0
1.181678e+05 -6.433865e+04        0
       0        0        0

-3.579315e+05 1.086101e+05        0
1.086101e+05 -6.449035e+04        0
       0        0        0

-5.538087e+05 8.951311e+04        0
8.951311e+04 -6.480052e+04        0
       0        0        0

-7.497925e+05 6.088043e+04        0
6.088043e+04 -6.526685e+04        0
       0        0        0

-9.458791e+05 2.271565e+04        0
2.271565e+04 -6.588596e+04        0
       0        0        0

7.675109e+05 2.274046e+04        0
2.274046e+04 -7.049318e+04        0
       0        0        0

5.819002e+05 6.093273e+04        0
6.093273e+04 -6.980260e+04        0
       0        0        0

3.961677e+05 8.956811e+04        0
8.956811e+04 -6.927870e+04        0
       0        0        0

2.103102e+05 1.086501e+05        0
1.086501e+05 -6.892486e+04        0
       0        0        0

2.432535e+04 1.181822e+05        0
1.181822e+05 -6.874327e+04        0
       0        0        0

-1.617877e+05 1.181679e+05        0
1.181679e+05 -6.873499e+04        0
       0        0        0

-3.480290e+05 1.086108e+05        0
1.086108e+05 -6.889993e+04        0
       0        0        0

-5.343973e+05 8.951420e+04        0
8.951420e+04 -6.923690e+04        0
       0        0        0

-7.208901e+05 6.088150e+04        0
6.088150e+04 -6.974356e+04        0
       0        0        0

-9.075041e+05 2.271617e+04        0
2.271617e+04 -7.041649e+04        0
       0        0        0

7.200723e+05 2.273978e+04        0
2.273978e+04 -7.493249e+04        0
       0        0        0

5.440762e+05 6.093125e+04        0
6.093125e+04 -7.419071e+04        0
       0        0        0

3.679410e+05 8.956648e+04        0
8.956648e+04 -7.362841e+04        0
       0        0        0

1.916633e+05 1.086488e+05        0
1.086488e+05 -7.324889e+04        0
       0        0        0

1.524098e+04 1.181815e+05        0
1.181815e+05 -7.305436e+04        0
       0        0        0

-1.613270e+05 1.181679e+05        0
1.181679e+05 -7.304590e+04        0
       0        0        0

-3.380404e+05 1.086115e+05        0
1.086115e+05 -7.322349e+04        0
       0        0        0

-5.148979e+05 8.951533e+04        0
8.951533e+04 -7.358597e+04        0
       0        0        0

-6.918973e+05 6.088265e+04        0
6.088265e+04 -7.413101e+04        0
       0        0        0

-8.690350e+05 2.271673e+04        0
2.271673e+04 -7.485511e+04        0
       0        0        0

6.727496e+05 2.273915e+04        0
2.273915e+04 -7.925863e+04        0
       0        0        0

5.063643e+05 6.092987e+04        0
6.092987e+04 -7.846843e+04        0
       0        0        0

3.398235e+05 8.956489e+04        0
8.956489e+04 -7.786983e+04        0
       0        0        0

1.731238e+05 1.086474e+05        0
1.086474e+05 -7.746605e+04        0
       0        0        0

6.262879e+03 1.181806e+05        0
1.181806e+05 -7.725929e+04        0
       0        0        0

-1.607601e+05 1.181679e+05        0
1.181679e+05 -7.725069e+04        0
       0        0        0

-3.279448e+05 1.086121e+05        0
1.086121e+05 -7.744030e+04        0
       0        0        0

-4.952900e+05 8.951651e+04        0
8.951651e+04 -7.782701e+04        0
       0        0        0

-6.627933e+05 6.088389e+04        0
6.088389e+04 -7.840849e+04        0
       0        0        0

-8.304513e+05 2.271735e+04        0
2.271735e+04 -7.918115e+04        0
       0        0        0

6.255623e+05 2.273859e+04        0
2.273859e+04 -8.345202e+04        0
       0        0        0

4.687842e+05 6.092860e+04        0
6.092860e+04 -8.261621e+04        0
       0        0        0

3.118350e+05 8.956335e+04        0
8.956335e+04 -8.198342e+04        0
       0        0        0

1.547113e+05 1.086460e+05        0
1.086460e+05 -8.155678e+04        0
       0        0        0

-2.589332e+03 1.181797e+05        0
1.181797e+05 -8.133849e+04        0
       0        0        0

-1.600676e+05 1.181676e+05        0
1.181676e+05 -8.132976e+04        0
       0        0        0

-3.177230e+05 1.086127e+05        0
1.086127e+05 -8.153073e+04        0
       0        0        0

-4.755540e+05 8.951773e+04        0
8.951773e+04 -8.194037e+04        0
       0        0        0

-6.335585e+05 6.088526e+04        0
6.088526e+04 -8.255636e+04        0
       0        0        0

-7.917331e+05 2.271804e+04        0
2.271804e+04 -8.337502e+04        0
       0        0        0

5.785286e+05 2.273817e+04        0
2.273817e+04 -8.749418e+04        0
       0        0        0

4.313542e+05 6.092752e+04        0
6.092752e+04 -8.661559e+04        0
       0        0        0

2.839942e+05 8.956185e+04        0
8.956185e+04 -8.595072e+04        0
       0        0        0

1.364444e+05 1.086444e+05        0
1.086444e+05 -8.550260e+04        0
       0        0        0

-1.129712e+04 1.181785e+05        0
1.181785e+05 -8.527347e+04        0
       0        0        0

-1.592310e+05 1.181672e+05        0
1.181672e+05 -8.526462e+04        0
       0        0        0

-3.073564e+05 1.086132e+05        0
1.086132e+05 -8.547630e+04        0
       0        0        0

-4.556717e+05 8.951900e+04        0
8.951900e+04 -8.590754e+04        0
       0        0        0

-6.041745e+05 6.088680e+04        0
6.088680e+04 -8.655609e+04        0
       0        0        0

-7.528619e+05 2.271886e+04        0
2.271886e+04 -8.741819e+04        0
       0        0        0

5.316658e+05 2.273795e+04        0
2.273795e+04 -9.136769e+04        0
       0        0        0

3.940921e+05 6.092663e+04        0
6.092663e+04 -9.044910e+04        0
       0        0        0

2.563184e+05 8.956035e+04        0
8.956035e+04 -8.975416e+04        0
       0        0        0

1.183407e+05 1.086427e+05        0
1.086427e+05 -8.928591e+04        0
       0        0        0

-1.984304e+04 1.181771e+05        0
1.181771e+05 -8.904673e+04        0
       0        0        0

-1.582329e+05 1.181665e+05        0
1.181665e+05 -8.903797e+04        0
       0        0        0

-2.968278e+05 1.086135e+05        0
1.086135e+05 -8.925978e+04        0
       0        0        0

-4.356257e+05 8.952026e+04        0
8.952026e+04 -8.971126e+04        0
       0        0        0

-5.746240e+05 6.088854e+04        0
6.088854e+04 -9.039032e+04        0
       0        0        0

-7.138200e+05 2.271989e+04        0
2.271989e+04 -9.129325e+04        0
       0        0        0

4.849900e+05 2.273796e+04        0
2.273796e+04 -9.505616e+04        0
       0        0        0

3.570143e+05 6.092577e+04        0
6.092577e+04 -9.410011e+04        0
       0        0        0

2.288244e+05 8.955862e+04        0
8.955862e+04 -9.337680e+04        0
       0        0        0

1.004164e+05 1.086409e+05        0
1.086409e+05 -9.288973e+04        0
       0        0        0

-2.821084e+04 1.181759e+05        0
1.181759e+05 -9.264170e+04        0
       0        0        0

-1.570570e+05 1.181660e+05        0
1.181660e+05 -9.263378e+04        0
       0        0        0

-2.861209e+05 1.086137e+05        0
1.086137e+05 -9.286554e+04        0
       0        0        0

-4.153999e+05 8.952130e+04        0
8.952130e+04 -9.333582e+04        0
       0        0        0

-5.448908e+05 6.089031e+04        0
6.089031e+04 -9.404299e+04        0
       0        0        0

-6.745908e+05 2.272114e+04        0
2.272114e+04 -9.498387e+04        0
       0        0        0

4.385165e+05 2.273798e+04        0
2.273798e+04 -9.854412e+04        0
       0        0        0

3.201365e+05 6.092413e+04        0
6.092413e+04 -9.755241e+04        0
       0        0        0

2.015270e+05 8.955604e+04        0
8.955604e+04 -9.680154e+04        0
       0        0        0

8.268605e+04 1.086393e+05        0
1.086393e+05 -9.629692e+04        0
       0        0        0

-3.638570e+04 1.181760e+05        0
1.181760e+05 -9.604233e+04        0
       0        0        0

-1.556878e+05 1.181669e+05        0
1.181669e+05 -9.603768e+04        0
       0        0        0

-2.752197e+05 1.086142e+05        0
1.086142e+05 -9.628030e+04        0
       0        0        0

-3.949789e+05 8.952148e+04        0
8.952148e+04 -9.676788e+04        0
       0        0        0

-5.149601e+05 6.089129e+04        0
6.089129e+04 -9.749979e+04        0
       0        0        0

-6.351590e+05 2.272241e+04        0
2.272241e+04 -9.847493e+04        0
       0        0        0

3.922608e+05 2.273705e+04        0
2.273705e+04 -1.018168e+05        0
       0        0        0

2.834737e+05 6.091918e+04        0
6.091918e+04 -1.007892e+05        0
       0        0        0

1.744389e+05 8.955103e+04        0
8.955103e+04 -1.000095e+05        0
       0        0        0

6.516112e+04 1.086394e+05        0
1.086394e+05 -9.948864e+04        0
       0        0        0

-4.435479e+04 1.181814e+05        0
1.181814e+05 -9.923256e+04        0
       0        0        0

-1.541098e+05 1.181730e+05        0
1.181730e+05 -9.923756e+04        0
       0        0        0

-2.641076e+05 1.086162e+05        0
1.086162e+05 -9.949471e+04        0
       0        0        0

-3.743470e+05 8.951924e+04        0
8.951924e+04 -9.999807e+04        0
       0        0        0

-4.848186e+05 6.088897e+04        0
6.088897e+04 -1.007491e+05        0
       0        0        0

-5.955116e+05 2.272272e+04        0
2.272272e+04 -1.017526e+05        0
       0        0        0

3.462408e+05 2.273213e+04        0
2.273213e+04 -1.048596e+05        0
       0        0        0

2.470402e+05 6.090435e+04        0
6.090435e+04 -1.037913e+05        0
       0        0        0

1.475679e+05 8.953998e+04        0
8.953998e+04 -1.029768e+05        0
       0        0        0

4.784706e+04 1.086446e+05        0
1.086446e+05 -1.024414e+05        0
       0        0        0

-5.210859e+04 1.182015e+05        0
1.182015e+05 -1.021950e+05        0
       0        0        0

-1.523066e+05 1.181938e+05        0
1.181938e+05 -1.022248e+05        0
       0        0        0

-2.527641e+05 1.086235e+05        0
1.086235e+05 -1.025064e+05        0
       0        0        0

-3.534861e+05 8.951095e+04        0
8.951095e+04 -1.030243e+05        0
       0        0        0

-4.544544e+05 6.087677e+04        0
6.087677e+04 -1.037842e+05        0
       0        0        0

-5.556397e+05 2.271905e+04        0
2.271905e+04 -1.048050e+05        0
       0        0        0

3.004822e+05 2.271539e+04        0
2.271539e+04 -1.076574e+05        0
       0        0        0

2.108493e+05 6.086437e+04        0
6.086437e+04 -1.065333e+05        0
       0        0        0

1.209111e+05 8.951546e+04        0
8.951546e+04 -1.056691e+05        0
       0        0        0

3.073692e+04 1.086641e+05        0
1.086641e+05 -1.051219e+05        0
       0        0        0

-5.964355e+04 1.182578e+05        0
1.182578e+05 -1.049091e+05        0
       0        0        0

-1.502580e+05 1.182508e+05        0
1.182508e+05 -1.049962e+05        0
       0        0        0

-2.411586e+05 1.086450e+05        0
1.086450e+05 -1.053249e+05        0
       0        0        0

-3.323700e+05 8.948920e+04        0
8.948920e+04 -1.058577e+05        0
       0        0        0

-4.238570e+05 6.083943e+04        0
6.083943e+04 -1.066065e+05        0
       0        0        0

-5.155448e+05 2.270357e+04        0
2.270357e+04 -1.076228e+05        0
       0        0        0

2.550302e+05 2.266861e+04        0
2.266861e+04 -1.101928e+05        0
       0        0        0

1.749112e+05 6.076689e+04        0
6.076689e+04 -1.089786e+05        0
       0        0        0

9.444394e+04 8.946363e+04        0
8.946363e+04 -1.080332e+05        0
       0        0        0

1.379929e+04 1.087177e+05        0
1.087177e+05 -1.074804e+05        0
       0        0        0

-6.696699e+04 1.183950e+05        0
1.183950e+05 -1.073481e+05        0
       0        0        0

-1.479345e+05 1.183887e+05        0
1.183887e+05 -1.075565e+05        0
       0        0        0

-2.292386e+05 1.087005e+05        0
1.087005e+05 -1.079789e+05        0
       0        0        0

-3.109536e+05 8.944014e+04        0
8.944014e+04 -1.085307e+05        0
       0        0        0

-3.930164e+05 6.074460e+04        0
6.074460e+04 -1.092323e+05        0
       0        0        0

-4.752498e+05 2.265805e+04        0
2.265805e+04 -1.102010e+05        0
       0        0        0

2.099707e+05 2.255312e+04        0
2.255312e+04 -1.124452e+05        0
       0        0        0

1.392276e+05 6.054966e+04        0
6.054966e+04 -1.110720e+05        0
       0        0        0

6.809783e+04 8.936201e+04        0
8.936201e+04 -1.099896e+05        0
       0        0        0

-3.042201e+03 1.088455e+05        0
1.088455e+05 -1.094456e+05        0
       0        0        0

-7.410476e+04 1.186961e+05        0
1.186961e+05 -1.094775e+05        0
       0        0        0

-1.452897e+05 1.186906e+05        0
1.186906e+05 -1.099193e+05        0
       0        0        0

-2.169085e+05 1.088304e+05        0
1.088304e+05 -1.105207e+05        0
       0        0        0

-2.891518e+05 8.934130e+04        0
8.934130e+04 -1.111065e+05        0
       0        0        0

-3.619182e+05 6.053005e+04        0
6.053005e+04 -1.117009e+05        0
       0        0        0

-4.348222e+05 2.254384e+04        0
2.254384e+04 -1.125421e+05        0
       0        0        0

1.654676e+05 2.229389e+04        0
2.229389e+04 -1.143894e+05        0
       0        0        0

1.037757e+05 6.010633e+04        0
6.010633e+04 -1.127378e+05        0
       0        0        0

4.172434e+04 8.918285e+04        0
8.918285e+04 -1.114369e+05        0
       0        0        0

-1.993674e+04 1.091211e+05        0
1.091211e+05 -1.109352e+05        0
       0        0        0

-8.111029e+04 1.192969e+05        0
1.192969e+05 -1.112604e+05        0
       0        0        0

-1.422485e+05 1.192922e+05        0
1.192922e+05 -1.121001e+05        0
       0        0        0

-2.040019e+05 1.091080e+05        0
1.091080e+05 -1.130150e+05        0
       0        0        0

-2.668047e+05 8.916493e+04        0
8.916493e+04 -1.136749e+05        0
       0        0        0

-3.305323e+05 6.008944e+04        0
6.008944e+04 -1.140806e+05        0
       0        0        0

-3.944153e+05 2.228592e+04        0
2.228592e+04 -1.146607e+05        0
       0        0        0

1.218143e+05 2.175987e+04        0
2.175987e+04 -1.160001e+05        0
       0        0        0

6.846991e+04 5.928775e+04        0
5.928775e+04 -1.139016e+05        0
       0        0        0

1.504776e+04 8.891653e+04        0
8.891653e+04 -1.123083e+05        0
       0        0        0

-3.712658e+04 1.096611e+05        0
1.096611e+05 -1.119237e+05        0
       0        0        0

-8.806576e+04 1.203706e+05        0
1.203706e+05 -1.126850e+05        0
       0        0        0

-1.387020e+05 1.203666e+05        0
1.203666e+05 -1.140839e+05        0
       0        0        0

-1.902583e+05 1.096500e+05        0
1.096500e+05 -1.154691e+05        0
       0        0        0

-2.436324e+05 8.890144e+04        0
8.890144e+04 -1.162985e+05        0
       0        0        0

-2.987810e+05 5.927361e+04        0
5.927361e+04 -1.164537e+05        0
       0        0        0

-3.543298e+05 2.175326e+04        0
2.175326e+04 -1.165894e+05        0
       0        0        0

7.947515e+04 2.075678e+04        0
2.075678e+04 -1.172821e+05        0
       0        0        0

3.307865e+04 5.797447e+04        0
5.797447e+04 -1.145899e+05        0
       0        0        0

-1.236393e+04 8.865059e+04        0
8.865059e+04 -1.127886e+05        0
       0        0        0

-5.490063e+04 1.106013e+05        0
1.106013e+05 -1.126577e+05        0
       0        0        0

-9.504947e+04 1.220074e+05        0
1.220074e+05 -1.138552e+05        0
       0        0        0

-1.345317e+05 1.220041e+05        0
1.220041e+05 -1.157267e+05        0
       0        0        0

-1.753639e+05 1.105923e+05        0
1.105923e+05 -1.176118e+05        0
       0        0        0

-2.192067e+05 8.863840e+04        0
8.863840e+04 -1.187962e+05        0
       0        0        0

-2.664683e+05 5.796312e+04        0
5.796312e+04 -1.188293e+05        0
       0        0        0

-3.150782e+05 2.075156e+04        0
2.075156e+04 -1.183719e+05        0
       0        0        0

3.901604e+04 1.910250e+04        0
1.910250e+04 -1.183311e+05        0
       0        0        0

-2.945801e+03 5.638064e+04        0
5.638064e+04 -1.153385e+05        0
       0        0        0

-4.097162e+04 8.874194e+04        0
8.874194e+04 -1.139163e+05        0
       0        0        0

-7.334316e+04 1.119428e+05        0
1.119428e+05 -1.141993e+05        0
       0        0        0

-1.020044e+05 1.238170e+05        0
1.238170e+05 -1.151847e+05        0
       0        0        0

-1.297257e+05 1.238146e+05        0
1.238146e+05 -1.165458e+05        0
       0        0        0

-1.591896e+05 1.119363e+05        0
1.119363e+05 -1.183359e+05        0
       0        0        0

-1.930733e+05 8.873286e+04        0
8.873286e+04 -1.201362e+05        0
       0        0        0

-2.331278e+05 5.637209e+04        0
5.637209e+04 -1.207525e+05        0
       0        0        0

-2.773664e+05 1.909865e+04        0
1.909865e+04 -1.200521e+05        0
       0        0        0

5.231885e+02 1.710271e+04        0
1.710271e+04 -1.199683e+05        0
       0        0        0

-4.055900e+04 5.592265e+04        0
5.592265e+04 -1.183223e+05        0
       0        0        0

-7.064224e+04 9.001307e+04        0
9.001307e+04 -1.192608e+05        0
       0        0        0

-9.160225e+04 1.128998e+05        0
1.128998e+05 -1.193451e+05        0
       0        0        0

-1.084793e+05 1.240404e+05        0
1.240404e+05 -1.176209e+05        0
       0        0        0

-1.246149e+05 1.240392e+05        0
1.240392e+05 -1.154734e+05        0
       0        0        0

-1.424954e+05 1.128964e+05        0
1.128964e+05 -1.147534e+05        0
       0        0        0

-1.653497e+05 9.000769e+04        0
9.000769e+04 -1.167341e+05        0
       0        0        0

-1.979384e+05 5.591692e+04        0
5.591692e+04 -1.201833e+05        0
       0        0        0

-2.416132e+05 1.710010e+04        0
1.710010e+04 -1.211410e+05        0
       0        0        0

-3.838756e+04 1.780089e+04        0
1.780089e+04 -1.241547e+05        0
       0        0        0

-8.056431e+04 6.133461e+04        0
6.133461e+04 -1.329179e+05        0
       0        0        0

-9.823377e+04 9.241439e+04        0
9.241439e+04 -1.376493e+05        0
       0        0        0

-1.069299e+05 1.101518e+05        0
1.101518e+05 -1.330247e+05        0
       0        0        0

-1.134903e+05 1.182691e+05        0
1.182691e+05 -1.226657e+05        0
       0        0        0

-1.199857e+05 1.182695e+05        0
1.182695e+05 -1.108102e+05        0
       0        0        0

-1.278480e+05 1.101525e+05        0
1.101525e+05 -1.017531e+05        0
       0        0        0

-1.390687e+05 9.241419e+04        0
9.241419e+04 -9.965328e+04        0
       0        0        0

-1.602170e+05 6.133242e+04        0
6.133242e+04 -1.078653e+05        0
       0        0        0

-2.060740e+05 1.779909e+04        0
1.779909e+04 -1.203165e+05        0
       0        0        0

-9.041227e+04 4.054631e+04        0
4.054631e+04 -1.562833e+05        0
       0        0        0

-1.138421e+05 7.593486e+04        0
7.593486e+04 -1.858539e+05        0
       0        0        0

-1.150718e+05 8.920336e+04        0
8.920336e+04 -1.817339e+05        0
       0        0        0

-1.153875e+05 9.571255e+04        0
9.571255e+04 -1.608397e+05        0
       0        0        0

-1.157489e+05 9.856239e+04        0
9.856239e+04 -1.317915e+05        0
       0        0        0

-1.168366e+05 9.856429e+04        0
9.856429e+04 -1.007937e+05        0
       0        0        0

-1.188659e+05 9.571771e+04        0
9.571771e+04 -7.341100e+04        0
       0        0        0

-1.225609e+05 8.921016e+04        0
8.921016e+04 -5.589328e+04        0
       0        0        0

-1.289065e+05 7.594047e+04        0
7.594047e+04 -5.688864e+04        0
       0        0        0

-1.586523e+05 4.054609e+04        0
4.054609e+04 -9.278138e+04        0
       0        0        0

POINT_DATA     451
VECTORS DISPLACEMENT_6.200000e-01 double
0.000000e+00    0.000000e+00    0.000000e+00
0.000000e+00    0.000000e+00    0.000000e+00
0.000000e+00    0.000000e+00    0.000000e+00
0.000000e+00    0.000000e+00    0.000000e+00
0.000000e+00    0.000000e+00    0.000000e+00
0.000000e+00    0.000000e+00    0.000000e+00
0.000000e+00    0.000000e+00    0.000000e+00
0.000000e+00    0.000000e+00    0.000000e+00
0.000000e+00    0.000000e+00    0.000000e+00
0.000000e+00    0.000000e+00    0.000000e+00
0.000000e+00    0.000000e+00    0.000000e+00
-1.141595e-06    -8.299605e-07    0.000000e+00
-7.233448e-07    -4.163094e-07    0.000000e+00
-5.161144e-07    -2.157261e-07    0.000000e+00
-3.332233e-07    -1.068318e-07    0.000000e+00
-1.642863e-07    -5.047426e-08    0.000000e+00
-3.239435e-20    -3.295145e-08    0.000000e+00
1.642863e-07    -5.047426e-08    0.000000e+00
3.332233e-07    -1.068318e-07    0.000000e+00
5.161144e-07    -2.157261e-07    0.000000e+00
7.233448e-07    -4.163094e-07    0.000000e+00
1.141595e-06    -8.299605e-07    0.000000e+00
-2.153941e-06    -1.380309e-06    0.000000e+00
-1.574436e-06    -9.987668e-07    0.000000e+00
-1.105093e-06    -7.015532e-07    0.000000e+00
-7.128292e-07    -5.177059e-07    0.000000e+00
-3.501023e-07    -4.175298e-07    0.000000e+00
-6.845333e-20    -3.857102e-07    0.000000e+00
3.501023e-07    -4.175298e-07    0.000000e+00
7.128292e-07    -5.177059e-07    0.000000e+00
1.105093e-06    -7.015532e-07    0.000000e+00
1.574436e-06    -9.987668e-07    0.000000e+00
2.153941e-06    -1.380309e-06    0.000000e+00
-3.132427e-06    -2.064634e-06    0.000000e+00
-2.394168e-06    -1.682257e-06    0.000000e+00
-1.722702e-06    -1.380761e-06    0.000000e+00
-1.115240e-06    -1.168096e-06    0.000000e+00
-5.487489e-07    -1.045521e-06    0.000000e+00
-1.077287e-19    -1.005593e-06    0.000000e+00
5.487489e-07    -1.045521e-06    0.000000e+00
1.115240e-06    -1.168096e-06    0.000000e+00
1.722702e-06    -1.380761e-06    0.000000e+00
2.394168e-06    -1.682257e-06    0.000000e+00
3.132427e-06    -2.064634e-06    0.000000e+00
-4.100076e-06    -2.909172e-06    0.000000e+00
-3.186876e-06    -2.535522e-06    0.000000e+00
-2.326958e-06    -2.239053e-06    0.000000e+00
-1.519408e-06    -2.025105e-06    0.000000e+00
-7.500557e-07    -1.896684e-06    0.000000e+00
-1.485616e-19    -1.854101e-06    0.000000e+00
7.500557e-07    -1.896684e-06    0.000000e+00
1.519408e-06    -2.025105e-06    0.000000e+00
2.326958e-06    -2.239053e-06    0.000000e+00
3.186876e-06    -2.535522e-06    0.000000e+00
4.100076e-06    -2.909172e-06    0.000000e+00
-5.051341e-06    -3.936654e-06    0.000000e+00
-3.956477e-06    -3.571725e-06    0.000000e+00
-2.911986e-06    -3.284208e-06    0.000000e+00
-1.912865e-06    -3.075889e-06    0.000000e+00
-9.475500e-07    -2.949778e-06    0.000000e+00
-1.902251e-19    -2.907564e-06    0.000000e+00
9.475500e-07    -2.949778e-06    0.000000e+00
1.912865e-06    -3.075889e-06    0.000000e+00
2.911986e-06    -3.284208e-06    0.000000e+00
3.956477e-06    -3.571725e-06    0.000000e+00
5.051341e-06    -3.936654e-06    0.000000e+00
-5.981873e-06    -5.149742e-06    0.000000e+00
-4.704513e-06    -4.794468e-06    0.000000e+00
-3.477740e-06    -4.516043e-06    0.000000e+00
-2.292922e-06    -4.315096e-06    0.000000e+00
-1.138484e-06    -4.193469e-06    0.000000e+00
-2.326429e-19    -4.152740e-06    0.000000e+00
1.138484e-06    -4.193469e-06    0.000000e+00
2.292922e-06    -4.315096e-06    0.000000e+00
3.477740e-06    -4.516043e-06    0.000000e+00
4.704513e-06    -4.794468e-06    0.000000e+00
5.981873e-06    -5.149742e-06    0.000000e+00
-6.888558e-06    -6.546376e-06    0.000000e+00
-5.431254e-06    -6.201154e-06    0.000000e+00
-4.025294e-06    -5.931590e-06    0.000000e+00
-2.659769e-06    -5.737829e-06    0.000000e+00
-1.322562e-06    -5.620886e-06    0.000000e+00
-2.719505e-19    -5.581769e-06    0.000000e+00
1.322562e-06    -5.620886e-06    0.000000e+00
2.659769e-06    -5.737829e-06    0.000000e+00
4.025294e-06    -5.931590e-06    0.000000e+00
5.431254e-06    -6.201154e-06    0.000000e+00
6.888558e-06    -6.546376e-06    0.000000e+00
-7.769676e-06    -8.122139e-06    0.000000e+00
-6.136609e-06    -7.787205e-06    0.000000e+00
-4.555509e-06    -7.526210e-06    0.000000e+00
-3.014226e-06    -7.339157e-06    0.000000e+00
-1.500173e-06    -7.226543e-06    0.000000e+00
-3.103582e-19    -7.188927e-06    0.000000e+00
1.500173e-06    -7.226543e-06    0.000000e+00
3.014226e-06    -7.339157e-06    0.000000e+00
4.555509e-06    -7.526210e-06    0.000000e+00
6.136609e-06    -7.787205e-06    0.000000e+00
7.769676e-06    -8.122139e-06    0.000000e+00
-8.624338e-06    -9.871838e-06    0.000000e+00
-6.820449e-06    -9.547301e-06    0.000000e+00
-5.068913e-06    -9.294676e-06    0.000000e+00
-3.356973e-06    -9.113935e-06    0.000000e+00
-1.671744e-06    -9.005300e-06    0.000000e+00
-3.505393e-19    -8.969049e-06    0.000000e+00
1.671744e-06    -9.005300e-06    0.000000e+00
3.356973e-06    -9.113935e-06    0.000000e+00
5.068913e-06    -9.294676e-06    0.000000e+00
6.820449e-06    -9.547301e-06    0.000000e+00
8.624338e-06    -9.871838e-06    0.000000e+00
-9.452128e-06    -1.179002e-05    0.000000e+00
-7.482678e-06    -1.147593e-05    0.000000e+00
-5.565791e-06    -1.123156e-05    0.000000e+00
-3.688437e-06    -1.105688e-05    0.000000e+00
-1.837569e-06    -1.095199e-05    0.000000e+00
-3.904822e-19    -1.091701e-05    0.000000e+00
1.837569e-06    -1.095199e-05    0.000000e+00
3.688437e-06    -1.105688e-05    0.000000e+00
5.565791e-06    -1.123156e-05    0.000000e+00
7.482678e-06    -1.147593e-05    0.000000e+00
9.452128e-06    -1.179002e-05    0.000000e+00
-1.025287e-05    -1.387120e-05    0.000000e+00
-8.123242e-06    -1.356758e-05    0.000000e+00
-6.046283e-06    -1.333140e-05    0.000000e+00
-4.008850e-06    -1.316265e-05    0.000000e+00
-1.997814e-06    -1.306137e-05    0.000000e+00
-4.236753e-19    -1.302760e-05    0.000000e+00
1.997814e-06    -1.306137e-05    0.000000e+00
4.008850e-06    -1.316265e-05    0.000000e+00
6.046283e-06    -1.333140e-05    0.000000e+00
8.123242e-06    -1.356758e-05    0.000000e+00
1.025287e-05    -1.387120e-05    0.000000e+00
-1.102648e-05    -1.610989e-05    0.000000e+00
-8.742113e-06    -1.581673e-05    0.000000e+00
-6.510452e-06    -1.558871e-05    0.000000e+00
-4.318325e-06    -1.542583e-05    0.000000e+00
-2.152566e-06    -1.532809e-05    0.000000e+00
-4.601506e-19    -1.529550e-05    0.000000e+00
2.152566e-06    -1.532809e-05    0.000000e+00
4.318325e-06    -1.542583e-05    0.000000e+00
6.510452e-06    -1.558871e-05    0.000000e+00
8.742113e-06    -1.581673e-05    0.000000e+00
1.102648e-05    -1.610989e-05    0.000000e+00
-1.177296e-05    -1.850062e-05    0.000000e+00
-9.339276e-06    -1.821793e-05    0.000000e+00
-6.958324e-06    -1.799806e-05    0.000000e+00
-4.616914e-06    -1.784101e-05    0.000000e+00
-2.301865e-06    -1.774678e-05    0.000000e+00
-5.027141e-19    -1.771537e-05    0.000000e+00
2.301865e-06    -1.774678e-05    0.000000e+00
4.616914e-06    -1.784101e-05    0.000000e+00
6.958324e-06    -1.799806e-05    0.000000e+00
9.339276e-06    -1.821793e-05    0.000000e+00
1.177296e-05    -1.850062e-05    0.000000e+00
-1.249228e-05    -2.103794e-05    0.000000e+00
-9.914727e-06    -2.076572e-05    0.000000e+00
-7.389909e-06    -2.055400e-05    0.000000e+00
-4.904637e-06    -2.040277e-05    0.000000e+00
-2.445728e-06    -2.031204e-05    0.000000e+00
-5.279133e-19    -2.028179e-05    0.000000e+00
2.445728e-06    -2.031204e-05    0.000000e+00
4.904637e-06    -2.040277e-05    0.000000e+00
7.389909e-06    -2.055400e-05    0.000000e+00
9.914727e-06    -2.076572e-05    0.000000e+00
1.249228e-05    -2.103794e-05    0.000000e+00
-1.318446e-05    -2.371642e-05    0.000000e+00
-1.046846e-05    -2.345467e-05    0.000000e+00
-7.805208e-06    -2.325109e-05    0.000000e+00
-5.181501e-06    -2.310568e-05    0.000000e+00
-2.584160e-06    -2.301844e-05    0.000000e+00
-5.521596e-19    -2.298935e-05    0.000000e+00
2.584160e-06    -2.301844e-05    0.000000e+00
5.181501e-06    -2.310568e-05    0.000000e+00
7.805208e-06    -2.325109e-05    0.000000e+00
1.046846e-05    -2.345467e-05    0.000000e+00
1.318446e-05    -2.371642e-05    0.000000e+00
-1.384949e-05    -2.653062e-05    0.000000e+00
-1.100049e-05    -2.627934e-05    0.000000e+00
-8.204222e-06    -2.608391e-05    0.000000e+00
-5.447509e-06    -2.594431e-05    0.000000e+00
-2.717163e-06    -2.586055e-05    0.000000e+00
-5.679356e-19    -2.583264e-05    0.000000e+00
2.717163e-06    -2.586055e-05    0.000000e+00
5.447509e-06    -2.594431e-05    0.000000e+00
8.204222e-06    -2.608391e-05    0.000000e+00
1.100049e-05    -2.627934e-05    0.000000e+00
1.384949e-05    -2.653062e-05    0.000000e+00
-1.448737e-05    -2.947511e-05    0.000000e+00
-1.151079e-05    -2.923430e-05    0.000000e+00
-8.586950e-06    -2.904701e-05    0.000000e+00
-5.702661e-06    -2.891323e-05    0.000000e+00
-2.844739e-06    -2.883296e-05    0.000000e+00
-5.665592e-19    -2.880621e-05    0.000000e+00
2.844739e-06    -2.883296e-05    0.000000e+00
5.702661e-06    -2.891323e-05    0.000000e+00
8.586950e-06    -2.904701e-05    0.000000e+00
1.151079e-05    -2.923430e-05    0.000000e+00
1.448737e-05    -2.947511e-05    0.000000e+00
-1.509811e-05    -3.254446e-05    0.000000e+00
-1.199938e-05    -3.231413e-05    0.000000e+00
-8.953392e-06    -3.213498e-05    0.000000e+00
-5.946955e-06    -3.200701e-05    0.000000e+00
-2.966886e-06    -3.193024e-05    0.000000e+00
-5.797941e-19    -3.190464e-05    0.000000e+00
2.966886e-06    -3.193024e-05    0.000000e+00
5.946955e-06    -3.200701e-05    0.000000e+00
8.953392e-06    -3.213498e-05    0.000000e+00
1.199938e-05    -3.231413e-05    0.000000e+00
1.509811e-05    -3.254446e-05    0.000000e+00
-1.568170e-05    -3.573325e-05    0.000000e+00
-1.246626e-05    -3.551338e-05    0.000000e+00
-9.303549e-06    -3.534238e-05    0.000000e+00
-6.180392e-06    -3.522023e-05    0.000000e+00
-3.083604e-06    -3.514694e-05    0.000000e+00
-6.047815e-19    -3.512251e-05    0.000000e+00
3.083604e-06    -3.514694e-05    0.000000e+00
6.180392e-06    -3.522023e-05    0.000000e+00
9.303549e-06    -3.534238e-05    0.000000e+00
1.246626e-05    -3.551338e-05    0.000000e+00
1.568170e-05    -3.573325e-05    0.000000e+00
-1.623815e-05    -3.903604e-05    0.000000e+00
-1.291142e-05    -3.882665e-05    0.000000e+00
-9.637419e-06    -3.866378e-05    0.000000e+00
-6.402972e-06    -3.854745e-05    0.000000e+00
-3.194894e-06    -3.847765e-05    0.000000e+00
-6.496743e-19    -3.845439e-05    0.000000e+00
3.194894e-06    -3.847765e-05    0.000000e+00
6.402972e-06    -3.854745e-05    0.000000e+00
9.637419e-06    -3.866378e-05    0.000000e+00
1.291142e-05    -3.882665e-05    0.000000e+00
1.623815e-05    -3.903604e-05    0.000000e+00
-1.676746e-05    -4.244741e-05    0.000000e+00
-1.333486e-05    -4.224848e-05    0.000000e+00
-9.955003e-06    -4.209376e-05    0.000000e+00
-6.614695e-06    -4.198325e-05    0.000000e+00
-3.300755e-06    -4.191694e-05    0.000000e+00
-7.144723e-19    -4.189484e-05    0.000000e+00
3.300755e-06    -4.191694e-05    0.000000e+00
6.614695e-06    -4.198325e-05    0.000000e+00
9.955003e-06    -4.209376e-05    0.000000e+00
1.333486e-05    -4.224848e-05    0.000000e+00
1.676746e-05    -4.244741e-05    0.000000e+00
-1.726962e-05    -4.596192e-05    0.000000e+00
-1.373659e-05    -4.577347e-05    0.000000e+00
-1.025630e-05    -4.562689e-05    0.000000e+00
-6.815560e-06    -4.552219e-05    0.000000e+00
-3.401188e-06    -4.545937e-05    0.000000e+00
-7.612709e-19    -4.543843e-05    0.000000e+00
3.401188e-06    -4.545937e-05    0.000000e+00
6.815560e-06    -4.552219e-05    0.000000e+00
1.025630e-05    -4.562689e-05    0.000000e+00
1.373659e-05    -4.577347e-05    0.000000e+00
1.726962e-05    -4.596192e-05    0.000000e+00
-1.774464e-05    -4.957415e-05    0.000000e+00
-1.411661e-05    -4.939617e-05    0.000000e+00
-1.054131e-05    -4.925773e-05    0.000000e+00
-7.005568e-06    -4.915885e-05    0.000000e+00
-3.496192e-06    -4.909952e-05    0.000000e+00
-7.898582e-19    -4.907975e-05    0.000000e+00
3.496192e-06    -4.909952e-05    0.000000e+00
7.005568e-06    -4.915885e-05    0.000000e+00
1.054131e-05    -4.925773e-05    0.000000e+00
1.411661e-05    -4.939617e-05    0.000000e+00
1.774464e-05    -4.957415e-05    0.000000e+00
-1.819252e-05    -5.327868e-05    0.000000e+00
-1.447491e-05    -5.311116e-05    0.000000e+00
-1.081004e-05    -5.298087e-05    0.000000e+00
-7.184718e-06    -5.288780e-05    0.000000e+00
-3.585767e-06    -5.283196e-05    0.000000e+00
-8.275512e-19    -5.281335e-05    0.000000e+00
3.585767e-06    -5.283196e-05    0.000000e+00
7.184718e-06    -5.288780e-05    0.000000e+00
1.081004e-05    -5.298087e-05    0.000000e+00
1.447491e-05    -5.311116e-05    0.000000e+00
1.819252e-05    -5.327868e-05    0.000000e+00
-1.861325e-05    -5.707006e-05    0.000000e+00
-1.481149e-05    -5.691301e-05    0.000000e+00
-1.106248e-05    -5.679086e-05    0.000000e+00
-7.353011e-06    -5.670361e-05    0.000000e+00
-3.669914e-06    -5.665126e-05    0.000000e+00
-8.411037e-19    -5.663381e-05    0.000000e+00
3.669914e-06    -5.665126e-05    0.000000e+00
7.353011e-06    -5.670361e-05    0.000000e+00
1.106248e-05    -5.679086e-05    0.000000e+00
1.481149e-05    -5.691301e-05    0.000000e+00
1.861325e-05    -5.707006e-05    0.000000e+00
-1.900683e-05    -6.094287e-05    0.000000e+00
-1.512636e-05    -6.079629e-05    0.000000e+00
-1.129863e-05    -6.068229e-05    0.000000e+00
-7.510448e-06    -6.060086e-05    0.000000e+00
-3.748633e-06    -6.055200e-05    0.000000e+00
-8.527504e-19    -6.053571e-05    0.000000e+00
3.748633e-06    -6.055200e-05    0.000000e+00
7.510448e-06    -6.060086e-05    0.000000e+00
1.129863e-05    -6.068229e-05    0.000000e+00
1.512636e-05    -6.079629e-05    0.000000e+00
1.900683e-05    -6.094287e-05    0.000000e+00
-1.937327e-05    -6.489169e-05    0.000000e+00
-1.541952e-05    -6.475558e-05    0.000000e+00
-1.151850e-05    -6.464972e-05    0.000000e+00
-7.657028e-06    -6.457410e-05    0.000000e+00
-3.821923e-06    -6.452873e-05    0.000000e+00
-8.616443e-19    -6.451361e-05    0.000000e+00
3.821923e-06    -6.452873e-05    0.000000e+00
7.657028e-06    -6.457410e-05    0.000000e+00
1.151850e-05    -6.464972e-05    0.000000e+00
1.541952e-05    -6.475558e-05    0.000000e+00
1.937327e-05    -6.489169e-05    0.000000e+00
-1.971256e-05    -6.891107e-05    0.000000e+00
-1.569095e-05    -6.878544e-05    0.000000e+00
-1.172208e-05    -6.868772e-05    0.000000e+00
-7.792750e-06    -6.861792e-05    0.000000e+00
-3.889784e-06    -6.857604e-05    0.000000e+00
-8.459742e-19    -6.856208e-05    0.000000e+00
3.889784e-06    -6.857604e-05    0.000000e+00
7.792750e-06    -6.861792e-05    0.000000e+00
1.172208e-05    -6.868772e-05    0.000000e+00
1.569095e-05    -6.878544e-05    0.000000e+00
1.971256e-05    -6.891107e-05    0.000000e+00
-2.002471e-05    -7.299559e-05    0.000000e+00
-1.594068e-05    -7.288043e-05    0.000000e+00
-1.190938e-05    -7.279086e-05    0.000000e+00
-7.917611e-06    -7.272688e-05    0.000000e+00
-3.952212e-06    -7.268851e-05    0.000000e+00
-8.406802e-19    -7.267572e-05    0.000000e+00
3.952212e-06    -7.268851e-05    0.000000e+00
7.917611e-06    -7.272688e-05    0.000000e+00
1.190938e-05    -7.279086e-05    0.000000e+00
1.594068e-05    -7.288043e-05    0.000000e+00
2.002471e-05    -7.299559e-05    0.000000e+00
-2.030971e-05    -7.713981e-05    0.000000e+00
-1.616869e-05    -7.703511e-05    0.000000e+00
-1.208038e-05    -7.695370e-05    0.000000e+00
-8.031599e-06    -7.689557e-05    0.000000e+00
-4.009198e-06    -7.686071e-05    0.000000e+00
-8.711734e-19    -7.684909e-05    0.000000e+00
4.009198e-06    -7.686071e-05    0.000000e+00
8.031599e-06    -7.689557e-05    0.000000e+00
1.208038e-05    -7.695370e-05    0.000000e+00
1.616869e-05    -7.703511e-05    0.000000e+00
2.030971e-05    -7.713981e-05    0.000000e+00
-2.056757e-05    -8.133827e-05    0.000000e+00
-1.637501e-05    -8.124404e-05    0.000000e+00
-1.223508e-05    -8.117079e-05    0.000000e+00
-8.134685e-06    -8.111855e-05    0.000000e+00
-4.060719e-06    -8.108725e-05    0.000000e+00
-9.109839e-19    -8.107682e-05    0.000000e+00
4.060719e-06    -8.108725e-05    0.000000e+00
8.134685e-06    -8.111855e-05    0.000000e+00
1.223508e-05    -8.117079e-05    0.000000e+00
1.637501e-05    -8.124404e-05    0.000000e+00
2.056757e-05    -8.133827e-05    0.000000e+00
-2.079833e-05    -8.558550e-05    0.000000e+00
-1.655963e-05    -8.550173e-05    0.000000e+00
-1.237344e-05    -8.543669e-05    0.000000e+00
-8.226802e-06    -8.539041e-05    0.000000e+00
-4.106724e-06    -8.536275e-05    0.000000e+00
-9.778995e-19    -8.535356e-05    0.000000e+00
4.106724e-06    -8.536275e-05    0.000000e+00
8.226802e-06    -8.539041e-05    0.000000e+00
1.237344e-05    -8.543669e-05    0.000000e+00
1.655963e-05    -8.550173e-05    0.000000e+00
2.079833e-05    -8.558550e-05    0.000000e+00
-2.100210e-05    -8.987603e-05    0.000000e+00
-1.672261e-05    -8.980269e-05    0.000000e+00
-1.249537e-05    -8.974594e-05    0.000000e+00
-8.307807e-06    -8.970578e-05    0.000000e+00
-4.147107e-06    -8.968192e-05    0.000000e+00
-1.037615e-18    -8.967401e-05    0.000000e+00
4.147107e-06    -8.968192e-05    0.000000e+00
8.307807e-06    -8.970578e-05    0.000000e+00
1.249537e-05    -8.974594e-05    0.000000e+00
1.672261e-05    -8.980269e-05    0.000000e+00
2.100210e-05    -8.987603e-05    0.000000e+00
-2.117912e-05    -9.420439e-05    0.000000e+00
-1.686399e-05    -9.414142e-05    0.000000e+00
-1.260070e-05    -9.409307e-05    0.000000e+00
-8.377428e-06    -9.405931e-05    0.000000e+00
-4.181679e-06    -9.403948e-05    0.000000e+00
-1.065144e-18    -9.403296e-05    0.000000e+00
4.181679e-06    -9.403948e-05    0.000000e+00
8.377428e-06    -9.405931e-05    0.000000e+00
1.260070e-05    -9.409307e-05    0.000000e+00
1.686399e-05    -9.414142e-05    0.000000e+00
2.117912e-05    -9.420439e-05    0.000000e+00
-2.132994e-05    -9.856523e-05    0.000000e+00
-1.698387e-05    -9.851248e-05    0.000000e+00
-1.268909e-05    -9.847276e-05    0.000000e+00
-8.435205e-06    -9.844575e-05    0.000000e+00
-4.210141e-06    -9.843026e-05    0.000000e+00
-1.118083e-18    -9.842523e-05    0.000000e+00
4.210141e-06    -9.843026e-05    0.000000e+00
8.435205e-06    -9.844575e-05    0.000000e+00
1.268909e-05    -9.847276e-05    0.000000e+00
1.698387e-05    -9.851248e-05    0.000000e+00
2.132994e-05    -9.856523e-05    0.000000e+00
-2.145562e-05    -1.029537e-04    0.000000e+00
-1.708235e-05    -1.029109e-04    0.000000e+00
-1.275997e-05    -1.028800e-04    0.000000e+00
-8.480517e-06    -1.028600e-04    0.000000e+00
-4.232143e-06    -1.028489e-04    0.000000e+00
-1.162976e-18    -1.028454e-04    0.000000e+00
4.232143e-06    -1.028489e-04    0.000000e+00
8.480517e-06    -1.028600e-04    0.000000e+00
1.275997e-05    -1.028800e-04    0.000000e+00
1.708235e-05    -1.029109e-04    0.000000e+00
2.145562e-05    -1.029537e-04    0.000000e+00
-2.155817e-05    -1.073660e-04    0.000000e+00
-1.715935e-05    -1.073327e-04    0.000000e+00
-1.281258e-05    -1.073105e-04    0.000000e+00
-8.512904e-06    -1.072970e-04    0.000000e+00
-4.247579e-06    -1.072895e-04    0.000000e+00
-1.103260e-18    -1.072870e-04    0.000000e+00
4.247579e-06    -1.072895e-04    0.000000e+00
8.512904e-06    -1.072970e-04    0.000000e+00
1.281258e-05    -1.073105e-04    0.000000e+00
1.715935e-05    -1.073327e-04    0.000000e+00
2.155817e-05    -1.073660e-04    0.000000e+00
-2.164067e-05    -1.118022e-04    0.000000e+00
-1.721429e-05    -1.117772e-04    0.000000e+00
-1.284670e-05    -1.117621e-04    0.000000e+00
-8.533270e-06    -1.117511e-04    0.000000e+00
-4.257281e-06    -1.117436e-04    0.000000e+00
-1.027451e-18    -1.117409e-04    0.000000e+00
4.257281e-06    -1.117436e-04    0.000000e+00
8.533270e-06    -1.117511e-04    0.000000e+00
1.284670e-05    -1.117621e-04    0.000000e+00
1.721429e-05    -1.117772e-04    0.000000e+00
2.164067e-05    -1.118022e-04    0.000000e+00
-2.170513e-05    -1.162704e-04    0.000000e+00
-1.724615e-05    -1.162523e-04    0.000000e+00
-1.286626e-05    -1.162338e-04    0.000000e+00
-8.546206e-06    -1.162132e-04    0.000000e+00
-4.263865e-06    -1.161978e-04    0.000000e+00
-1.025757e-18    -1.161922e-04    0.000000e+00
4.263865e-06    -1.161978e-04    0.000000e+00
8.546206e-06    -1.162132e-04    0.000000e+00
1.286626e-05    -1.162338e-04    0.000000e+00
1.724615e-05    -1.162523e-04    0.000000e+00
2.170513e-05    -1.162704e-04    0.000000e+00
-2.173924e-05    -1.208105e-04    0.000000e+00
-1.726634e-05    -1.207758e-04    0.000000e+00
-1.288608e-05    -1.207173e-04    0.000000e+00
-8.561321e-06    -1.206645e-04    0.000000e+00
-4.272039e-06    -1.206293e-04    0.000000e+00
-1.021522e-18    -1.206170e-04    0.000000e+00
4.272039e-06    -1.206293e-04    0.000000e+00
8.561321e-06    -1.206645e-04    0.000000e+00
1.288608e-05    -1.207173e-04    0.000000e+00
1.726634e-05    -1.207758e-04    0.000000e+00
2.173924e-05    -1.208105e-04    0.000000e+00

CELL_DATA      400
TENSORS Element_Stress6.200000e-01 double
1.820598e+06 2.551812e+05        0
2.551812e+05 4.163488e+05        0
       0        0        0

1.243720e+06 1.308538e+05        0
1.308538e+05 3.566178e+05        0
       0        0        0

8.651185e+05 4.301032e+04        0
4.301032e+04 2.749959e+05        0
       0        0        0

5.100063e+05 -3.578363e+03        0
-3.578363e+03 1.690094e+05        0
       0        0        0

1.688541e+05 -2.488323e+04        0
-2.488323e+04 5.694968e+04        0
       0        0        0

-1.688184e+05 -2.487711e+04        0
-2.487711e+04 -5.695775e+04        0
       0        0        0

-5.095306e+05 -3.579112e+03        0
-3.579112e+03 -1.688447e+05        0
       0        0        0

-8.637077e+05 4.293851e+04        0
4.293851e+04 -2.744671e+05        0
       0        0        0

-1.240734e+06 1.305652e+05        0
1.305652e+05 -3.554740e+05        0
       0        0        0

-1.814375e+06 2.543707e+05        0
2.543707e+05 -4.141970e+05        0
       0        0        0

1.642070e+06 4.159748e+04        0
4.159748e+04 4.234799e+03        0
       0        0        0

1.322354e+06 1.206454e+05        0
1.206454e+05 1.286843e+05        0
       0        0        0

9.082521e+05 9.900755e+04        0
9.900755e+04 1.315191e+05        0
       0        0        0

5.364025e+05 7.580678e+04        0
7.580678e+04 9.193311e+04        0
       0        0        0

1.768172e+05 6.321707e+04        0
6.321707e+04 3.207757e+04        0
       0        0        0

-1.778550e+05 6.319873e+04        0
6.319873e+04 -3.316896e+04        0
       0        0        0

-5.369363e+05 7.574133e+04        0
7.574133e+04 -9.284490e+04        0
       0        0        0

-9.077061e+05 9.886737e+04        0
9.886737e+04 -1.320379e+05        0
       0        0        0

-1.319830e+06 1.204079e+05        0
1.204079e+05 -1.284324e+05        0
       0        0        0

-1.637466e+06 4.151082e+04        0
4.151082e+04 -3.136555e+03        0
       0        0        0

1.584953e+06 1.541639e+04        0
1.541639e+04 6.615316e+03        0
       0        0        0

1.271591e+06 6.833109e+04        0
6.833109e+04 1.757728e+04        0
       0        0        0

9.146413e+05 1.015639e+05        0
1.015639e+05 4.237686e+04        0
       0        0        0

5.430826e+05 1.074765e+05        0
1.074765e+05 3.592346e+04        0
       0        0        0

1.791459e+05 1.074054e+05        0
1.074054e+05 1.272037e+04        0
       0        0        0

-1.824790e+05 1.073775e+05        0
1.073775e+05 -1.611190e+04        0
       0        0        0

-5.458838e+05 1.073933e+05        0
1.073933e+05 -3.912503e+04        0
       0        0        0

-9.163117e+05 1.014348e+05        0
1.014348e+05 -4.515293e+04        0
       0        0        0

-1.271565e+06 6.821622e+04        0
6.821622e+04 -1.966893e+04        0
       0        0        0

-1.582978e+06 1.538448e+04        0
1.538448e+04 -7.911807e+03        0
       0        0        0

1.546129e+06 1.427370e+04        0
1.427370e+04 -3.975752e+03        0
       0        0        0

1.226683e+06 5.548208e+04        0
5.548208e+04 -1.953361e+03        0
       0        0        0

8.865538e+05 9.245024e+04        0
9.245024e+04 2.933168e+03        0
       0        0        0

5.331314e+05 1.146030e+05        0
1.146030e+05 5.877770e+03        0
       0        0        0

1.753740e+05 1.233579e+05        0
1.233579e+05 6.880625e+02        0
       0        0        0

-1.820438e+05 1.233283e+05        0
1.233283e+05 -7.415933e+03        0
       0        0        0

-5.392752e+05 1.145213e+05        0
1.145213e+05 -1.241206e+04        0
       0        0        0

-8.916350e+05 9.234262e+04        0
9.234262e+04 -9.058365e+03        0
       0        0        0

-1.230189e+06 5.539388e+04        0
5.539388e+04 -3.528931e+03        0
       0        0        0

-1.547532e+06 1.424568e+04        0
1.424568e+04 -5.504384e+02        0
       0        0        0

1.509427e+06 1.713063e+04        0
1.713063e+04 -5.567249e+03        0
       0        0        0

1.185340e+06 5.448733e+04        0
5.448733e+04 -8.577651e+03        0
       0        0        0

8.541561e+05 8.905469e+04        0
8.905469e+04 -8.329305e+03        0
       0        0        0

5.137340e+05 1.136408e+05        0
1.136408e+05 -6.745280e+03        0
       0        0        0

1.681056e+05 1.258450e+05        0
1.258450e+05 -5.639044e+03        0
       0        0        0

-1.789903e+05 1.258166e+05        0
1.258166e+05 -5.300819e+03        0
       0        0        0

-5.241237e+05 1.135646e+05        0
1.135646e+05 -4.010288e+03        0
       0        0        0

-8.635542e+05 8.895612e+04        0
8.895612e+04 -2.042812e+03        0
       0        0        0

-1.193244e+06 5.440409e+04        0
5.440409e+04 -1.179541e+03        0
       0        0        0

-1.515273e+06 1.709766e+04        0
1.709766e+04 -3.264824e+03        0
       0        0        0

1.469671e+06 1.958963e+04        0
1.958963e+04 -7.911531e+03        0
       0        0        0

1.147077e+06 5.644559e+04        0
5.644559e+04 -1.054799e+04        0
       0        0        0

8.224151e+05 8.838594e+04        0
8.838594e+04 -1.192774e+04        0
       0        0        0

4.928620e+05 1.117722e+05        0
1.117722e+05 -1.113898e+04        0
       0        0        0

1.594065e+05 1.239614e+05        0
1.239614e+05 -9.157848e+03        0
       0        0        0

-1.752704e+05 1.239347e+05        0
1.239347e+05 -6.757342e+03        0
       0        0        0

-5.082716e+05 1.117003e+05        0
1.117003e+05 -4.611022e+03        0
       0        0        0

-8.369138e+05 8.829171e+04        0
8.829171e+04 -3.479956e+03        0
       0        0        0

-1.160194e+06 5.636191e+04        0
5.636191e+04 -4.312364e+03        0
       0        0        0

-1.480879e+06 1.955284e+04        0
1.955284e+04 -6.139554e+03        0
       0        0        0

1.427069e+06 2.114429e+04        0
2.114429e+04 -1.052964e+04        0
       0        0        0

1.109854e+06 5.834958e+04        0
5.834958e+04 -1.236661e+04        0
       0        0        0

7.924051e+05 8.864128e+04        0
8.864128e+04 -1.362108e+04        0
       0        0        0

4.726277e+05 1.103428e+05        0
1.103428e+05 -1.337050e+04        0
       0        0        0

1.506199e+05 1.216735e+05        0
1.216735e+05 -1.181697e+04        0
       0        0        0

-1.721469e+05 1.216483e+05        0
1.216483e+05 -9.757740e+03        0
       0        0        0

-4.937482e+05 1.102742e+05        0
1.102742e+05 -8.067258e+03        0
       0        0        0

-8.127094e+05 8.854973e+04        0
8.854973e+04 -7.533908e+03        0
       0        0        0

-1.128918e+06 5.826553e+04        0
5.826553e+04 -8.339735e+03        0
       0        0        0

-1.444434e+06 2.110561e+04        0
2.110561e+04 -9.528609e+03        0
       0        0        0

1.382471e+06 2.200181e+04        0
2.200181e+04 -1.363722e+04        0
       0        0        0

1.072891e+06 5.961398e+04        0
5.961398e+04 -1.472183e+04        0
       0        0        0

7.635785e+05 8.901007e+04        0
8.901007e+04 -1.557414e+04        0
       0        0        0

4.533125e+05 1.094858e+05        0
1.094858e+05 -1.552412e+04        0
       0        0        0

1.419522e+05 1.200358e+05        0
1.200358e+05 -1.458784e+04        0
       0        0        0

-1.697603e+05 1.200117e+05        0
1.200117e+05 -1.326479e+04        0
       0        0        0

-4.807667e+05 1.094198e+05        0
1.094198e+05 -1.222641e+04        0
       0        0        0

-7.903212e+05 8.892090e+04        0
8.892090e+04 -1.196593e+04        0
       0        0        0

-1.098554e+06 5.953060e+04        0
5.953060e+04 -1.248635e+04        0
       0        0        0

-1.406666e+06 2.196271e+04        0
2.196271e+04 -1.309846e+04        0
       0        0        0

1.336650e+06 2.243103e+04        0
2.243103e+04 -1.712975e+04        0
       0        0        0

1.035846e+06 6.032508e+04        0
6.032508e+04 -1.770734e+04        0
       0        0        0

7.353690e+05 8.928001e+04        0
8.928001e+04 -1.819357e+04        0
       0        0        0

4.345842e+05 1.090314e+05        0
1.090314e+05 -1.820574e+04        0
       0        0        0

1.333510e+05 1.190751e+05        0
1.190751e+05 -1.770719e+04        0
       0        0        0

-1.679948e+05 1.190519e+05        0
1.190519e+05 -1.697818e+04        0
       0        0        0

-4.689286e+05 1.089678e+05        0
1.089678e+05 -1.641605e+04        0
       0        0        0

-7.691116e+05 8.919329e+04        0
8.919329e+04 -1.629667e+04        0
       0        0        0

-1.068676e+06 6.024325e+04        0
6.024325e+04 -1.657480e+04        0
       0        0        0

-1.368246e+06 2.239236e+04        0
2.239236e+04 -1.685617e+04        0
       0        0        0

1.290108e+06 2.262769e+04        0
2.262769e+04 -2.093370e+04        0
       0        0        0

9.986145e+05 6.068320e+04        0
6.068320e+04 -2.119241e+04        0
       0        0        0

7.073840e+05 8.943847e+04        0
8.943847e+04 -2.142407e+04        0
       0        0        0

4.161153e+05 1.088122e+05        0
1.088122e+05 -2.143279e+04        0
       0        0        0

1.247137e+05 1.185759e+05        0
1.185759e+05 -2.118594e+04        0
       0        0        0

-1.666835e+05 1.185536e+05        0
1.185536e+05 -2.082274e+04        0
       0        0        0

-4.578408e+05 1.087507e+05        0
1.087507e+05 -2.055219e+04        0
       0        0        0

-7.486181e+05 8.935433e+04        0
8.935433e+04 -2.051028e+04        0
       0        0        0

-1.039104e+06 6.060345e+04        0
6.060345e+04 -2.065826e+04        0
       0        0        0

-1.329592e+06 2.258991e+04        0
2.258991e+04 -2.079207e+04        0
       0        0        0

1.243138e+06 2.270943e+04        0
2.270943e+04 -2.498210e+04        0
       0        0        0

9.611829e+05 6.084707e+04        0
6.084707e+04 -2.504187e+04        0
       0        0        0

6.794119e+05 8.952007e+04        0
8.952007e+04 -2.510676e+04        0
       0        0        0

3.976942e+05 1.087151e+05        0
1.087151e+05 -2.508705e+04        0
       0        0        0

1.159751e+05 1.183403e+05        0
1.183403e+05 -2.496213e+04        0
       0        0        0

-1.656966e+05 1.183187e+05        0
1.183187e+05 -2.479576e+04        0
       0        0        0

-4.472257e+05 1.086557e+05        0
1.086557e+05 -2.468699e+04        0
       0        0        0

-7.285608e+05 8.943859e+04        0
8.943859e+04 -2.469694e+04        0
       0        0        0

-1.009752e+06 6.076971e+04        0
6.076971e+04 -2.480000e+04        0
       0        0        0

-1.290922e+06 2.267274e+04        0
2.267274e+04 -2.489961e+04        0
       0        0        0

1.195902e+06 2.273919e+04        0
2.273919e+04 -2.922324e+04        0
       0        0        0

9.235708e+05 6.091458e+04        0
6.091458e+04 -2.915047e+04        0
       0        0        0

6.513590e+05 8.955767e+04        0
8.955767e+04 -2.910387e+04        0
       0        0        0

3.792147e+05 1.086759e+05        0
1.086759e+05 -2.904718e+04        0
       0        0        0

1.071092e+05 1.182389e+05        0
1.182389e+05 -2.896999e+04        0
       0        0        0

-1.649443e+05 1.182180e+05        0
1.182180e+05 -2.889900e+04        0
       0        0        0

-4.369126e+05 1.086185e+05        0
1.086185e+05 -2.887696e+04        0
       0        0        0

-7.087800e+05 8.947891e+04        0
8.947891e+04 -2.892824e+04        0
       0        0        0

-9.805709e+05 6.083975e+04        0
6.083975e+04 -2.903784e+04        0
       0        0        0

-1.252330e+06 2.270369e+04        0
2.270369e+04 -2.916302e+04        0
       0        0        0

1.148491e+06 2.274763e+04        0
2.274763e+04 -3.361527e+04        0
       0        0        0

8.858087e+05 6.093851e+04        0
6.093851e+04 -3.344415e+04        0
       0        0        0

6.231974e+05 8.957284e+04        0
8.957284e+04 -3.331675e+04        0
       0        0        0

3.606384e+05 1.086618e+05        0
1.086618e+05 -3.322145e+04        0
       0        0        0

9.811734e+04 1.181997e+05        0
1.181997e+05 -3.315416e+04        0
       0        0        0

-1.643651e+05 1.181796e+05        0
1.181796e+05 -3.312513e+04        0
       0        0        0

-4.268000e+05 1.086064e+05        0
1.086064e+05 -3.315081e+04        0
       0        0        0

-6.891844e+05 8.949683e+04        0
8.949683e+04 -3.323922e+04        0
       0        0        0

-9.515284e+05 6.086627e+04        0
6.086627e+04 -3.338182e+04        0
       0        0        0

-1.213844e+06 2.271337e+04        0
2.271337e+04 -3.356049e+04        0
       0        0        0

1.100960e+06 2.274841e+04        0
2.274841e+04 -3.812278e+04        0
       0        0        0

8.479289e+05 6.094459e+04        0
6.094459e+04 -3.787019e+04        0
       0        0        0

5.949322e+05 8.957762e+04        0
8.957762e+04 -3.767803e+04        0
       0        0        0

3.419635e+05 1.086573e+05        0
1.086573e+05 -3.754494e+04        0
       0        0        0

8.901558e+04 1.181867e+05        0
1.181867e+05 -3.747027e+04        0
       0        0        0

-1.639142e+05 1.181674e+05        0
1.181674e+05 -3.745768e+04        0
       0        0        0

-4.168253e+05 1.086039e+05        0
1.086039e+05 -3.751247e+04        0
       0        0        0

-6.697180e+05 8.950436e+04        0
8.950436e+04 -3.763608e+04        0
       0        0        0

-9.225952e+05 6.087498e+04        0
6.087498e+04 -3.782343e+04        0
       0        0        0

-1.175457e+06 2.271539e+04        0
2.271539e+04 -3.806658e+04        0
       0        0        0

1.053347e+06 2.274703e+04        0
2.274703e+04 -4.271420e+04        0
       0        0        0

8.099626e+05 6.094429e+04        0
6.094429e+04 -4.238866e+04        0
       0        0        0

5.665832e+05 8.957803e+04        0
8.957803e+04 -4.214000e+04        0
       0        0        0

3.232060e+05 1.086559e+05        0
1.086559e+05 -4.197068e+04        0
       0        0        0

7.982720e+04 1.181835e+05        0
1.181835e+05 -4.188171e+04        0
       0        0        0

-1.635563e+05 1.181649e+05        0
1.181649e+05 -4.187447e+04        0
       0        0        0

-4.069457e+05 1.086046e+05        0
1.086046e+05 -4.195008e+04        0
       0        0        0

-6.503417e+05 8.950753e+04        0
8.950753e+04 -4.210767e+04        0
       0        0        0

-8.937438e+05 6.087730e+04        0
6.087730e+04 -4.234382e+04        0
       0        0        0

-1.137148e+06 2.271526e+04        0
2.271526e+04 -4.265429e+04        0
       0        0        0

1.005683e+06 2.274539e+04        0
2.274539e+04 -4.736038e+04        0
       0        0        0

7.719394e+05 6.094219e+04        0
6.094219e+04 -4.696667e+04        0
       0        0        0

5.381756e+05 8.957681e+04        0
8.957681e+04 -4.666608e+04        0
       0        0        0

3.043894e+05 1.086553e+05        0
1.086553e+05 -4.646218e+04        0
       0        0        0

7.057816e+04 1.181832e+05        0
1.181832e+05 -4.635676e+04        0
       0        0        0

-1.632605e+05 1.181653e+05        0
1.181653e+05 -4.635058e+04        0
       0        0        0

-3.971278e+05 1.086060e+05        0
1.086060e+05 -4.644347e+04        0
       0        0        0

-6.310240e+05 8.950907e+04        0
8.950907e+04 -4.663394e+04        0
       0        0        0

-8.649473e+05 6.087783e+04        0
6.087783e+04 -4.691929e+04        0
       0        0        0

-1.098893e+06 2.271487e+04        0
2.271487e+04 -4.729637e+04        0
       0        0        0

9.579955e+05 2.274400e+04        0
2.274400e+04 -5.203381e+04        0
       0        0        0

7.338873e+05 6.093989e+04        0
6.093989e+04 -5.157525e+04        0
       0        0        0

5.097360e+05 8.957508e+04        0
8.957508e+04 -5.122566e+04        0
       0        0        0

2.855393e+05 1.086546e+05        0
1.086546e+05 -5.098880e+04        0
       0        0        0

6.129495e+04 1.181835e+05        0
1.181835e+05 -5.086675e+04        0
       0        0        0

-1.629989e+05 1.181663e+05        0
1.181663e+05 -5.086025e+04        0
       0        0        0

-3.873432e+05 1.086073e+05        0
1.086073e+05 -5.096887e+04        0
       0        0        0

-6.117373e+05 8.951011e+04        0
8.951011e+04 -5.119108e+04        0
       0        0        0

-8.361791e+05 6.087815e+04        0
6.087815e+04 -5.152449e+04        0
       0        0        0

-1.060664e+06 2.271473e+04        0
2.271473e+04 -5.196605e+04        0
       0        0        0

9.103102e+05 2.274290e+04        0
2.274290e+04 -5.670829e+04        0
       0        0        0

6.958326e+05 6.093780e+04        0
6.093780e+04 -5.618768e+04        0
       0        0        0

4.812907e+05 8.957328e+04        0
8.957328e+04 -5.579141e+04        0
       0        0        0

2.666817e+05 1.086537e+05        0
1.086537e+05 -5.552312e+04        0
       0        0        0

5.200354e+04 1.181835e+05        0
1.181835e+05 -5.538500e+04        0
       0        0        0

-1.627453e+05 1.181671e+05        0
1.181671e+05 -5.537790e+04        0
       0        0        0

-3.775653e+05 1.086084e+05        0
1.086084e+05 -5.550144e+04        0
       0        0        0

-5.924555e+05 8.951107e+04        0
8.951107e+04 -5.575422e+04        0
       0        0        0

-8.074137e+05 6.087870e+04        0
6.087870e+04 -5.613390e+04        0
       0        0        0

-1.022436e+06 2.271486e+04        0
2.271486e+04 -5.663735e+04        0
       0        0        0

8.626520e+05 2.274198e+04        0
2.274198e+04 -6.135878e+04        0
       0        0        0

6.578008e+05 6.093596e+04        0
6.093596e+04 -6.077882e+04        0
       0        0        0

4.528650e+05 8.957150e+04        0
8.957150e+04 -6.033795e+04        0
       0        0        0

2.478418e+05 1.086526e+05        0
1.086526e+05 -6.003971e+04        0
       0        0        0

4.272898e+04 1.181833e+05        0
1.181833e+05 -5.988630e+04        0
       0        0        0

-1.624747e+05 1.181676e+05        0
1.181676e+05 -5.987867e+04        0
       0        0        0

-3.677693e+05 1.086093e+05        0
1.086093e+05 -6.001656e+04        0
       0        0        0

-5.731539e+05 8.951206e+04        0
8.951206e+04 -6.029866e+04        0
       0        0        0

-7.786261e+05 6.087948e+04        0
6.087948e+04 -6.072266e+04        0
       0        0        0

-9.841819e+05 2.271520e+04        0
2.271520e+04 -6.128530e+04        0
       0        0        0

8.150447e+05 2.274119e+04        0
2.274119e+04 -6.596136e+04        0
       0        0        0

6.198157e+05 6.093429e+04        0
6.093429e+04 -6.532473e+04        0
       0        0        0

4.244830e+05 8.956978e+04        0
8.956978e+04 -6.484132e+04        0
       0        0        0

2.290436e+05 1.086514e+05        0
1.086514e+05 -6.451456e+04        0
       0        0        0

3.349528e+04 1.181828e+05        0
1.181828e+05 -6.434667e+04        0
       0        0        0

-1.621631e+05 1.181678e+05        0
1.181678e+05 -6.433865e+04        0
       0        0        0

-3.579315e+05 1.086101e+05        0
1.086101e+05 -6.449035e+04        0
       0        0        0

-5.538087e+05 8.951311e+04        0
8.951311e+04 -6.480052e+04        0
       0        0        0

-7.497925e+05 6.088043e+04        0
6.088043e+04 -6.526685e+04        0
       0        0        0

-9.458791e+05 2.271565e+04        0
2.271565e+04 -6.588596e+04        0
       0        0        0

7.675109e+05 2.274046e+04        0
2.274046e+04 -7.049318e+04        0
       0        0        0

5.819002e+05 6.093273e+04        0
6.093273e+04 -6.980260e+04        0
       0        0        0

3.961677e+05 8.956811e+04        0
8.956811e+04 -6.927870e+04        0
       0        0        0

2.103102e+05 1.086501e+05        0
1.086501e+05 -6.892486e+04        0
       0        0        0

2.432535e+04 1.181822e+05        0
1.181822e+05 -6.874327e+04        0
       0        0        0

-1.617877e+05 1.181679e+05        0
1.181679e+05 -6.873499e+04        0
       0        0        0

-3.480290e+05 1.086108e+05        0
1.086108e+05 -6.889993e+04        0
       0        0        0

-5.343973e+05 8.951420e+04        0
8.951420e+04 -6.923690e+04        0
       0        0        0

-7.208901e+05 6.088150e+04        0
6.088150e+04 -6.974356e+04        0
       0        0        0

-9.075041e+05 2.271617e+04        0
2.271617e+04 -7.041649e+04        0
       0        0        0

7.200723e+05 2.273978e+04        0
2.273978e+04 -7.493249e+04        0
       0        0        0

5.440762e+05 6.093125e+04        0
6.093125e+04 -7.419071e+04        0
       0        0        0

3.679410e+05 8.956648e+04        0
8.956648e+04 -7.362841e+04        0
       0        0        0

1.916633e+05 1.086488e+05        0
1.086488e+05 -7.324889e+04        0
       0        0        0

1.524098e+04 1.181815e+05        0
1.181815e+05 -7.305436e+04        0
       0        0        0

-1.613270e+05 1.181679e+05        0
1.181679e+05 -7.304590e+04        0
       0        0        0

-3.380404e+05 1.086115e+05        0
1.086115e+05 -7.322349e+04        0
       0        0        0

-5.148979e+05 8.951533e+04        0
8.951533e+04 -7.358598e+04        0
       0        0        0

-6.918973e+05 6.088265e+04        0
6.088265e+04 -7.413101e+04        0
       0        0        0

-8.690350e+05 2.271673e+04        0
2.271673e+04 -7.485511e+04        0
       0        0        0

6.727496e+05 2.273915e+04        0
2.273915e+04 -7.925863e+04        0
       0        0        0

5.063643e+05 6.092987e+04        0
6.092987e+04 -7.846843e+04        0
       0        0        0

3.398235e+05 8.956489e+04        0
8.956489e+04 -7.786983e+04        0
       0        0        0

1.731238e+05 1.086474e+05        0
1.086474e+05 -7.746605e+04        0
       0        0        0

6.262879e+03 1.181806e+05        0
1.181806e+05 -7.725929e+04        0
       0        0        0

-1.607601e+05 1.181679e+05        0
1.181679e+05 -7.725069e+04        0
       0        0        0

-3.279448e+05 1.086121e+05        0
1.086121e+05 -7.744030e+04        0
       0        0        0

-4.952900e+05 8.951651e+04        0
8.951651e+04 -7.782701e+04        0
       0        0        0

-6.627933e+05 6.088389e+04        0
6.088389e+04 -7.840849e+04        0
       0        0        0

-8.304513e+05 2.271735e+04        0
2.271735e+04 -7.918115e+04        0
       0        0        0

6.255623e+05 2.273859e+04        0
2.273859e+04 -8.345202e+04        0
       0        0        0

4.687842e+05 6.092860e+04        0
6.092860e+04 -8.261621e+04        0
       0        0        0

3.118350e+05 8.956335e+04        0
8.956335e+04 -8.198342e+04        0
       0        0        0

1.547113e+05 1.086460e+05        0
1.086460e+05 -8.155678e+04        0
       0        0        0

-2.589332e+03 1.181797e+05        0
1.181797e+05 -8.133849e+04        0
       0        0        0

-1.600676e+05 1.181676e+05        0
1.181676e+05 -8.132976e+04        0
       0        0        0

-3.177230e+05 1.086127e+05        0
1.086127e+05 -8.153073e+04        0
       0        0        0

-4.755540e+05 8.951773e+04        0
8.951773e+04 -8.194037e+04        0
       0        0        0

-6.335585e+05 6.088526e+04        0
6.088526e+04 -8.255636e+04        0
       0        0        0

-7.917331e+05 2.271804e+04        0
2.271804e+04 -8.337502e+04        0
       0        0        0

5.785286e+05 2.273817e+04        0
2.273817e+04 -8.749418e+04        0
       0        0        0

4.313542e+05 6.092752e+04        0
6.092752e+04 -8.661559e+04        0
       0        0        0

2.839942e+05 8.956185e+04        0
8.956185e+04 -8.595072e+04        0
       0        0        0

1.364444e+05 1.086444e+05        0
1.086444e+05 -8.550260e+04        0
       0        0        0

-1.129712e+04 1.181785e+05        0
1.181785e+05 -8.527347e+04        0
       0        0        0

-1.592310e+05 1.181672e+05        0
1.181672e+05 -8.526462e+04        0
       0        0        0

-3.073564e+05 1.086132e+05        0
1.086132e+05 -8.547630e+04        0
       0        0        0

-4.556717e+05 8.951900e+04        0
8.951900e+04 -8.590754e+04        0
       0        0        0

-6.041745e+05 6.088680e+04        0
6.088680e+04 -8.655609e+04        0
       0        0        0

-7.528619e+05 2.271886e+04        0
2.271886e+04 -8.741819e+04        0
       0        0        0

5.316658e+05 2.273795e+04        0
2.273795e+04 -9.136769e+04        0
       0        0        0

3.940921e+05 6.092663e+04        0
6.092663e+04 -9.044910e+04        0
       0        0        0

2.563184e+05 8.956035e+04        0
8.956035e+04 -8.975416e+04        0
       0        0        0

1.183407e+05 1.086427e+05        0
1.086427e+05 -8.928591e+04        0
       0        0        0

-1.984304e+04 1.181771e+05        0
1.181771e+05 -8.904673e+04        0
       0        0        0

-1.582329e+05 1.181665e+05        0
1.181665e+05 -8.903797e+04        0
       0        0        0

-2.968278e+05 1.086135e+05        0
1.086135e+05 -8.925978e+04        0
       0        0        0

-4.356257e+05 8.952026e+04        0
8.952026e+04 -8.971126e+04        0
       0        0        0

-5.746240e+05 6.088854e+04        0
6.088854e+04 -9.039032e+04        0
       0        0        0

-7.138200e+05 2.271989e+04        0
2.271989e+04 -9.129325e+04        0
       0        0        0

4.849900e+05 2.273796e+04        0
2.273796e+04 -9.505616e+04        0
       0        0        0

3.570143e+05 6.092577e+04        0
6.092577e+04 -9.410011e+04        0
       0        0        0

2.288244e+05 8.955862e+04        0
8.955862e+04 -9.337680e+04        0
       0        0        0

1.004164e+05 1.086409e+05        0
1.086409e+05 -9.288973e+04        0
       0        0        0

-2.821084e+04 1.181759e+05        0
1.181759e+05 -9.264170e+04        0
       0        0        0

-1.570570e+05 1.181660e+05        0
1.181660e+05 -9.263378e+04        0
       0        0        0

-2.861209e+05 1.086137e+05        0
1.086137e+05 -9.286554e+04        0
       0        0        0

-4.153999e+05 8.952130e+04        0
8.952130e+04 -9.333582e+04        0
       0        0        0

-5.448908e+05 6.089031e+04        0
6.089031e+04 -9.404299e+04        0
       0        0        0

-6.745908e+05 2.272114e+04        0
2.272114e+04 -9.498387e+04        0
       0        0        0

4.385165e+05 2.273798e+04        0
2.273798e+04 -9.854412e+04        0
       0        0        0

3.201365e+05 6.092413e+04        0
6.092413e+04 -9.755241e+04        0
       0        0        0

2.015270e+05 8.955604e+04        0
8.955604e+04 -9.680154e+04        0
       0        0        0

8.268605e+04 1.086393e+05        0
1.086393e+05 -9.629692e+04        0
       0        0        0

-3.638570e+04 1.181760e+05        0
1.181760e+05 -9.604233e+04        0
       0        0        0

-1.556878e+05 1.181669e+05        0
1.181669e+05 -9.603768e+04        0
       0        0        0

-2.752197e+05 1.086142e+05        0
1.086142e+05 -9.628030e+04        0
       0        0        0

-3.949789e+05 8.952148e+04        0
8.952148e+04 -9.676788e+04        0
       0        0        0

-5.149601e+05 6.089129e+04        0
6.089129e+04 -9.749979e+04        0
       0        0        0

-6.351590e+05 2.272241e+04        0
2.272241e+04 -9.847493e+04        0
       0        0        0

3.922608e+05 2.273705e+04        0
2.273705e+04 -1.018168e+05        0
       0        0        0

2.834737e+05 6.091918e+04        0
6.091918e+04 -1.007892e+05        0
       0        0        0

1.744389e+05 8.955103e+04        0
8.955103e+04 -1.000095e+05        0
       0        0        0

6.516112e+04 1.086394e+05        0
1.086394e+05 -9.948864e+04        0
       0        0        0

-4.435479e+04 1.181814e+05        0
1.181814e+05 -9.923256e+04        0
       0        0        0

-1.541098e+05 1.181730e+05        0
1.181730e+05 -9.923756e+04        0
       0        0        0

-2.641076e+05 1.086162e+05        0
1.086162e+05 -9.949471e+04        0
       0        0        0

-3.743470e+05 8.951924e+04        0
8.951924e+04 -9.999807e+04        0
       0        0        0

-4.848186e+05 6.088897e+04        0
6.088897e+04 -1.007491e+05        0
       0        0        0

-5.955116e+05 2.272272e+04        0
2.272272e+04 -1.017526e+05        0
       0        0        0

3.462408e+05 2.273213e+04        0
2.273213e+04 -1.048596e+05        0
       0        0        0

2.470402e+05 6.090435e+04        0
6.090435e+04 -1.037913e+05        0
       0        0        0

1.475679e+05 8.953998e+04        0
8.953998e+04 -1.029768e+05        0
       0        0        0

4.784706e+04 1.086446e+05        0
1.086446e+05 -1.024414e+05        0
       0        0        0

-5.210859e+04 1.182015e+05        0
1.182015e+05 -1.021950e+05        0
       0        0        0

-1.523066e+05 1.181938e+05        0
1.181938e+05 -1.022248e+05        0
       0        0        0

-2.527641e+05 1.086235e+05        0
1.086235e+05 -1.025064e+05        0
       0        0        0

-3.534861e+05 8.951095e+04        0
8.951095e+04 -1.030243e+05        0
       0        0        0

-4.544544e+05 6.087677e+04        0
6.087677e+04 -1.037842e+05        0
       0        0        0

-5.556397e+05 2.271905e+04        0
2.271905e+04 -1.048050e+05        0
       0        0        0

3.004822e+05 2.271539e+04        0
2.271539e+04 -1.076574e+05        0
       0        0        0

2.108493e+05 6.086437e+04        0
6.086437e+04 -1.065333e+05        0
       0        0        0

1.209111e+05 8.951546e+04        0
8.951546e+04 -1.056691e+05        0
       0        0        0

3.073692e+04 1.086641e+05        0
1.086641e+05 -1.051219e+05        0
       0        0        0

-5.964355e+04 1.182578e+05        0
1.182578e+05 -1.049091e+05        0
       0        0        0

-1.502580e+05 1.182508e+05        0
1.182508e+05 -1.049962e+05        0
       0        0        0

-2.411586e+05 1.086450e+05        0
1.086450e+05 -1.053249e+05        0
       0        0        0

-3.323700e+05 8.948920e+04        0
8.948920e+04 -1.058577e+05        0
       0        0        0

-4.238570e+05 6.083943e+04        0
6.083943e+04 -1.066065e+05        0
       0        0        0

-5.155448e+05 2.270357e+04        0
2.270357e+04 -1.076228e+05        0
       0        0        0

2.550302e+05 2.266861e+04        0
2.266861e+04 -1.101928e+05        0
       0        0        0

1.749112e+05 6.076689e+04        0
6.076689e+04 -1.089786e+05        0
       0        0        0

9.444394e+04 8.946363e+04        0
8.946363e+04 -1.080332e+05        0
       0        0        0

1.379929e+04 1.087177e+05        0
1.087177e+05 -1.074804e+05        0
       0        0        0

-6.696699e+04 1.183950e+05        0
1.183950e+05 -1.073481e+05        0
       0        0        0

-1.479345e+05 1.183887e+05        0
1.183887e+05 -1.075565e+05        0
       0        0        0

-2.292386e+05 1.087005e+05        0
1.087005e+05 -1.079789e+05        0
       0        0        0

-3.109536e+05 8.944014e+04        0
8.944014e+04 -1.085307e+05        0
       0        0        0

-3.930164e+05 6.074460e+04        0
6.074460e+04 -1.092323e+05        0
       0        0        0

-4.752498e+05 2.265805e+04        0
2.265805e+04 -1.102010e+05        0
       0        0        0

2.099707e+05 2.255312e+04        0
2.255312e+04 -1.124452e+05        0
       0        0        0

1.392276e+05 6.054966e+04        0
6.054966e+04 -1.110720e+05        0
       0        0        0

6.809783e+04 8.936201e+04        0
8.936201e+04 -1.099896e+05        0
       0        0        0

-3.042201e+03 1.088455e+05        0
1.088455e+05 -1.094456e+05        0
       0        0        0

-7.410476e+04 1.186961e+05        0
1.186961e+05 -1.094775e+05        0
       0        0        0

-1.452897e+05 1.186906e+05        0
1.186906e+05 -1.099193e+05        0
       0        0        0

-2.169085e+05 1.088304e+05        0
1.088304e+05 -1.105207e+05        0
       0        0        0

-2.891518e+05 8.934130e+04        0
8.934130e+04 -1.111065e+05        0
       0        0        0

-3.619182e+05 6.053005e+04        0
6.053005e+04 -1.117009e+05        0
       0        0        0

-4.348222e+05 2.254384e+04        0
2.254384e+04 -1.125421e+05        0
       0        0        0

1.654676e+05 2.229389e+04        0
2.229389e+04 -1.143894e+05        0
       0        0        0

1.037757e+05 6.010633e+04        0
6.010633e+04 -1.127378e+05        0
       0        0        0

4.172434e+04 8.918285e+04        0
8.918285e+04 -1.114369e+05        0
       0        0        0

-1.993674e+04 1.091211e+05        0
1.091211e+05 -1.109352e+05        0
       0        0        0

-8.111029e+04 1.192969e+05        0
1.192969e+05 -1.112604e+05        0
       0        0        0

-1.422485e+05 1.192922e+05        0
1.192922e+05 -1.121001e+05        0
       0        0        0

-2.040019e+05 1.091080e+05        0
1.091080e+05 -1.130150e+05        0
       0        0        0

-2.668047e+05 8.916493e+04        0
8.916493e+04 -1.136749e+05        0
       0        0        0

-3.305323e+05 6.008944e+04        0
6.008944e+04 -1.140806e+05        0
       0        0        0

-3.944153e+05 2.228592e+04        0
2.228592e+04 -1.146607e+05        0
       0        0        0

1.218143e+05 2.175987e+04        0
2.175987e+04 -1.160001e+05        0
       0        0        0

6.846991e+04 5.928775e+04        0
5.928775e+04 -1.139016e+05        0
       0        0        0

1.504776e+04 8.891653e+04        0
8.891653e+04 -1.123083e+05        0
       0        0        0

-3.712658e+04 1.096611e+05        0
1.096611e+05 -1.119237e+05        0
       0        0        0

-8.806576e+04 1.203706e+05        0
1.203706e+05 -1.126850e+05        0
       0        0        0

-1.387020e+05 1.203666e+05        0
1.203666e+05 -1.140839e+05        0
       0        0        0

-1.902583e+05 1.096500e+05        0
1.096500e+05 -1.154691e+05        0
       0        0        0

-2.436324e+05 8.890144e+04        0
8.890144e+04 -1.162985e+05        0
       0        0        0

-2.987810e+05 5.927361e+04        0
5.927361e+04 -1.164537e+05        0
       0        0        0

-3.543298e+05 2.175326e+04        0
2.175326e+04 -1.165894e+05        0
       0        0        0

7.947515e+04 2.075678e+04        0
2.075678e+04 -1.172821e+05        0
       0        0        0

3.307865e+04 5.797447e+04        0
5.797447e+04 -1.145899e+05        0
       0        0        0

-1.236393e+04 8.865059e+04        0
8.865059e+04 -1.127886e+05        0
       0        0        0

-5.490063e+04 1.106013e+05        0
1.106013e+05 -1.126577e+05        0
       0        0        0

-9.504947e+04 1.220074e+05        0
1.220074e+05 -1.138552e+05        0
       0        0        0

-1.345317e+05 1.220041e+05        0
1.220041e+05 -1.157267e+05        0
       0        0        0

-1.753639e+05 1.105923e+05        0
1.105923e+05 -1.176118e+05        0
       0        0        0

-2.192067e+05 8.863840e+04        0
8.863840e+04 -1.187962e+05        0
       0        0        0

-2.664683e+05 5.796312e+04        0
5.796312e+04 -1.188293e+05        0
       0        0        0

-3.150782e+05 2.075156e+04        0
2.075156e+04 -1.183719e+05        0
       0        0        0

3.901604e+04 1.910250e+04        0
1.910250e+04 -1.183311e+05        0
       0        0        0

-2.945801e+03 5.638064e+04        0
5.638064e+04 -1.153385e+05        0
       0        0        0

-4.097162e+04 8.874194e+04        0
8.874194e+04 -1.139163e+05        0
       0        0        0

-7.334316e+04 1.119428e+05        0
1.119428e+05 -1.141993e+05        0
       0        0        0

-1.020044e+05 1.238170e+05        0
1.238170e+05 -1.151847e+05        0
       0        0        0

-1.297257e+05 1.238146e+05        0
1.238146e+05 -1.165458e+05        0
       0        0        0

-1.591896e+05 1.119363e+05        0
1.119363e+05 -1.183359e+05        0
       0        0        0

-1.930733e+05 8.873286e+04        0
8.873286e+04 -1.201362e+05        0
       0        0        0

-2.331278e+05 5.637209e+04        0
5.637209e+04 -1.207525e+05        0
       0        0        0

-2.773664e+05 1.909865e+04        0
1.909865e+04 -1.200521e+05        0
       0        0        0

5.231885e+02 1.710271e+04        0
1.710271e+04 -1.199683e+05        0
       0        0        0

-4.055900e+04 5.592265e+04        0
5.592265e+04 -1.183223e+05        0
       0        0        0

-7.064224e+04 9.001307e+04        0
9.001307e+04 -1.192608e+05        0
       0        0        0

-9.160225e+04 1.128998e+05        0
1.128998e+05 -1.193451e+05        0
       0        0        0

-1.084793e+05 1.240404e+05        0
1.240404e+05 -1.176209e+05        0
       0        0        0

-1.246149e+05 1.240392e+05        0
1.240392e+05 -1.154734e+05        0
       0        0        0

-1.424954e+05 1.128964e+05        0
1.128964e+05 -1.147534e+05        0
       0        0        0

-1.653497e+05 9.000769e+04        0
9.000769e+04 -1.167341e+05        0
       0        0        0

-1.979384e+05 5.591692e+04        0
5.591692e+04 -1.201833e+05        0
       0        0        0

-2.416132e+05 1.710010e+04        0
1.710010e+04 -1.211410e+05        0
       0        0        0

-3.838756e+04 1.780089e+04        0
1.780089e+04 -1.241547e+05        0
       0        0        0

-8.056431e+04 6.133461e+04        0
6.133461e+04 -1.329179e+05        0
       0        0        0

-9.823377e+04 9.241439e+04        0
9.241439e+04 -1.376493e+05        0
       0        0        0

-1.069299e+05 1.101518e+05        0
1.101518e+05 -1.330247e+05        0
       0        0        0

-1.134903e+05 1.182691e+05        0
1.182691e+05 -1.226657e+05        0
       0        0        0

-1.199857e+05 1.182695e+05        0
1.182695e+05 -1.108102e+05        0
       0        0        0

-1.278480e+05 1.101525e+05        0
1.101525e+05 -1.017531e+05        0
       0        0        0

-1.390687e+05 9.241419e+04        0
9.241419e+04 -9.965328e+04        0
       0        0        0

-1.602170e+05 6.133242e+04        0
6.133242e+04 -1.078653e+05        0
       0        0        0

-2.060740e+05 1.779909e+04        0
1.779909e+04 -1.203165e+05        0
       0        0        0

-9.041227e+04 4.054631e+04        0
4.054631e+04 -1.562833e+05        0
       0        0        0

-1.138421e+05 7.593486e+04        0
7.593486e+04 -1.858539e+05        0
       0        0        0

-1.150718e+05 8.920336e+04        0
8.920336e+04 -1.817339e+05        0
       0        0        0

-1.153875e+05 9.571255e+04        0
9.571255e+04 -1.608397e+05        0
       0        0        0

-1.157489e+05 9.856239e+04        0
9.856239e+04 -1.317915e+05        0
       0        0        0

-1.168366e+05 9.856429e+04        0
9.856429e+04 -1.007937e+05        0
       0        0        0

-1.188659e+05 9.571771e+04        0
9.571771e+04 -7.341100e+04        0
       0        0        0

-1.225609e+05 8.921016e+04        0
8.921016e+04 -5.589328e+04        0
       0        0        0

-1.289065e+05 7.594047e+04        0
7.594047e+04 -5.688864e+04        0
       0        0        0

-1.586523e+05 4.054609e+04        0
4.054609e+04 -9.278138e+04        0
       0        0        0

POINT_DATA     451
VECTORS DISPLACEMENT_6.400000e-01 double
0.000000e+00    0.000000e+00    0.000000e+00
0.000000e+00    0.000000e+00    0.000000e+00
0.000000e+00    0.000000e+00    0.000000e+00
0.000000e+00    0.000000e+00    0.000000e+00
0.000000e+00    0.000000e+00    0.000000e+00
0.000000e+00    0.000000e+00    0.000000e+00
0.000000e+00    0.000000e+00    0.000000e+00
0.000000e+00    0.000000e+00    0.000000e+00
0.000000e+00    0.000000e+00    0.000000e+00
0.000000e+00    0.000000e+00    0.000000e+00
0.000000e+00    0.000000e+00    0.000000e+00
-1.141595e-06    -8.299605e-07    0.000000e+00
-7.233448e-07    -4.163094e-07    0.000000e+00
-5.161144e-07    -2.157261e-07    0.000000e+00
-3.332233e-07    -1.068318e-07    0.000000e+00
-1.642863e-07    -5.047426e-08    0.000000e+00
-3.380552e-20    -3.295145e-08    0.000000e+00
1.642863e-07    -5.047426e-08    0.000000e+00
3.332233e-07    -1.068318e-07    0.000000e+00
5.161144e-07    -2.157261e-07    0.000000e+00
7.233448e-07    -4.163094e-07    0.000000e+00
1.141595e-06    -8.299605e-07    0.000000e+00
-2.153941e-06    -1.380309e-06    0.000000e+00
-1.574436e-06    -9.987668e-07    0.000000e+00
-1.105093e-06    -7.015532e-07    0.000000e+00
-7.128292e-07    -5.177059e-07    0.000000e+00
-3.501023e-07    -4.175298e-07    0.000000e+00
-7.144194e-20    -3.857102e-07    0.000000e+00
3.501023e-07    -4.175298e-07    0.000000e+00
7.128292e-07    -5.177059e-07    0.000000e+00
1.105093e-06    -7.015532e-07    0.000000e+00
1.574436e-06    -9.987668e-07    0.000000e+00
2.153941e-06    -1.380309e-06    0.000000e+00
-3.132427e-06    -2.064634e-06    0.000000e+00
-2.394168e-06    -1.682257e-06    0.000000e+00
-1.722702e-06    -1.380761e-06    0.000000e+00
-1.115240e-06    -1.168096e-06    0.000000e+00
-5.487489e-07    -1.045521e-06    0.000000e+00
-1.123344e-19    -1.005593e-06    0.000000e+00
5.487489e-07    -1.045521e-06    0.000000e+00
1.115240e-06    -1.168096e-06    0.000000e+00
1.722702e-06    -1.380761e-06    0.000000e+00
2.394168e-06    -1.682257e-06    0.000000e+00
3.132427e-06    -2.064634e-06    0.000000e+00
-4.100076e-06    -2.909172e-06    0.000000e+00
-3.186876e-06    -2.535522e-06    0.000000e+00
-2.326958e-06    -2.239053e-06    0.000000e+00
-1.519408e-06    -2.025105e-06    0.000000e+00
-7.500557e-07    -1.896684e-06    0.000000e+00
-1.547092e-19    -1.854101e-06    0.000000e+00
7.500557e-07    -1.896684e-06    0.000000e+00
1.519408e-06    -2.025105e-06    0.000000e+00
2.326958e-06    -2.239053e-06    0.000000e+00
3.186876e-06    -2.535522e-06    0.000000e+00
4.100076e-06    -2.909172e-06    0.000000e+00
-5.051341e-06    -3.936654e-06    0.000000e+00
-3.956477e-06    -3.571725e-06    0.000000e+00
-2.911986e-06    -3.284208e-06    0.000000e+00
-1.912865e-06    -3.075889e-06    0.000000e+00
-9.475500e-07    -2.949778e-06    0.000000e+00
-1.982719e-19    -2.907564e-06    0.000000e+00
9.475500e-07    -2.949778e-06    0.000000e+00
1.912865e-06    -3.075889e-06    0.000000e+00
2.911986e-06    -3.284208e-06    0.000000e+00
3.956477e-06    -3.571725e-06    0.000000e+00
5.051341e-06    -3.936654e-06    0.000000e+00
-5.981873e-06    -5.149742e-06    0.000000e+00
-4.704513e-06    -4.794468e-06    0.000000e+00
-3.477740e-06    -4.516043e-06    0.000000e+00
-2.292922e-06    -4.315096e-06    0.000000e+00
-1.138484e-06    -4.193469e-06    0.000000e+00
-2.426617e-19    -4.152740e-06    0.000000e+00
1.138484e-06    -4.193469e-06    0.000000e+00
2.292922e-06    -4.315096e-06    0.000000e+00
3.477740e-06    -4.516043e-06    0.000000e+00
4.704513e-06    -4.794468e-06    0.000000e+00
5.981873e-06    -5.149742e-06    0.000000e+00
-6.888558e-06    -6.546376e-06    0.000000e+00
-5.431254e-06    -6.201154e-06    0.000000e+00
-4.025294e-06    -5.931590e-06    0.000000e+00
-2.659769e-06    -5.737829e-06    0.000000e+00
-1.322562e-06    -5.620886e-06    0.000000e+00
-2.847619e-19    -5.581769e-06    0.000000e+00
1.322562e-06    -5.620886e-06    0.000000e+00
2.659769e-06    -5.737829e-06    0.000000e+00
4.025294e-06    -5.931590e-06    0.000000e+00
5.431254e-06    -6.201154e-06    0.000000e+00
6.888558e-06    -6.546376e-06    0.000000e+00
-7.769676e-06    -8.122139e-06    0.000000e+00
-6.136609e-06    -7.787205e-06    0.000000e+00
-4.555509e-06    -7.526210e-06    0.000000e+00
-3.014226e-06    -7.339157e-06    0.000000e+00
-1.500173e-06    -7.226543e-06    0.000000e+00
-3.253136e-19    -7.188927e-06    0.000000e+00
1.500173e-06    -7.226543e-06    0.000000e+00
3.014226e-06    -7.339157e-06    0.000000e+00
4.555509e-06    -7.526210e-06    0.000000e+00
6.136609e-06    -7.787205e-06    0.000000e+00
7.769676e-06    -8.122139e-06    0.000000e+00
-8.624338e-06    -9.871838e-06    0.000000e+00
-6.820449e-06    -9.547301e-06    0.000000e+00
-5.068913e-06    -9.294676e-06    0.000000e+00
-3.356973e-06    -9.113935e-06    0.000000e+00
-1.671744e-06    -9.005300e-06    0.000000e+00
-3.676652e-19    -8.969049e-06    0.000000e+00
1.671744e-06    -9.005300e-06    0.000000e+00
3.356973e-06    -9.113935e-06    0.000000e+00
5.068913e-06    -9.294676e-06    0.000000e+00
6.820449e-06    -9.547301e-06    0.000000e+00
8.624338e-06    -9.871838e-06    0.000000e+00
-9.452128e-06    -1.179002e-05    0.000000e+00
-7.482678e-06    -1.147593e-05    0.000000e+00
-5.565791e-06    -1.123156e-05    0.000000e+00
-3.688437e-06    -1.105688e-05    0.000000e+00
-1.837569e-06    -1.095199e-05    0.000000e+00
-4.103875e-19    -1.091701e-05    0.000000e+00
1.837569e-06    -1.095199e-05    0.000000e+00
3.688437e-06    -1.105688e-05    0.000000e+00
5.565791e-06    -1.123156e-05    0.000000e+00
7.482678e-06    -1.147593e-05    0.000000e+00
9.452128e-06    -1.179002e-05    0.000000e+00
-1.025287e-05    -1.387120e-05    0.000000e+00
-8.123242e-06    -1.356758e-05    0.000000e+00
-6.046283e-06    -1.333140e-05    0.000000e+00
-4.008850e-06    -1.316265e-05    0.000000e+00
-1.997814e-06    -1.306137e-05    0.000000e+00
-4.463334e-19    -1.302760e-05    0.000000e+00
1.997814e-06    -1.306137e-05    0.000000e+00
4.008850e-06    -1.316265e-05    0.000000e+00
6.046283e-06    -1.333140e-05    0.000000e+00
8.123242e-06    -1.356758e-05    0.000000e+00
1.025287e-05    -1.387120e-05    0.000000e+00
-1.102648e-05    -1.610989e-05    0.000000e+00
-8.742113e-06    -1.581673e-05    0.000000e+00
-6.510452e-06    -1.558871e-05    0.000000e+00
-4.318325e-06    -1.542583e-05    0.000000e+00
-2.152566e-06    -1.532809e-05    0.000000e+00
-4.836558e-19    -1.529550e-05    0.000000e+00
2.152566e-06    -1.532809e-05    0.000000e+00
4.318325e-06    -1.542583e-05    0.000000e+00
6.510452e-06    -1.558871e-05    0.000000e+00
8.742113e-06    -1.581673e-05    0.000000e+00
1.102648e-05    -1.610989e-05    0.000000e+00
-1.177296e-05    -1.850062e-05    0.000000e+00
-9.339276e-06    -1.821793e-05    0.000000e+00
-6.958324e-06    -1.799806e-05    0.000000e+00
-4.616914e-06    -1.784101e-05    0.000000e+00
-2.301865e-06    -1.774678e-05    0.000000e+00
-5.257957e-19    -1.771537e-05    0.000000e+00
2.301865e-06    -1.774678e-05    0.000000e+00
4.616914e-06    -1.784101e-05    0.000000e+00
6.958324e-06    -1.799806e-05    0.000000e+00
9.339276e-06    -1.821793e-05    0.000000e+00
1.177296e-05    -1.850062e-05    0.000000e+00
-1.249228e-05    -2.103794e-05    0.000000e+00
-9.914727e-06    -2.076572e-05    0.000000e+00
-7.389909e-06    -2.055400e-05    0.000000e+00
-4.904637e-06    -2.040277e-05    0.000000e+00
-2.445728e-06    -2.031204e-05    0.000000e+00
-5.514184e-19    -2.028179e-05    0.000000e+00
2.445728e-06    -2.031204e-05    0.000000e+00
4.904637e-06    -2.040277e-05    0.000000e+00
7.389909e-06    -2.055400e-05    0.000000e+00
9.914727e-06    -2.076572e-05    0.000000e+00
1.249228e-05    -2.103794e-05    0.000000e+00
-1.318446e-05    -2.371642e-05    0.000000e+00
-1.046846e-05    -2.345467e-05    0.000000e+00
-7.805208e-06    -2.325109e-05    0.000000e+00
-5.181501e-06    -2.310568e-05    0.000000e+00
-2.584160e-06    -2.301844e-05    0.000000e+00
-5.759824e-19    -2.298935e-05    0.000000e+00
2.584160e-06    -2.301844e-05    0.000000e+00
5.181501e-06    -2.310568e-05    0.000000e+00
7.805208e-06    -2.325109e-05    0.000000e+00
1.046846e-05    -2.345467e-05    0.000000e+00
1.318446e-05    -2.371642e-05    0.000000e+00
-1.384949e-05    -2.653062e-05    0.000000e+00
-1.100049e-05    -2.627934e-05    0.000000e+00
-8.204222e-06    -2.608391e-05    0.000000e+00
-5.447509e-06    -2.594431e-05    0.000000e+00
-2.717163e-06    -2.586055e-05    0.000000e+00
-5.944054e-19    -2.583264e-05    0.000000e+00
2.717163e-06    -2.586055e-05    0.000000e+00
5.447509e-06    -2.594431e-05    0.000000e+00
8.204222e-06    -2.608391e-05    0.000000e+00
1.100049e-05    -2.627934e-05    0.000000e+00
1.384949e-05    -2.653062e-05    0.000000e+00
-1.448737e-05    -2.947511e-05    0.000000e+00
-1.151079e-05    -2.923430e-05    0.000000e+00
-8.586950e-06    -2.904701e-05    0.000000e+00
-5.702661e-06    -2.891323e-05    0.000000e+00
-2.844739e-06    -2.883296e-05    0.000000e+00
-5.952524e-19    -2.880621e-05    0.000000e+00
2.844739e-06    -2.883296e-05    0.000000e+00
5.702661e-06    -2.891323e-05    0.000000e+00
8.586950e-06    -2.904701e-05    0.000000e+00
1.151079e-05    -2.923430e-05    0.000000e+00
1.448737e-05    -2.947511e-05    0.000000e+00
-1.509811e-05    -3.254446e-05    0.000000e+00
-1.199938e-05    -3.231413e-05    0.000000e+00
-8.953392e-06    -3.213498e-05    0.000000e+00
-5.946955e-06    -3.200701e-05    0.000000e+00
-2.966886e-06    -3.193024e-05    0.000000e+00
-6.065815e-19    -3.190464e-05    0.000000e+00
2.966886e-06    -3.193024e-05    0.000000e+00
5.946955e-06    -3.200701e-05    0.000000e+00
8.953392e-06    -3.213498e-05    0.000000e+00
1.199938e-05    -3.231413e-05    0.000000e+00
1.509811e-05    -3.254446e-05    0.000000e+00
-1.568170e-05    -3.573325e-05    0.000000e+00
-1.246626e-05    -3.551338e-05    0.000000e+00
-9.303549e-06    -3.534238e-05    0.000000e+00
-6.180392e-06    -3.522023e-05    0.000000e+00
-3.083604e-06    -3.514694e-05    0.000000e+00
-6.311454e-19    -3.512251e-05    0.000000e+00
3.083604e-06    -3.514694e-05    0.000000e+00
6.180392e-06    -3.522023e-05    0.000000e+00
9.303549e-06    -3.534238e-05    0.000000e+00
1.246626e-05    -3.551338e-05    0.000000e+00
1.568170e-05    -3.573325e-05    0.000000e+00
-1.623815e-05    -3.903604e-05    0.000000e+00
-1.291142e-05    -3.882665e-05    0.000000e+00
-9.637419e-06    -3.866378e-05    0.000000e+00
-6.402972e-06    -3.854745e-05    0.000000e+00
-3.194894e-06    -3.847765e-05    0.000000e+00
-6.733912e-19    -3.845439e-05    0.000000e+00
3.194894e-06    -3.847765e-05    0.000000e+00
6.402972e-06    -3.854745e-05    0.000000e+00
9.637419e-06    -3.866378e-05    0.000000e+00
1.291142e-05    -3.882665e-05    0.000000e+00
1.623815e-05    -3.903604e-05    0.000000e+00
-1.676746e-05    -4.244741e-05    0.000000e+00
-1.333486e-05    -4.224848e-05    0.000000e+00
-9.955003e-06    -4.209376e-05    0.000000e+00
-6.614695e-06    -4.198325e-05    0.000000e+00
-3.300755e-06    -4.191694e-05    0.000000e+00
-7.375539e-19    -4.189484e-05    0.000000e+00
3.300755e-06    -4.191694e-05    0.000000e+00
6.614695e-06    -4.198325e-05    0.000000e+00
9.955003e-06    -4.209376e-05    0.000000e+00
1.333486e-05    -4.224848e-05    0.000000e+00
1.676746e-05    -4.244741e-05    0.000000e+00
-1.726962e-05    -4.596192e-05    0.000000e+00
-1.373659e-05    -4.577347e-05    0.000000e+00
-1.025630e-05    -4.562689e-05    0.000000e+00
-6.815560e-06    -4.552219e-05    0.000000e+00
-3.401188e-06    -4.545937e-05    0.000000e+00
-7.860466e-19    -4.543843e-05    0.000000e+00
3.401188e-06    -4.545937e-05    0.000000e+00
6.815560e-06    -4.552219e-05    0.000000e+00
1.025630e-05    -4.562689e-05    0.000000e+00
1.373659e-05    -4.577347e-05    0.000000e+00
1.726962e-05    -4.596192e-05    0.000000e+00
-1.774464e-05    -4.957415e-05    0.000000e+00
-1.411661e-05    -4.939617e-05    0.000000e+00
-1.054131e-05    -4.925773e-05    0.000000e+00
-7.005568e-06    -4.915885e-05    0.000000e+00
-3.496192e-06    -4.909952e-05    0.000000e+00
-8.182338e-19    -4.907975e-05    0.000000e+00
3.496192e-06    -4.909952e-05    0.000000e+00
7.005568e-06    -4.915885e-05    0.000000e+00
1.054131e-05    -4.925773e-05    0.000000e+00
1.411661e-05    -4.939617e-05    0.000000e+00
1.774464e-05    -4.957415e-05    0.000000e+00
-1.819252e-05    -5.327868e-05    0.000000e+00
-1.447491e-05    -5.311116e-05    0.000000e+00
-1.081004e-05    -5.298087e-05    0.000000e+00
-7.184718e-06    -5.288780e-05    0.000000e+00
-3.585767e-06    -5.283196e-05    0.000000e+00
-8.614325e-19    -5.281335e-05    0.000000e+00
3.585767e-06    -5.283196e-05    0.000000e+00
7.184718e-06    -5.288780e-05    0.000000e+00
1.081004e-05    -5.298087e-05    0.000000e+00
1.447491e-05    -5.311116e-05    0.000000e+00
1.819252e-05    -5.327868e-05    0.000000e+00
-1.861325e-05    -5.707006e-05    0.000000e+00
-1.481149e-05    -5.691301e-05    0.000000e+00
-1.106248e-05    -5.679086e-05    0.000000e+00
-7.353011e-06    -5.670361e-05    0.000000e+00
-3.669914e-06    -5.665126e-05    0.000000e+00
-8.775261e-19    -5.663381e-05    0.000000e+00
3.669914e-06    -5.665126e-05    0.000000e+00
7.353011e-06    -5.670361e-05    0.000000e+00
1.106248e-05    -5.679086e-05    0.000000e+00
1.481149e-05    -5.691301e-05    0.000000e+00
1.861325e-05    -5.707006e-05    0.000000e+00
-1.900683e-05    -6.094287e-05    0.000000e+00
-1.512636e-05    -6.079629e-05    0.000000e+00
-1.129863e-05    -6.068229e-05    0.000000e+00
-7.510448e-06    -6.060086e-05    0.000000e+00
-3.748633e-06    -6.055200e-05    0.000000e+00
-8.940433e-19    -6.053571e-05    0.000000e+00
3.748633e-06    -6.055200e-05    0.000000e+00
7.510448e-06    -6.060086e-05    0.000000e+00
1.129863e-05    -6.068229e-05    0.000000e+00
1.512636e-05    -6.079629e-05    0.000000e+00
1.900683e-05    -6.094287e-05    0.000000e+00
-1.937327e-05    -6.489169e-05    0.000000e+00
-1.541952e-05    -6.475558e-05    0.000000e+00
-1.151850e-05    -6.464972e-05    0.000000e+00
-7.657028e-06    -6.457410e-05    0.000000e+00
-3.821923e-06    -6.452873e-05    0.000000e+00
-9.033606e-19    -6.451361e-05    0.000000e+00
3.821923e-06    -6.452873e-05    0.000000e+00
7.657028e-06    -6.457410e-05    0.000000e+00
1.151850e-05    -6.464972e-05    0.000000e+00
1.541952e-05    -6.475558e-05    0.000000e+00
1.937327e-05    -6.489169e-05    0.000000e+00
-1.971256e-05    -6.891107e-05    0.000000e+00
-1.569095e-05    -6.878544e-05    0.000000e+00
-1.172208e-05    -6.868772e-05    0.000000e+00
-7.792750e-06    -6.861792e-05    0.000000e+00
-3.889784e-06    -6.857604e-05    0.000000e+00
-8.840906e-19    -6.856208e-05    0.000000e+00
3.889784e-06    -6.857604e-05    0.000000e+00
7.792750e-06    -6.861792e-05    0.000000e+00
1.172208e-05    -6.868772e-05    0.000000e+00
1.569095e-05    -6.878544e-05    0.000000e+00
1.971256e-05    -6.891107e-05    0.000000e+00
-2.002471e-05    -7.299559e-05    0.000000e+00
-1.594068e-05    -7.288043e-05    0.000000e+00
-1.190938e-05    -7.279086e-05    0.000000e+00
-7.917611e-06    -7.272688e-05    0.000000e+00
-3.952212e-06    -7.268851e-05    0.000000e+00
-8.758321e-19    -7.267572e-05    0.000000e+00
3.952212e-06    -7.268851e-05    0.000000e+00
7.917611e-06    -7.272688e-05    0.000000e+00
1.190938e-05    -7.279086e-05    0.000000e+00
1.594068e-05    -7.288043e-05    0.000000e+00
2.002471e-05    -7.299559e-05    0.000000e+00
-2.030971e-05    -7.713981e-05    0.000000e+00
-1.616869e-05    -7.703511e-05    0.000000e+00
-1.208038e-05    -7.695370e-05    0.000000e+00
-8.031599e-06    -7.689557e-05    0.000000e+00
-4.009198e-06    -7.686071e-05    0.000000e+00
-9.054782e-19    -7.684909e-05    0.000000e+00
4.009198e-06    -7.686071e-05    0.000000e+00
8.031599e-06    -7.689557e-05    0.000000e+00
1.208038e-05    -7.695370e-05    0.000000e+00
1.616869e-05    -7.703511e-05    0.000000e+00
2.030971e-05    -7.713981e-05    0.000000e+00
-2.056757e-05    -8.133827e-05    0.000000e+00
-1.637501e-05    -8.124404e-05    0.000000e+00
-1.223508e-05    -8.117079e-05    0.000000e+00
-8.134685e-06    -8.111855e-05    0.000000e+00
-4.060719e-06    -8.108725e-05    0.000000e+00
-9.440182e-19    -8.107682e-05    0.000000e+00
4.060719e-06    -8.108725e-05    0.000000e+00
8.134685e-06    -8.111855e-05    0.000000e+00
1.223508e-05    -8.117079e-05    0.000000e+00
1.637501e-05    -8.124404e-05    0.000000e+00
2.056757e-05    -8.133827e-05    0.000000e+00
-2.079833e-05    -8.558550e-05    0.000000e+00
-1.655963e-05    -8.550173e-05    0.000000e+00
-1.237344e-05    -8.543669e-05    0.000000e+00
-8.226802e-06    -8.539041e-05    0.000000e+00
-4.106724e-06    -8.536275e-05    0.000000e+00
-1.019828e-18    -8.535356e-05    0.000000e+00
4.106724e-06    -8.536275e-05    0.000000e+00
8.226802e-06    -8.539041e-05    0.000000e+00
1.237344e-05    -8.543669e-05    0.000000e+00
1.655963e-05    -8.550173e-05    0.000000e+00
2.079833e-05    -8.558550e-05    0.000000e+00
-2.100210e-05    -8.987603e-05    0.000000e+00
-1.672261e-05    -8.980269e-05    0.000000e+00
-1.249537e-05    -8.974594e-05    0.000000e+00
-8.307807e-06    -8.970578e-05    0.000000e+00
-4.147107e-06    -8.968192e-05    0.000000e+00
-1.101566e-18    -8.967401e-05    0.000000e+00
4.147107e-06    -8.968192e-05    0.000000e+00
8.307807e-06    -8.970578e-05    0.000000e+00
1.249537e-05    -8.974594e-05    0.000000e+00
1.672261e-05    -8.980269e-05    0.000000e+00
2.100210e-05    -8.987603e-05    0.000000e+00
-2.117912e-05    -9.420439e-05    0.000000e+00
-1.686399e-05    -9.414142e-05    0.000000e+00
-1.260070e-05    -9.409307e-05    0.000000e+00
-8.377428e-06    -9.405931e-05    0.000000e+00
-4.181679e-06    -9.403948e-05    0.000000e+00
-1.151118e-18    -9.403296e-05    0.000000e+00
4.181679e-06    -9.403948e-05    0.000000e+00
8.377428e-06    -9.405931e-05    0.000000e+00
1.260070e-05    -9.409307e-05    0.000000e+00
1.686399e-05    -9.414142e-05    0.000000e+00
2.117912e-05    -9.420439e-05    0.000000e+00
-2.132994e-05    -9.856523e-05    0.000000e+00
-1.698387e-05    -9.851248e-05    0.000000e+00
-1.268909e-05    -9.847276e-05    0.000000e+00
-8.435205e-06    -9.844575e-05    0.000000e+00
-4.210141e-06    -9.843026e-05    0.000000e+00
-1.213375e-18    -9.842523e-05    0.000000e+00
4.210141e-06    -9.843026e-05    0.000000e+00
8.435205e-06    -9.844575e-05    0.000000e+00
1.268909e-05    -9.847276e-05    0.000000e+00
1.698387e-05    -9.851248e-05    0.000000e+00
2.132994e-05    -9.856523e-05    0.000000e+00
-2.145562e-05    -1.029537e-04    0.000000e+00
-1.708235e-05    -1.029109e-04    0.000000e+00
-1.275997e-05    -1.028800e-04    0.000000e+00
-8.480517e-06    -1.028600e-04    0.000000e+00
-4.232143e-06    -1.028489e-04    0.000000e+00
-1.281561e-18    -1.028454e-04    0.000000e+00
4.232143e-06    -1.028489e-04    0.000000e+00
8.480517e-06    -1.028600e-04    0.000000e+00
1.275997e-05    -1.028800e-04    0.000000e+00
1.708235e-05    -1.029109e-04    0.000000e+00
2.145562e-05    -1.029537e-04    0.000000e+00
-2.155817e-05    -1.073660e-04    0.000000e+00
-1.715935e-05    -1.073327e-04    0.000000e+00
-1.281258e-05    -1.073105e-04    0.000000e+00
-8.512904e-06    -1.072970e-04    0.000000e+00
-4.247579e-06    -1.072895e-04    0.000000e+00
-1.238786e-18    -1.072870e-04    0.000000e+00
4.247579e-06    -1.072895e-04    0.000000e+00
8.512904e-06    -1.072970e-04    0.000000e+00
1.281258e-05    -1.073105e-04    0.000000e+00
1.715935e-05    -1.073327e-04    0.000000e+00
2.155817e-05    -1.073660e-04    0.000000e+00
-2.164067e-05    -1.118022e-04    0.000000e+00
-1.721429e-05    -1.117772e-04    0.000000e+00
-1.284670e-05    -1.117621e-04    0.000000e+00
-8.533270e-06    -1.117511e-04    0.000000e+00
-4.257281e-06    -1.117436e-04    0.000000e+00
-1.163400e-18    -1.117409e-04    0.000000e+00
4.257281e-06    -1.117436e-04    0.000000e+00
8.533270e-06    -1.117511e-04    0.000000e+00
1.284670e-05    -1.117621e-04    0.000000e+00
1.721429e-05    -1.117772e-04    0.000000e+00
2.164067e-05    -1.118022e-04    0.000000e+00
-2.170513e-05    -1.162704e-04    0.000000e+00
-1.724615e-05    -1.162523e-04    0.000000e+00
-1.286626e-05    -1.162338e-04    0.000000e+00
-8.546206e-06    -1.162132e-04    0.000000e+00
-4.263865e-06    -1.161978e-04    0.000000e+00
-1.162129e-18    -1.161922e-04    0.000000e+00
4.263865e-06    -1.161978e-04    0.000000e+00
8.546206e-06    -1.162132e-04    0.000000e+00
1.286626e-05    -1.162338e-04    0.000000e+00
1.724615e-05    -1.162523e-04    0.000000e+00
2.170513e-05    -1.162704e-04    0.000000e+00
-2.173924e-05    -1.208105e-04    0.000000e+00
-1.726634e-05    -1.207758e-04    0.000000e+00
-1.288608e-05    -1.207173e-04    0.000000e+00
-8.561321e-06    -1.206645e-04    0.000000e+00
-4.272039e-06    -1.206293e-04    0.000000e+00
-1.165941e-18    -1.206170e-04    0.000000e+00
4.272039e-06    -1.206293e-04    0.000000e+00
8.561321e-06    -1.206645e-04    0.000000e+00
1.288608e-05    -1.207173e-04    0.000000e+00
1.726634e-05    -1.207758e-04    0.000000e+00
2.173924e-05    -1.208105e-04    0.000000e+00

CELL_DATA      400
TENSORS Element_Stress6.400000e-01 double
1.820598e+06 2.551812e+05        0
2.551812e+05 4.163488e+05        0
       0        0        0

1.243720e+06 1.308538e+05        0
1.308538e+05 3.566178e+05        0
       0        0        0

8.651185e+05 4.301032e+04        0
4.301032e+04 2.749959e+05        0
       0        0        0

5.100063e+05 -3.578363e+03        0
-3.578363e+03 1.690094e+05        0
       0        0        0

1.688541e+05 -2.488323e+04        0
-2.488323e+04 5.694968e+04        0
       0        0        0

-1.688184e+05 -2.487711e+04        0
-2.487711e+04 -5.695775e+04        0
       0        0        0

-5.095306e+05 -3.579112e+03        0
-3.579112e+03 -1.688447e+05        0
       0        0        0

-8.637077e+05 4.293851e+04        0
4.293851e+04 -2.744671e+05        0
       0        0        0

-1.240734e+06 1.305652e+05        0
1.305652e+05 -3.554740e+05        0
       0        0        0

-1.814375e+06 2.543707e+05        0
2.543707e+05 -4.141970e+05        0
       0        0        0

1.642070e+06 4.159748e+04        0
4.159748e+04 4.234799e+03        0
       0        0        0

1.322354e+06 1.206454e+05        0
1.206454e+05 1.286843e+05        0
       0        0        0

9.082521e+05 9.900755e+04        0
9.900755e+04 1.315191e+05        0
       0        0        0

5.364025e+05 7.580678e+04        0
7.580678e+04 9.193311e+04        0
       0        0        0

1.768172e+05 6.321707e+04        0
6.321707e+04 3.207757e+04        0
       0        0        0

-1.778550e+05 6.319873e+04        0
6.319873e+04 -3.316896e+04        0
       0        0        0

-5.369363e+05 7.574133e+04        0
7.574133e+04 -9.284490e+04        0
       0        0        0

-9.077061e+05 9.886737e+04        0
9.886737e+04 -1.320379e+05        0
       0        0        0

-1.319830e+06 1.204079e+05        0
1.204079e+05 -1.284324e+05        0
       0        0        0

-1.637466e+06 4.151082e+04        0
4.151082e+04 -3.136555e+03        0
       0        0        0

1.584953e+06 1.541639e+04        0
1.541639e+04 6.615316e+03        0
       0        0        0

1.271591e+06 6.833109e+04        0
6.833109e+04 1.757728e+04        0
       0        0        0

9.146413e+05 1.015639e+05        0
1.015639e+05 4.237686e+04        0
       0        0        0

5.430826e+05 1.074765e+05        0
1.074765e+05 3.592346e+04        0
       0        0        0

1.791459e+05 1.074054e+05        0
1.074054e+05 1.272037e+04        0
       0        0        0

-1.824790e+05 1.073775e+05        0
1.073775e+05 -1.611190e+04        0
       0        0        0

-5.458838e+05 1.073933e+05        0
1.073933e+05 -3.912503e+04        0
       0        0        0

-9.163117e+05 1.014348e+05        0
1.014348e+05 -4.515293e+04        0
       0        0        0

-1.271565e+06 6.821622e+04        0
6.821622e+04 -1.966893e+04        0
       0        0        0

-1.582978e+06 1.538448e+04        0
1.538448e+04 -7.911807e+03        0
       0        0        0

1.546129e+06 1.427370e+04        0
1.427370e+04 -3.975752e+03        0
       0        0        0

1.226683e+06 5.548208e+04        0
5.548208e+04 -1.953361e+03        0
       0        0        0

8.865538e+05 9.245024e+04        0
9.245024e+04 2.933168e+03        0
       0        0        0

5.331314e+05 1.146030e+05        0
1.146030e+05 5.877770e+03        0
       0        0        0

1.753740e+05 1.233579e+05        0
1.233579e+05 6.880625e+02        0
       0        0        0

-1.820438e+05 1.233283e+05        0
1.233283e+05 -7.415933e+03        0
       0        0        0

-5.392752e+05 1.145213e+05        0
1.145213e+05 -1.241206e+04        0
       0        0        0

-8.916350e+05 9.234262e+04        0
9.234262e+04 -9.058365e+03        0
       0        0        0

-1.230189e+06 5.539388e+04        0
5.539388e+04 -3.528931e+03        0
       0        0        0

-1.547532e+06 1.424568e+04        0
1.424568e+04 -5.504384e+02        0
       0        0        0

1.509427e+06 1.713063e+04        0
1.713063e+04 -5.567249e+03        0
       0        0        0

1.185340e+06 5.448733e+04        0
5.448733e+04 -8.577651e+03        0
       0        0        0

8.541561e+05 8.905469e+04        0
8.905469e+04 -8.329305e+03        0
       0        0        0

5.137340e+05 1.136408e+05        0
1.136408e+05 -6.745280e+03        0
       0        0        0

1.681056e+05 1.258450e+05        0
1.258450e+05 -5.639044e+03        0
       0        0        0

-1.789903e+05 1.258166e+05        0
1.258166e+05 -5.300819e+03        0
       0        0        0

-5.241237e+05 1.135646e+05        0
1.135646e+05 -4.010288e+03        0
       0        0        0

-8.635542e+05 8.895612e+04        0
8.895612e+04 -2.042812e+03        0
       0        0        0

-1.193244e+06 5.440409e+04        0
5.440409e+04 -1.179541e+03        0
       0        0        0

-1.515273e+06 1.709766e+04        0
1.709766e+04 -3.264824e+03        0
       0        0        0

1.469671e+06 1.958963e+04        0
1.958963e+04 -7.911531e+03        0
       0        0        0

1.147077e+06 5.644559e+04        0
5.644559e+04 -1.054799e+04        0
       0        0        0

8.224151e+05 8.838594e+04        0
8.838594e+04 -1.192774e+04        0
       0        0        0

4.928620e+05 1.117722e+05        0
1.117722e+05 -1.113898e+04        0
       0        0        0

1.594065e+05 1.239614e+05        0
1.239614e+05 -9.157848e+03        0
       0        0        0

-1.752704e+05 1.239347e+05        0
1.239347e+05 -6.757342e+03        0
       0        0        0

-5.082716e+05 1.117003e+05        0
1.117003e+05 -4.611022e+03        0
       0        0        0

-8.369138e+05 8.829171e+04        0
8.829171e+04 -3.479956e+03        0
       0        0        0

-1.160194e+06 5.636191e+04        0
5.636191e+04 -4.312364e+03        0
       0        0        0

-1.480879e+06 1.955284e+04        0
1.955284e+04 -6.139554e+03        0
       0        0        0

1.427069e+06 2.114429e+04        0
2.114429e+04 -1.052964e+04        0
       0        0        0

1.109854e+06 5.834958e+04        0
5.834958e+04 -1.236661e+04        0
       0        0        0

7.924051e+05 8.864128e+04        0
8.864128e+04 -1.362108e+04        0
       0        0        0

4.726277e+05 1.103428e+05        0
1.103428e+05 -1.337050e+04        0
       0        0        0

1.506199e+05 1.216735e+05        0
1.216735e+05 -1.181697e+04        0
       0        0        0

-1.721469e+05 1.216483e+05        0
1.216483e+05 -9.757740e+03        0
       0        0        0

-4.937482e+05 1.102742e+05        0
1.102742e+05 -8.067258e+03        0
       0        0        0

-8.127094e+05 8.854973e+04        0
8.854973e+04 -7.533908e+03        0
       0        0        0

-1.128918e+06 5.826553e+04        0
5.826553e+04 -8.339735e+03        0
       0        0        0

-1.444434e+06 2.110561e+04        0
2.110561e+04 -9.528609e+03        0
       0        0        0

1.382471e+06 2.200181e+04        0
2.200181e+04 -1.363722e+04        0
       0        0        0

1.072891e+06 5.961398e+04        0
5.961398e+04 -1.472183e+04        0
       0        0        0

7.635785e+05 8.901007e+04        0
8.901007e+04 -1.557414e+04        0
       0        0        0

4.533125e+05 1.094858e+05        0
1.094858e+05 -1.552412e+04        0
       0        0        0

1.419522e+05 1.200358e+05        0
1.200358e+05 -1.458784e+04        0
       0        0        0

-1.697603e+05 1.200117e+05        0
1.200117e+05 -1.326479e+04        0
       0        0        0

-4.807667e+05 1.094198e+05        0
1.094198e+05 -1.222641e+04        0
       0        0        0

-7.903212e+05 8.892090e+04        0
8.892090e+04 -1.196593e+04        0
       0        0        0

-1.098554e+06 5.953060e+04        0
5.953060e+04 -1.248635e+04        0
       0        0        0

-1.406666e+06 2.196271e+04        0
2.196271e+04 -1.309846e+04        0
       0        0        0

1.336650e+06 2.243103e+04        0
2.243103e+04 -1.712975e+04        0
       0        0        0

1.035846e+06 6.032508e+04        0
6.032508e+04 -1.770734e+04        0
       0        0        0

7.353690e+05 8.928001e+04        0
8.928001e+04 -1.819357e+04        0
       0        0        0

4.345842e+05 1.090314e+05        0
1.090314e+05 -1.820574e+04        0
       0        0        0

1.333510e+05 1.190751e+05        0
1.190751e+05 -1.770719e+04        0
       0        0        0

-1.679948e+05 1.190519e+05        0
1.190519e+05 -1.697818e+04        0
       0        0        0

-4.689286e+05 1.089678e+05        0
1.089678e+05 -1.641605e+04        0
       0        0        0

-7.691116e+05 8.919329e+04        0
8.919329e+04 -1.629667e+04        0
       0        0        0

-1.068676e+06 6.024325e+04        0
6.024325e+04 -1.657480e+04        0
       0        0        0

-1.368246e+06 2.239236e+04        0
2.239236e+04 -1.685617e+04        0
       0        0        0

1.290108e+06 2.262769e+04        0
2.262769e+04 -2.093370e+04        0
       0        0        0

9.986145e+05 6.068320e+04        0
6.068320e+04 -2.119241e+04        0
       0        0        0

7.073840e+05 8.943847e+04        0
8.943847e+04 -2.142407e+04        0
       0        0        0

4.161153e+05 1.088122e+05        0
1.088122e+05 -2.143279e+04        0
       0        0        0

1.247137e+05 1.185759e+05        0
1.185759e+05 -2.118594e+04        0
       0        0        0

-1.666835e+05 1.185536e+05        0
1.185536e+05 -2.082274e+04        0
       0        0        0

-4.578408e+05 1.087507e+05        0
1.087507e+05 -2.055219e+04        0
       0        0        0

-7.486181e+05 8.935433e+04        0
8.935433e+04 -2.051028e+04        0
       0        0        0

-1.039104e+06 6.060345e+04        0
6.060345e+04 -2.065826e+04        0
       0        0        0

-1.329592e+06 2.258991e+04        0
2.258991e+04 -2.079207e+04        0
       0        0        0

1.243138e+06 2.270943e+04        0
2.270943e+04 -2.498210e+04        0
       0        0        0

9.611829e+05 6.084707e+04        0
6.084707e+04 -2.504187e+04        0
       0        0        0

6.794119e+05 8.952007e+04        0
8.952007e+04 -2.510676e+04        0
       0        0        0

3.976942e+05 1.087151e+05        0
1.087151e+05 -2.508705e+04        0
       0        0        0

1.159751e+05 1.183403e+05        0
1.183403e+05 -2.496213e+04        0
       0        0        0

-1.656966e+05 1.183187e+05        0
1.183187e+05 -2.479576e+04        0
       0        0        0

-4.472257e+05 1.086557e+05        0
1.086557e+05 -2.468699e+04        0
       0        0        0

-7.285608e+05 8.943859e+04        0
8.943859e+04 -2.469694e+04        0
       0        0        0

-1.009752e+06 6.076971e+04        0
6.076971e+04 -2.480000e+04        0
       0        0        0

-1.290922e+06 2.267274e+04        0
2.267274e+04 -2.489961e+04        0
       0        0        0

1.195902e+06 2.273919e+04        0
2.273919e+04 -2.922324e+04        0
       0        0        0

9.235708e+05 6.091458e+04        0
6.091458e+04 -2.915047e+04        0
       0        0        0

6.513590e+05 8.955767e+04        0
8.955767e+04 -2.910387e+04        0
       0        0        0

3.792147e+05 1.086759e+05        0
1.086759e+05 -2.904718e+04        0
       0        0        0

1.071092e+05 1.182389e+05        0
1.182389e+05 -2.896999e+04        0
       0        0        0

-1.649443e+05 1.182180e+05        0
1.182180e+05 -2.889900e+04        0
       0        0        0

-4.369126e+05 1.086185e+05        0
1.086185e+05 -2.887696e+04        0
       0        0        0

-7.087800e+05 8.947891e+04        0
8.947891e+04 -2.892824e+04        0
       0        0        0

-9.805709e+05 6.083975e+04        0
6.083975e+04 -2.903784e+04        0
       0        0        0

-1.252330e+06 2.270369e+04        0
2.270369e+04 -2.916302e+04        0
       0        0        0

1.148491e+06 2.274763e+04        0
2.274763e+04 -3.361527e+04        0
       0        0        0

8.858087e+05 6.093851e+04        0
6.093851e+04 -3.344415e+04        0
       0        0        0

6.231974e+05 8.957284e+04        0
8.957284e+04 -3.331675e+04        0
       0        0        0

3.606384e+05 1.086618e+05        0
1.086618e+05 -3.322145e+04        0
       0        0        0

9.811734e+04 1.181997e+05        0
1.181997e+05 -3.315416e+04        0
       0        0        0

-1.643651e+05 1.181796e+05        0
1.181796e+05 -3.312513e+04        0
       0        0        0

-4.268000e+05 1.086064e+05        0
1.086064e+05 -3.315081e+04        0
       0        0        0

-6.891844e+05 8.949683e+04        0
8.949683e+04 -3.323922e+04        0
       0        0        0

-9.515284e+05 6.086627e+04        0
6.086627e+04 -3.338182e+04        0
       0        0        0

-1.213844e+06 2.271337e+04        0
2.271337e+04 -3.356049e+04        0
       0        0        0

1.100960e+06 2.274841e+04        0
2.274841e+04 -3.812278e+04        0
       0        0        0

8.479289e+05 6.094459e+04        0
6.094459e+04 -3.787019e+04        0
       0        0        0

5.949322e+05 8.957762e+04        0
8.957762e+04 -3.767803e+04        0
       0        0        0

3.419635e+05 1.086573e+05        0
1.086573e+05 -3.754494e+04        0
       0        0        0

8.901558e+04 1.181867e+05        0
1.181867e+05 -3.747027e+04        0
       0        0        0

-1.639142e+05 1.181674e+05        0
1.181674e+05 -3.745768e+04        0
       0        0        0

-4.168253e+05 1.086039e+05        0
1.086039e+05 -3.751247e+04        0
       0        0        0

-6.697180e+05 8.950436e+04        0
8.950436e+04 -3.763608e+04        0
       0        0        0

-9.225952e+05 6.087498e+04        0
6.087498e+04 -3.782343e+04        0
       0        0        0

-1.175457e+06 2.271539e+04        0
2.271539e+04 -3.806658e+04        0
       0        0        0

1.053347e+06 2.274703e+04        0
2.274703e+04 -4.271420e+04        0
       0        0        0

8.099626e+05 6.094429e+04        0
6.094429e+04 -4.238866e+04        0
       0        0        0

5.665832e+05 8.957803e+04        0
8.957803e+04 -4.214000e+04        0
       0        0        0

3.232060e+05 1.086559e+05        0
1.086559e+05 -4.197068e+04        0
       0        0        0

7.982720e+04 1.181835e+05        0
1.181835e+05 -4.188171e+04        0
       0        0        0

-1.635563e+05 1.181649e+05        0
1.181649e+05 -4.187447e+04        0
       0        0        0

-4.069457e+05 1.086046e+05        0
1.086046e+05 -4.195008e+04        0
       0        0        0

-6.503417e+05 8.950753e+04        0
8.950753e+04 -4.210767e+04        0
       0        0        0

-8.937438e+05 6.087730e+04        0
6.087730e+04 -4.234382e+04        0
       0        0        0

-1.137148e+06 2.271526e+04        0
2.271526e+04 -4.265429e+04        0
       0        0        0

1.005683e+06 2.274539e+04        0
2.274539e+04 -4.736038e+04        0
       0        0        0

7.719394e+05 6.094219e+04        0
6.094219e+04 -4.696667e+04        0
       0        0        0

5.381756e+05 8.957681e+04        0
8.957681e+04 -4.666608e+04        0
       0        0        0

3.043894e+05 1.086553e+05        0
1.086553e+05 -4.646218e+04        0
       0        0        0

7.057816e+04 1.181832e+05        0
1.181832e+05 -4.635676e+04        0
       0        0        0

-1.632605e+05 1.181653e+05        0
1.181653e+05 -4.635058e+04        0
       0        0        0

-3.971278e+05 1.086060e+05        0
1.086060e+05 -4.644347e+04        0
       0        0        0

-6.310240e+05 8.950907e+04        0
8.950907e+04 -4.663394e+04        0
       0        0        0

-8.649473e+05 6.087783e+04        0
6.087783e+04 -4.691929e+04        0
       0        0        0

-1.098893e+06 2.271487e+04        0
2.271487e+04 -4.729637e+04        0
       0        0        0

9.579955e+05 2.274400e+04        0
2.274400e+04 -5.203381e+04        0
       0        0        0

7.338873e+05 6.093989e+04        0
6.093989e+04 -5.157525e+04        0
       0        0        0

5.097360e+05 8.957508e+04        0
8.957508e+04 -5.122566e+04        0
       0        0        0

2.855393e+05 1.086546e+05        0
1.086546e+05 -5.098880e+04        0
       0        0        0

6.129495e+04 1.181835e+05        0
1.181835e+05 -5.086675e+04        0
       0        0        0

-1.629989e+05 1.181663e+05        0
1.181663e+05 -5.086025e+04        0
       0        0        0

-3.873432e+05 1.086073e+05        0
1.086073e+05 -5.096887e+04        0
       0        0        0

-6.117373e+05 8.951011e+04        0
8.951011e+04 -5.119108e+04        0
       0        0        0

-8.361791e+05 6.087815e+04        0
6.087815e+04 -5.152449e+04        0
       0        0        0

-1.060664e+06 2.271473e+04        0
2.271473e+04 -5.196605e+04        0
       0        0        0

9.103102e+05 2.274290e+04        0
2.274290e+04 -5.670829e+04        0
       0        0        0

6.958326e+05 6.093780e+04        0
6.093780e+04 -5.618768e+04        0
       0        0        0

4.812907e+05 8.957328e+04        0
8.957328e+04 -5.579141e+04        0
       0        0        0

2.666817e+05 1.086537e+05        0
1.086537e+05 -5.552312e+04        0
       0        0        0

5.200354e+04 1.181835e+05        0
1.181835e+05 -5.538500e+04        0
       0        0        0

-1.627453e+05 1.181671e+05        0
1.181671e+05 -5.537790e+04        0
       0        0        0

-3.775653e+05 1.086084e+05        0
1.086084e+05 -5.550144e+04        0
       0        0        0

-5.924555e+05 8.951107e+04        0
8.951107e+04 -5.575422e+04        0
       0        0        0

-8.074137e+05 6.087870e+04        0
6.087870e+04 -5.613390e+04        0
       0        0        0

-1.022436e+06 2.271486e+04        0
2.271486e+04 -5.663735e+04        0
       0        0        0

8.626520e+05 2.274198e+04        0
2.274198e+04 -6.135878e+04        0
       0        0        0

6.578008e+05 6.093596e+04        0
6.093596e+04 -6.077882e+04        0
       0        0        0

4.528650e+05 8.957150e+04        0
8.957150e+04 -6.033795e+04        0
       0        0        0

2.478418e+05 1.086526e+05        0
1.086526e+05 -6.003971e+04        0
       0        0        0

4.272898e+04 1.181833e+05        0
1.181833e+05 -5.988630e+04        0
       0        0        0

-1.624747e+05 1.181676e+05        0
1.181676e+05 -5.987867e+04        0
       0        0        0

-3.677693e+05 1.086093e+05        0
1.086093e+05 -6.001656e+04        0
       0        0        0

-5.731539e+05 8.951206e+04        0
8.951206e+04 -6.029866e+04        0
       0        0        0

-7.786261e+05 6.087948e+04        0
6.087948e+04 -6.072266e+04        0
       0        0        0

-9.841819e+05 2.271520e+04        0
2.271520e+04 -6.128530e+04        0
       0        0        0

8.150447e+05 2.274119e+04        0
2.274119e+04 -6.596136e+04        0
       0        0        0

6.198157e+05 6.093429e+04        0
6.093429e+04 -6.532473e+04        0
       0        0        0

4.244830e+05 8.956978e+04        0
8.956978e+04 -6.484132e+04        0
       0        0        0

2.290436e+05 1.086514e+05        0
1.086514e+05 -6.451456e+04        0
       0        0        0

3.349528e+04 1.181828e+05        0
1.181828e+05 -6.434667e+04        0
       0        0        0

-1.621631e+05 1.181678e+05        0
1.181678e+05 -6.433865e+04        0
       0        0        0

-3.579315e+05 1.086101e+05        0
1.086101e+05 -6.449035e+04        0
       0        0        0

-5.538087e+05 8.951311e+04        0
8.951311e+04 -6.480052e+04        0
       0        0        0

-7.497925e+05 6.088043e+04        0
6.088043e+04 -6.526685e+04        0
       0        0        0

-9.458791e+05 2.271565e+04        0
2.271565e+04 -6.588596e+04        0
       0        0        0

7.675109e+05 2.274046e+04        0
2.274046e+04 -7.049318e+04        0
       0        0        0

5.819002e+05 6.093273e+04        0
6.093273e+04 -6.980260e+04        0
       0        0        0

3.961677e+05 8.956811e+04        0
8.956811e+04 -6.927870e+04        0
       0        0        0

2.103102e+05 1.086501e+05        0
1.086501e+05 -6.892486e+04        0
       0        0        0

2.432535e+04 1.181822e+05        0
1.181822e+05 -6.874327e+04        0
       0        0        0

-1.617877e+05 1.181679e+05        0
1.181679e+05 -6.873499e+04        0
       0        0        0

-3.480290e+05 1.086108e+05        0
1.086108e+05 -6.889993e+04        0
       0        0        0

-5.343973e+05 8.951420e+04        0
8.951420e+04 -6.923690e+04        0
       0        0        0

-7.208901e+05 6.088150e+04        0
6.088150e+04 -6.974356e+04        0
       0        0        0

-9.075041e+05 2.271617e+04        0
2.271617e+04 -7.041649e+04        0
       0        0        0

7.200723e+05 2.273978e+04        0
2.273978e+04 -7.493249e+04        0
       0        0        0

5.440762e+05 6.093125e+04        0
6.093125e+04 -7.419071e+04        0
       0        0        0

3.679410e+05 8.956648e+04        0
8.956648e+04 -7.362841e+04        0
       0        0        0

1.916633e+05 1.086488e+05        0
1.086488e+05 -7.324889e+04        0
       0        0        0

1.524098e+04 1.181815e+05        0
1.181815e+05 -7.305436e+04        0
       0        0        0

-1.613270e+05 1.181679e+05        0
1.181679e+05 -7.304590e+04        0
       0        0        0

-3.380404e+05 1.086115e+05        0
1.086115e+05 -7.322349e+04        0
       0        0        0

-5.148979e+05 8.951533e+04        0
8.951533e+04 -7.358598e+04        0
       0        0        0

-6.918973e+05 6.088265e+04        0
6.088265e+04 -7.413101e+04        0
       0        0        0

-8.690350e+05 2.271673e+04        0
2.271673e+04 -7.485511e+04        0
       0        0        0

6.727496e+05 2.273915e+04        0
2.273915e+04 -7.925863e+04        0
       0        0        0

5.063643e+05 6.092987e+04        0
6.092987e+04 -7.846843e+04        0
       0        0        0

3.398235e+05 8.956489e+04        0
8.956489e+04 -7.786983e+04        0
       0        0        0

1.731238e+05 1.086474e+05        0
1.086474e+05 -7.746605e+04        0
       0        0        0

6.262879e+03 1.181806e+05        0
1.181806e+05 -7.725929e+04        0
       0        0        0

-1.607601e+05 1.181679e+05        0
1.181679e+05 -7.725069e+04        0
       0        0        0

-3.279448e+05 1.086121e+05        0
1.086121e+05 -7.744030e+04        0
       0        0        0

-4.952900e+05 8.951651e+04        0
8.951651e+04 -7.782701e+04        0
       0        0        0

-6.627933e+05 6.088389e+04        0
6.088389e+04 -7.840849e+04        0
       0        0        0

-8.304513e+05 2.271735e+04        0
2.271735e+04 -7.918115e+04        0
       0        0        0

6.255623e+05 2.273859e+04        0
2.273859e+04 -8.345202e+04        0
       0        0        0

4.687842e+05 6.092860e+04        0
6.092860e+04 -8.261621e+04        0
       0        0        0

3.118350e+05 8.956335e+04        0
8.956335e+04 -8.198342e+04        0
       0        0        0

1.547113e+05 1.086460e+05        0
1.086460e+05 -8.155678e+04        0
       0        0        0

-2.589332e+03 1.181797e+05        0
1.181797e+05 -8.133849e+04        0
       0        0        0

-1.600676e+05 1.181676e+05        0
1.181676e+05 -8.132976e+04        0
       0        0        0

-3.177230e+05 1.086127e+05        0
1.086127e+05 -8.153073e+04        0
       0        0        0

-4.755540e+05 8.951773e+04        0
8.951773e+04 -8.194037e+04        0
       0        0        0

-6.335585e+05 6.088526e+04        0
6.088526e+04 -8.255636e+04        0
       0        0        0

-7.917331e+05 2.271804e+04        0
2.271804e+04 -8.337502e+04        0
       0        0        0

5.785286e+05 2.273817e+04        0
2.273817e+04 -8.749418e+04        0
       0        0        0

4.313542e+05 6.092752e+04        0
6.092752e+04 -8.661559e+04        0
       0        0        0

2.839942e+05 8.956185e+04        0
8.956185e+04 -8.595072e+04        0
       0        0        0

1.364444e+05 1.086444e+05        0
1.086444e+05 -8.550260e+04        0
       0        0        0

-1.129712e+04 1.181785e+05        0
1.181785e+05 -8.527347e+04        0
       0        0        0

-1.592310e+05 1.181672e+05        0
1.181672e+05 -8.526462e+04        0
       0        0        0

-3.073564e+05 1.086132e+05        0
1.086132e+05 -8.547630e+04        0
       0        0        0

-4.556717e+05 8.951900e+04        0
8.951900e+04 -8.590754e+04        0
       0        0        0

-6.041745e+05 6.088680e+04        0
6.088680e+04 -8.655609e+04        0
       0        0        0

-7.528619e+05 2.271886e+04        0
2.271886e+04 -8.741819e+04        0
       0        0        0

5.316658e+05 2.273795e+04        0
2.273795e+04 -9.136769e+04        0
       0        0        0

3.940921e+05 6.092663e+04        0
6.092663e+04 -9.044910e+04        0
       0        0        0

2.563184e+05 8.956035e+04        0
8.956035e+04 -8.975416e+04        0
       0        0        0

1.183407e+05 1.086427e+05        0
1.086427e+05 -8.928591e+04        0
       0        0        0

-1.984304e+04 1.181771e+05        0
1.181771e+05 -8.904673e+04        0
       0        0        0

-1.582329e+05 1.181665e+05        0
1.181665e+05 -8.903797e+04        0
       0        0        0

-2.968278e+05 1.086135e+05        0
1.086135e+05 -8.925978e+04        0
       0        0        0

-4.356257e+05 8.952026e+04        0
8.952026e+04 -8.971126e+04        0
       0        0        0

-5.746240e+05 6.088854e+04        0
6.088854e+04 -9.039032e+04        0
       0        0        0

-7.138200e+05 2.271989e+04        0
2.271989e+04 -9.129325e+04        0
       0        0        0

4.849900e+05 2.273796e+04        0
2.273796e+04 -9.505616e+04        0
       0        0        0

3.570143e+05 6.092577e+04        0
6.092577e+04 -9.410011e+04        0
       0        0        0

2.288244e+05 8.955862e+04        0
8.955862e+04 -9.337680e+04        0
       0        0        0

1.004164e+05 1.086409e+05        0
1.086409e+05 -9.288973e+04        0
       0        0        0

-2.821084e+04 1.181759e+05        0
1.181759e+05 -9.264170e+04        0
       0        0        0

-1.570570e+05 1.181660e+05        0
1.181660e+05 -9.263378e+04        0
       0        0        0

-2.861209e+05 1.086137e+05        0
1.086137e+05 -9.286554e+04        0
       0        0        0

-4.153999e+05 8.952130e+04        0
8.952130e+04 -9.333582e+04        0
       0        0        0

-5.448908e+05 6.089031e+04        0
6.089031e+04 -9.404299e+04        0
       0        0        0

-6.745908e+05 2.272114e+04        0
2.272114e+04 -9.498387e+04        0
       0        0        0

4.385165e+05 2.273798e+04        0
2.273798e+04 -9.854412e+04        0
       0        0        0

3.201365e+05 6.092413e+04        0
6.092413e+04 -9.755241e+04        0
       0        0        0

2.015270e+05 8.955604e+04        0
8.955604e+04 -9.680154e+04        0
       0        0        0

8.268605e+04 1.086393e+05        0
1.086393e+05 -9.629692e+04        0
       0        0        0

-3.638570e+04 1.181760e+05        0
1.181760e+05 -9.604233e+04        0
       0        0        0

-1.556878e+05 1.181669e+05        0
1.181669e+05 -9.603768e+04        0
       0        0        0

-2.752197e+05 1.086142e+05        0
1.086142e+05 -9.628030e+04        0
       0        0        0

-3.949789e+05 8.952148e+04        0
8.952148e+04 -9.676788e+04        0
       0        0        0

-5.149601e+05 6.089129e+04        0
6.089129e+04 -9.749979e+04        0
       0        0        0

-6.351590e+05 2.272241e+04        0
2.272241e+04 -9.847493e+04        0
       0        0        0

3.922608e+05 2.273705e+04        0
2.273705e+04 -1.018168e+05        0
       0        0        0

2.834737e+05 6.091918e+04        0
6.091918e+04 -1.007892e+05        0
       0        0        0

1.744389e+05 8.955103e+04        0
8.955103e+04 -1.000095e+05        0
       0        0        0

6.516112e+04 1.086394e+05        0
1.086394e+05 -9.948864e+04        0
       0        0        0

-4.435479e+04 1.181814e+05        0
1.181814e+05 -9.923256e+04        0
       0        0        0

-1.541098e+05 1.181730e+05        0
1.181730e+05 -9.923756e+04        0
       0        0        0

-2.641076e+05 1.086162e+05        0
1.086162e+05 -9.949471e+04        0
       0        0        0

-3.743470e+05 8.951924e+04        0
8.951924e+04 -9.999807e+04        0
       0        0        0

-4.848186e+05 6.088897e+04        0
6.088897e+04 -1.007491e+05        0
       0        0        0

-5.955116e+05 2.272272e+04        0
2.272272e+04 -1.017526e+05        0
       0        0        0

3.462408e+05 2.273213e+04        0
2.273213e+04 -1.048596e+05        0
       0        0        0

2.470402e+05 6.090435e+04        0
6.090435e+04 -1.037913e+05        0
       0        0        0

1.475679e+05 8.953998e+04        0
8.953998e+04 -1.029768e+05        0
       0        0        0

4.784706e+04 1.086446e+05        0
1.086446e+05 -1.024414e+05        0
       0        0        0

-5.210859e+04 1.182015e+05        0
1.182015e+05 -1.021950e+05        0
       0        0        0

-1.523066e+05 1.181938e+05        0
1.181938e+05 -1.022248e+05        0
       0        0        0

-2.527641e+05 1.086235e+05        0
1.086235e+05 -1.025064e+05        0
       0        0        0

-3.534861e+05 8.951095e+04        0
8.951095e+04 -1.030243e+05        0
       0        0        0

-4.544544e+05 6.087677e+04        0
6.087677e+04 -1.037842e+05        0
       0        0        0

-5.556397e+05 2.271905e+04        0
2.271905e+04 -1.048050e+05        0
       0        0        0

3.004822e+05 2.271539e+04        0
2.271539e+04 -1.076574e+05        0
       0        0        0

2.108493e+05 6.086437e+04        0
6.086437e+04 -1.065333e+05        0
       0        0        0

1.209111e+05 8.951546e+04        0
8.951546e+04 -1.056691e+05        0
       0        0        0

3.073692e+04 1.086641e+05        0
1.086641e+05 -1.051219e+05        0
       0        0        0

-5.964355e+04 1.182578e+05        0
1.182578e+05 -1.049091e+05        0
       0        0        0

-1.502580e+05 1.182508e+05        0
1.182508e+05 -1.049962e+05        0
       0        0        0

-2.411586e+05 1.086450e+05        0
1.086450e+05 -1.053249e+05        0
       0        0        0

-3.323700e+05 8.948920e+04        0
8.948920e+04 -1.058577e+05        0
       0        0        0

-4.238570e+05 6.083943e+04        0
6.083943e+04 -1.066065e+05        0
       0        0        0

-5.155448e+05 2.270357e+04        0
2.270357e+04 -1.076228e+05        0
       0        0        0

2.550302e+05 2.266861e+04        0
2.266861e+04 -1.101928e+05        0
       0        0        0

1.749112e+05 6.076689e+04        0
6.076689e+04 -1.089786e+05        0
       0        0        0

9.444394e+04 8.946363e+04        0
8.946363e+04 -1.080332e+05        0
       0        0        0

1.379929e+04 1.087177e+05        0
1.087177e+05 -1.074804e+05        0
       0        0        0

-6.696699e+04 1.183950e+05        0
1.183950e+05 -1.073481e+05        0
       0        0        0

-1.479345e+05 1.183887e+05        0
1.183887e+05 -1.075565e+05        0
       0        0        0

-2.292386e+05 1.087005e+05        0
1.087005e+05 -1.079789e+05        0
       0        0        0

-3.109536e+05 8.944014e+04        0
8.944014e+04 -1.085307e+05        0
       0        0        0

-3.930164e+05 6.074460e+04        0
6.074460e+04 -1.092323e+05        0
       0        0        0

-4.752498e+05 2.265805e+04        0
2.265805e+04 -1.102010e+05        0
       0        0        0

2.099707e+05 2.255312e+04        0
2.255312e+04 -1.124452e+05        0
       0        0        0

1.392276e+05 6.054966e+04        0
6.054966e+04 -1.110720e+05        0
       0        0        0

6.809783e+04 8.936201e+04        0
8.936201e+04 -1.099896e+05        0
       0        0        0

-3.042201e+03 1.088455e+05        0
1.088455e+05 -1.094456e+05        0
       0        0        0

-7.410476e+04 1.186961e+05        0
1.186961e+05 -1.094775e+05        0
       0        0        0

-1.452897e+05 1.186906e+05        0
1.186906e+05 -1.099193e+05        0
       0        0        0

-2.169085e+05 1.088304e+05        0
1.088304e+05 -1.105207e+05        0
       0        0        0

-2.891518e+05 8.934130e+04        0
8.934130e+04 -1.111065e+05        0
       0        0        0

-3.619182e+05 6.053005e+04        0
6.053005e+04 -1.117009e+05        0
       0        0        0

-4.348222e+05 2.254384e+04        0
2.254384e+04 -1.125421e+05        0
       0        0        0

1.654676e+05 2.229389e+04        0
2.229389e+04 -1.143894e+05        0
       0        0        0

1.037757e+05 6.010633e+04        0
6.010633e+04 -1.127378e+05        0
       0        0        0

4.172434e+04 8.918285e+04        0
8.918285e+04 -1.114369e+05        0
       0        0        0

-1.993674e+04 1.091211e+05        0
1.091211e+05 -1.109352e+05        0
       0        0        0

-8.111029e+04 1.192969e+05        0
1.192969e+05 -1.112604e+05        0
       0        0        0

-1.422485e+05 1.192922e+05        0
1.192922e+05 -1.121001e+05        0
       0        0        0

-2.040019e+05 1.091080e+05        0
1.091080e+05 -1.130150e+05        0
       0        0        0

-2.668047e+05 8.916493e+04        0
8.916493e+04 -1.136749e+05        0
       0        0        0

-3.305323e+05 6.008944e+04        0
6.008944e+04 -1.140806e+05        0
       0        0        0

-3.944153e+05 2.228592e+04        0
2.228592e+04 -1.146607e+05        0
       0        0        0

1.218143e+05 2.175987e+04        0
2.175987e+04 -1.160001e+05        0
       0        0        0

6.846991e+04 5.928775e+04        0
5.928775e+04 -1.139016e+05        0
       0        0        0

1.504776e+04 8.891653e+04        0
8.891653e+04 -1.123083e+05        0
       0        0        0

-3.712658e+04 1.096611e+05        0
1.096611e+05 -1.119237e+05        0
       0        0        0

-8.806576e+04 1.203706e+05        0
1.203706e+05 -1.126850e+05        0
       0        0        0

-1.387020e+05 1.203666e+05        0
1.203666e+05 -1.140839e+05        0
       0        0        0

-1.902583e+05 1.096500e+05        0
1.096500e+05 -1.154691e+05        0
       0        0        0

-2.436324e+05 8.890144e+04        0
8.890144e+04 -1.162985e+05        0
       0        0        0

-2.987810e+05 5.927361e+04        0
5.927361e+04 -1.164537e+05        0
       0        0        0

-3.543298e+05 2.175326e+04        0
2.175326e+04 -1.165894e+05        0
       0        0        0

7.947515e+04 2.075678e+04        0
2.075678e+04 -1.172821e+05        0
       0        0        0

3.307865e+04 5.797447e+04        0
5.797447e+04 -1.145899e+05        0
       0        0        0

-1.236393e+04 8.865059e+04        0
8.865059e+04 -1.127886e+05        0
       0        0        0

-5.490063e+04 1.106013e+05        0
1.106013e+05 -1.126577e+05        0
       0        0        0

-9.504947e+04 1.220074e+05        0
1.220074e+05 -1.138552e+05        0
       0        0        0

-1.345317e+05 1.220041e+05        0
1.220041e+05 -1.157267e+05        0
       0        0        0

-1.753639e+05 1.105923e+05        0
1.105923e+05 -1.176118e+05        0
       0        0        0

-2.192067e+05 8.863840e+04        0
8.863840e+04 -1.187962e+05        0
       0        0        0

-2.664683e+05 5.796312e+04        0
5.796312e+04 -1.188293e+05        0
       0        0        0

-3.150782e+05 2.075156e+04        0
2.075156e+04 -1.183719e+05        0
       0        0        0

3.901604e+04 1.910250e+04        0
1.910250e+04 -1.183311e+05        0
       0        0        0

-2.945801e+03 5.638064e+04        0
5.638064e+04 -1.153385e+05        0
       0        0        0

-4.097162e+04 8.874194e+04        0
8.874194e+04 -1.139163e+05        0
       0        0        0

-7.334316e+04 1.119428e+05        0
1.119428e+05 -1.141993e+05        0
       0        0        0

-1.020044e+05 1.238170e+05        0
1.238170e+05 -1.151847e+05        0
       0        0        0

-1.297257e+05 1.238146e+05        0
1.238146e+05 -1.165458e+05        0
       0        0        0

-1.591896e+05 1.119363e+05        0
1.119363e+05 -1.183359e+05        0
       0        0        0

-1.930733e+05 8.873286e+04        0
8.873286e+04 -1.201362e+05        0
       0        0        0

-2.331278e+05 5.637209e+04        0
5.637209e+04 -1.207525e+05        0
       0        0        0

-2.773664e+05 1.909865e+04        0
1.909865e+04 -1.200521e+05        0
       0        0        0

5.231885e+02 1.710271e+04        0
1.710271e+04 -1.199683e+05        0
       0        0        0

-4.055900e+04 5.592265e+04        0
5.592265e+04 -1.183223e+05        0
       0        0        0

-7.064224e+04 9.001307e+04        0
9.001307e+04 -1.192608e+05        0
       0        0        0

-9.160225e+04 1.128998e+05        0
1.128998e+05 -1.193451e+05        0
       0        0        0

-1.084793e+05 1.240404e+05        0
1.240404e+05 -1.176209e+05        0
       0        0        0

-1.246149e+05 1.240392e+05        0
1.240392e+05 -1.154734e+05        0
       0        0        0

-1.424954e+05 1.128964e+05        0
1.128964e+05 -1.147534e+05        0
       0        0        0

-1.653497e+05 9.000769e+04        0
9.000769e+04 -1.167341e+05        0
       0        0        0

-1.979384e+05 5.591692e+04        0
5.591692e+04 -1.201833e+05        0
       0        0        0

-2.416132e+05 1.710010e+04        0
1.710010e+04 -1.211410e+05        0
       0        0        0

-3.838756e+04 1.780089e+04        0
1.780089e+04 -1.241547e+05        0
       0        0        0

-8.056431e+04 6.133461e+04        0
6.133461e+04 -1.329179e+05        0
       0        0        0

-9.823377e+04 9.241439e+04        0
9.241439e+04 -1.376493e+05        0
       0        0        0

-1.069299e+05 1.101518e+05        0
1.101518e+05 -1.330247e+05        0
       0        0        0

-1.134903e+05 1.182691e+05        0
1.182691e+05 -1.226657e+05        0
       0        0        0

-1.199857e+05 1.182695e+05        0
1.182695e+05 -1.108102e+05        0
       0        0        0

-1.278480e+05 1.101525e+05        0
1.101525e+05 -1.017531e+05        0
       0        0        0

-1.390687e+05 9.241419e+04        0
9.241419e+04 -9.965328e+04        0
       0        0        0

-1.602170e+05 6.133242e+04        0
6.133242e+04 -1.078653e+05        0
       0        0        0

-2.060740e+05 1.779909e+04        0
1.779909e+04 -1.203165e+05        0
       0        0        0

-9.041227e+04 4.054631e+04        0
4.054631e+04 -1.562833e+05        0
       0        0        0

-1.138421e+05 7.593486e+04        0
7.593486e+04 -1.858539e+05        0
       0        0        0

-1.150718e+05 8.920336e+04        0
8.920336e+04 -1.817339e+05        0
       0        0        0

-1.153875e+05 9.571255e+04        0
9.571255e+04 -1.608397e+05        0
       0        0        0

-1.157489e+05 9.856239e+04        0
9.856239e+04 -1.317915e+05        0
       0        0        0

-1.168366e+05 9.856429e+04        0
9.856429e+04 -1.007937e+05        0
       0        0        0

-1.188659e+05 9.571771e+04        0
9.571771e+04 -7.341100e+04        0
       0        0        0

-1.225609e+05 8.921016e+04        0
8.921016e+04 -5.589328e+04        0
       0        0        0

-1.289065e+05 7.594047e+04        0
7.594047e+04 -5.688864e+04        0
       0        0        0

-1.586523e+05 4.054609e+04        0
4.054609e+04 -9.278138e+04        0
       0        0        0

POINT_DATA     451
VECTORS DISPLACEMENT_6.600000e-01 double
0.000000e+00    0.000000e+00    0.000000e+00
0.000000e+00    0.000000e+00    0.000000e+00
0.000000e+00    0.000000e+00    0.000000e+00
0.000000e+00    0.000000e+00    0.000000e+00
0.000000e+00    0.000000e+00    0.000000e+00
0.000000e+00    0.000000e+00    0.000000e+00
0.000000e+00    0.000000e+00    0.000000e+00
0.000000e+00    0.000000e+00    0.000000e+00
0.000000e+00    0.000000e+00    0.000000e+00
0.000000e+00    0.000000e+00    0.000000e+00
0.000000e+00    0.000000e+00    0.000000e+00
-1.141595e-06    -8.299605e-07    0.000000e+00
-7.233448e-07    -4.163094e-07    0.000000e+00
-5.161144e-07    -2.157261e-07    0.000000e+00
-3.332233e-07    -1.068318e-07    0.000000e+00
-1.642863e-07    -5.047426e-08    0.000000e+00
-3.266401e-20    -3.295145e-08    0.000000e+00
1.642863e-07    -5.047426e-08    0.000000e+00
3.332233e-07    -1.068318e-07    0.000000e+00
5.161144e-07    -2.157261e-07    0.000000e+00
7.233448e-07    -4.163094e-07    0.000000e+00
1.141595e-06    -8.299605e-07    0.000000e+00
-2.153941e-06    -1.380309e-06    0.000000e+00
-1.574436e-06    -9.987668e-07    0.000000e+00
-1.105093e-06    -7.015532e-07    0.000000e+00
-7.128292e-07    -5.177059e-07    0.000000e+00
-3.501023e-07    -4.175298e-07    0.000000e+00
-6.912418e-20    -3.857102e-07    0.000000e+00
3.501023e-07    -4.175298e-07    0.000000e+00
7.128292e-07    -5.177059e-07    0.000000e+00
1.105093e-06    -7.015532e-07    0.000000e+00
1.574436e-06    -9.987668e-07    0.000000e+00
2.153941e-06    -1.380309e-06    0.000000e+00
-3.132427e-06    -2.064634e-06    0.000000e+00
-2.394168e-06    -1.682257e-06    0.000000e+00
-1.722702e-06    -1.380761e-06    0.000000e+00
-1.115240e-06    -1.168096e-06    0.000000e+00
-5.487489e-07    -1.045521e-06    0.000000e+00
-1.089761e-19    -1.005593e-06    0.000000e+00
5.487489e-07    -1.045521e-06    0.000000e+00
1.115240e-06    -1.168096e-06    0.000000e+00
1.722702e-06    -1.380761e-06    0.000000e+00
2.394168e-06    -1.682257e-06    0.000000e+00
3.132427e-06    -2.064634e-06    0.000000e+00
-4.100076e-06    -2.909172e-06    0.000000e+00
-3.186876e-06    -2.535522e-06    0.000000e+00
-2.326958e-06    -2.239053e-06    0.000000e+00
-1.519408e-06    -2.025105e-06    0.000000e+00
-7.500557e-07    -1.896684e-06    0.000000e+00
-1.502623e-19    -1.854101e-06    0.000000e+00
7.500557e-07    -1.896684e-06    0.000000e+00
1.519408e-06    -2.025105e-06    0.000000e+00
2.326958e-06    -2.239053e-06    0.000000e+00
3.186876e-06    -2.535522e-06    0.000000e+00
4.100076e-06    -2.909172e-06    0.000000e+00
-5.051341e-06    -3.936654e-06    0.000000e+00
-3.956477e-06    -3.571725e-06    0.000000e+00
-2.911986e-06    -3.284208e-06    0.000000e+00
-1.912865e-06    -3.075889e-06    0.000000e+00
-9.475500e-07    -2.949778e-06    0.000000e+00
-1.928985e-19    -2.907564e-06    0.000000e+00
9.475500e-07    -2.949778e-06    0.000000e+00
1.912865e-06    -3.075889e-06    0.000000e+00
2.911986e-06    -3.284208e-06    0.000000e+00
3.956477e-06    -3.571725e-06    0.000000e+00
5.051341e-06    -3.936654e-06    0.000000e+00
-5.981873e-06    -5.149742e-06    0.000000e+00
-4.704513e-06    -4.794468e-06    0.000000e+00
-3.477740e-06    -4.516043e-06    0.000000e+00
-2.292922e-06    -4.315096e-06    0.000000e+00
-1.138484e-06    -4.193469e-06    0.000000e+00
-2.363222e-19    -4.152740e-06    0.000000e+00
1.138484e-06    -4.193469e-06    0.000000e+00
2.292922e-06    -4.315096e-06    0.000000e+00
3.477740e-06    -4.516043e-06    0.000000e+00
4.704513e-06    -4.794468e-06    0.000000e+00
5.981873e-06    -5.149742e-06    0.000000e+00
-6.888558e-06    -6.546376e-06    0.000000e+00
-5.431254e-06    -6.201154e-06    0.000000e+00
-4.025294e-06    -5.931590e-06    0.000000e+00
-2.659769e-06    -5.737829e-06    0.000000e+00
-1.322562e-06    -5.620886e-06    0.000000e+00
-2.771121e-19    -5.581769e-06    0.000000e+00
1.322562e-06    -5.620886e-06    0.000000e+00
2.659769e-06    -5.737829e-06    0.000000e+00
4.025294e-06    -5.931590e-06    0.000000e+00
5.431254e-06    -6.201154e-06    0.000000e+00
6.888558e-06    -6.546376e-06    0.000000e+00
-7.769676e-06    -8.122139e-06    0.000000e+00
-6.136609e-06    -7.787205e-06    0.000000e+00
-4.555509e-06    -7.526210e-06    0.000000e+00
-3.014226e-06    -7.339157e-06    0.000000e+00
-1.500173e-06    -7.226543e-06    0.000000e+00
-3.172668e-19    -7.188927e-06    0.000000e+00
1.500173e-06    -7.226543e-06    0.000000e+00
3.014226e-06    -7.339157e-06    0.000000e+00
4.555509e-06    -7.526210e-06    0.000000e+00
6.136609e-06    -7.787205e-06    0.000000e+00
7.769676e-06    -8.122139e-06    0.000000e+00
-8.624338e-06    -9.871838e-06    0.000000e+00
-6.820449e-06    -9.547301e-06    0.000000e+00
-5.068913e-06    -9.294676e-06    0.000000e+00
-3.356973e-06    -9.113935e-06    0.000000e+00
-1.671744e-06    -9.005300e-06    0.000000e+00
-3.586390e-19    -8.969049e-06    0.000000e+00
1.671744e-06    -9.005300e-06    0.000000e+00
3.356973e-06    -9.113935e-06    0.000000e+00
5.068913e-06    -9.294676e-06    0.000000e+00
6.820449e-06    -9.547301e-06    0.000000e+00
8.624338e-06    -9.871838e-06    0.000000e+00
-9.452128e-06    -1.179002e-05    0.000000e+00
-7.482678e-06    -1.147593e-05    0.000000e+00
-5.565791e-06    -1.123156e-05    0.000000e+00
-3.688437e-06    -1.105688e-05    0.000000e+00
-1.837569e-06    -1.095199e-05    0.000000e+00
-3.998525e-19    -1.091701e-05    0.000000e+00
1.837569e-06    -1.095199e-05    0.000000e+00
3.688437e-06    -1.105688e-05    0.000000e+00
5.565791e-06    -1.123156e-05    0.000000e+00
7.482678e-06    -1.147593e-05    0.000000e+00
9.452128e-06    -1.179002e-05    0.000000e+00
-1.025287e-05    -1.387120e-05    0.000000e+00
-8.123242e-06    -1.356758e-05    0.000000e+00
-6.046283e-06    -1.333140e-05    0.000000e+00
-4.008850e-06    -1.316265e-05    0.000000e+00
-1.997814e-06    -1.306137e-05    0.000000e+00
-4.343691e-19    -1.302760e-05    0.000000e+00
1.997814e-06    -1.306137e-05    0.000000e+00
4.008850e-06    -1.316265e-05    0.000000e+00
6.046283e-06    -1.333140e-05    0.000000e+00
8.123242e-06    -1.356758e-05    0.000000e+00
1.025287e-05    -1.387120e-05    0.000000e+00
-1.102648e-05    -1.610989e-05    0.000000e+00
-8.742113e-06    -1.581673e-05    0.000000e+00
-6.510452e-06    -1.558871e-05    0.000000e+00
-4.318325e-06    -1.542583e-05    0.000000e+00
-2.152566e-06    -1.532809e-05    0.000000e+00
-4.697856e-19    -1.529550e-05    0.000000e+00
2.152566e-06    -1.532809e-05    0.000000e+00
4.318325e-06    -1.542583e-05    0.000000e+00
6.510452e-06    -1.558871e-05    0.000000e+00
8.742113e-06    -1.581673e-05    0.000000e+00
1.102648e-05    -1.610989e-05    0.000000e+00
-1.177296e-05    -1.850062e-05    0.000000e+00
-9.339276e-06    -1.821793e-05    0.000000e+00
-6.958324e-06    -1.799806e-05    0.000000e+00
-4.616914e-06    -1.784101e-05    0.000000e+00
-2.301865e-06    -1.774678e-05    0.000000e+00
-5.094374e-19    -1.771537e-05    0.000000e+00
2.301865e-06    -1.774678e-05    0.000000e+00
4.616914e-06    -1.784101e-05    0.000000e+00
6.958324e-06    -1.799806e-05    0.000000e+00
9.339276e-06    -1.821793e-05    0.000000e+00
1.177296e-05    -1.850062e-05    0.000000e+00
-1.249228e-05    -2.103794e-05    0.000000e+00
-9.914727e-06    -2.076572e-05    0.000000e+00
-7.389909e-06    -2.055400e-05    0.000000e+00
-4.904637e-06    -2.040277e-05    0.000000e+00
-2.445728e-06    -2.031204e-05    0.000000e+00
-5.370189e-19    -2.028179e-05    0.000000e+00
2.445728e-06    -2.031204e-05    0.000000e+00
4.904637e-06    -2.040277e-05    0.000000e+00
7.389909e-06    -2.055400e-05    0.000000e+00
9.914727e-06    -2.076572e-05    0.000000e+00
1.249228e-05    -2.103794e-05    0.000000e+00
-1.318446e-05    -2.371642e-05    0.000000e+00
-1.046846e-05    -2.345467e-05    0.000000e+00
-7.805208e-06    -2.325109e-05    0.000000e+00
-5.181501e-06    -2.310568e-05    0.000000e+00
-2.584160e-06    -2.301844e-05    0.000000e+00
-5.599947e-19    -2.298935e-05    0.000000e+00
2.584160e-06    -2.301844e-05    0.000000e+00
5.181501e-06    -2.310568e-05    0.000000e+00
7.805208e-06    -2.325109e-05    0.000000e+00
1.046846e-05    -2.345467e-05    0.000000e+00
1.318446e-05    -2.371642e-05    0.000000e+00
-1.384949e-05    -2.653062e-05    0.000000e+00
-1.100049e-05    -2.627934e-05    0.000000e+00
-8.204222e-06    -2.608391e-05    0.000000e+00
-5.447509e-06    -2.594431e-05    0.000000e+00
-2.717163e-06    -2.586055e-05    0.000000e+00
-5.753471e-19    -2.583264e-05    0.000000e+00
2.717163e-06    -2.586055e-05    0.000000e+00
5.447509e-06    -2.594431e-05    0.000000e+00
8.204222e-06    -2.608391e-05    0.000000e+00
1.100049e-05    -2.627934e-05    0.000000e+00
1.384949e-05    -2.653062e-05    0.000000e+00
-1.448737e-05    -2.947511e-05    0.000000e+00
-1.151079e-05    -2.923430e-05    0.000000e+00
-8.586950e-06    -2.904701e-05    0.000000e+00
-5.702661e-06    -2.891323e-05    0.000000e+00
-2.844739e-06    -2.883296e-05    0.000000e+00
-5.770412e-19    -2.880621e-05    0.000000e+00
2.844739e-06    -2.883296e-05    0.000000e+00
5.702661e-06    -2.891323e-05    0.000000e+00
8.586950e-06    -2.904701e-05    0.000000e+00
1.151079e-05    -2.923430e-05    0.000000e+00
1.448737e-05    -2.947511e-05    0.000000e+00
-1.509811e-05    -3.254446e-05    0.000000e+00
-1.199938e-05    -3.231413e-05    0.000000e+00
-8.953392e-06    -3.213498e-05    0.000000e+00
-5.946955e-06    -3.200701e-05    0.000000e+00
-2.966886e-06    -3.193024e-05    0.000000e+00
-5.872056e-19    -3.190464e-05    0.000000e+00
2.966886e-06    -3.193024e-05    0.000000e+00
5.946955e-06    -3.200701e-05    0.000000e+00
8.953392e-06    -3.213498e-05    0.000000e+00
1.199938e-05    -3.231413e-05    0.000000e+00
1.509811e-05    -3.254446e-05    0.000000e+00
-1.568170e-05    -3.573325e-05    0.000000e+00
-1.246626e-05    -3.551338e-05    0.000000e+00
-9.303549e-06    -3.534238e-05    0.000000e+00
-6.180392e-06    -3.522023e-05    0.000000e+00
-3.083604e-06    -3.514694e-05    0.000000e+00
-6.118754e-19    -3.512251e-05    0.000000e+00
3.083604e-06    -3.514694e-05    0.000000e+00
6.180392e-06    -3.522023e-05    0.000000e+00
9.303549e-06    -3.534238e-05    0.000000e+00
1.246626e-05    -3.551338e-05    0.000000e+00
1.568170e-05    -3.573325e-05    0.000000e+00
-1.623815e-05    -3.903604e-05    0.000000e+00
-1.291142e-05    -3.882665e-05    0.000000e+00
-9.637419e-06    -3.866378e-05    0.000000e+00
-6.402972e-06    -3.854745e-05    0.000000e+00
-3.194894e-06    -3.847765e-05    0.000000e+00
-6.589916e-19    -3.845439e-05    0.000000e+00
3.194894e-06    -3.847765e-05    0.000000e+00
6.402972e-06    -3.854745e-05    0.000000e+00
9.637419e-06    -3.866378e-05    0.000000e+00
1.291142e-05    -3.882665e-05    0.000000e+00
1.623815e-05    -3.903604e-05    0.000000e+00
-1.676746e-05    -4.244741e-05    0.000000e+00
-1.333486e-05    -4.224848e-05    0.000000e+00
-9.955003e-06    -4.209376e-05    0.000000e+00
-6.614695e-06    -4.198325e-05    0.000000e+00
-3.300755e-06    -4.191694e-05    0.000000e+00
-7.216721e-19    -4.189484e-05    0.000000e+00
3.300755e-06    -4.191694e-05    0.000000e+00
6.614695e-06    -4.198325e-05    0.000000e+00
9.955003e-06    -4.209376e-05    0.000000e+00
1.333486e-05    -4.224848e-05    0.000000e+00
1.676746e-05    -4.244741e-05    0.000000e+00
-1.726962e-05    -4.596192e-05    0.000000e+00
-1.373659e-05    -4.577347e-05    0.000000e+00
-1.025630e-05    -4.562689e-05    0.000000e+00
-6.815560e-06    -4.552219e-05    0.000000e+00
-3.401188e-06    -4.545937e-05    0.000000e+00
-7.678354e-19    -4.543843e-05    0.000000e+00
3.401188e-06    -4.545937e-05    0.000000e+00
6.815560e-06    -4.552219e-05    0.000000e+00
1.025630e-05    -4.562689e-05    0.000000e+00
1.373659e-05    -4.577347e-05    0.000000e+00
1.726962e-05    -4.596192e-05    0.000000e+00
-1.774464e-05    -4.957415e-05    0.000000e+00
-1.411661e-05    -4.939617e-05    0.000000e+00
-1.054131e-05    -4.925773e-05    0.000000e+00
-7.005568e-06    -4.915885e-05    0.000000e+00
-3.496192e-06    -4.909952e-05    0.000000e+00
-7.998109e-19    -4.907975e-05    0.000000e+00
3.496192e-06    -4.909952e-05    0.000000e+00
7.005568e-06    -4.915885e-05    0.000000e+00
1.054131e-05    -4.925773e-05    0.000000e+00
1.411661e-05    -4.939617e-05    0.000000e+00
1.774464e-05    -4.957415e-05    0.000000e+00
-1.819252e-05    -5.327868e-05    0.000000e+00
-1.447491e-05    -5.311116e-05    0.000000e+00
-1.081004e-05    -5.298087e-05    0.000000e+00
-7.184718e-06    -5.288780e-05    0.000000e+00
-3.585767e-06    -5.283196e-05    0.000000e+00
-8.387744e-19    -5.281335e-05    0.000000e+00
3.585767e-06    -5.283196e-05    0.000000e+00
7.184718e-06    -5.288780e-05    0.000000e+00
1.081004e-05    -5.298087e-05    0.000000e+00
1.447491e-05    -5.311116e-05    0.000000e+00
1.819252e-05    -5.327868e-05    0.000000e+00
-1.861325e-05    -5.707006e-05    0.000000e+00
-1.481149e-05    -5.691301e-05    0.000000e+00
-1.106248e-05    -5.679086e-05    0.000000e+00
-7.353011e-06    -5.670361e-05    0.000000e+00
-3.669914e-06    -5.665126e-05    0.000000e+00
-8.468212e-19    -5.663381e-05    0.000000e+00
3.669914e-06    -5.665126e-05    0.000000e+00
7.353011e-06    -5.670361e-05    0.000000e+00
1.106248e-05    -5.679086e-05    0.000000e+00
1.481149e-05    -5.691301e-05    0.000000e+00
1.861325e-05    -5.707006e-05    0.000000e+00
-1.900683e-05    -6.094287e-05    0.000000e+00
-1.512636e-05    -6.079629e-05    0.000000e+00
-1.129863e-05    -6.068229e-05    0.000000e+00
-7.510448e-06    -6.060086e-05    0.000000e+00
-3.748633e-06    -6.055200e-05    0.000000e+00
-8.508446e-19    -6.053571e-05    0.000000e+00
3.748633e-06    -6.055200e-05    0.000000e+00
7.510448e-06    -6.060086e-05    0.000000e+00
1.129863e-05    -6.068229e-05    0.000000e+00
1.512636e-05    -6.079629e-05    0.000000e+00
1.900683e-05    -6.094287e-05    0.000000e+00
-1.937327e-05    -6.489169e-05    0.000000e+00
-1.541952e-05    -6.475558e-05    0.000000e+00
-1.151850e-05    -6.464972e-05    0.000000e+00
-7.657028e-06    -6.457410e-05    0.000000e+00
-3.821923e-06    -6.452873e-05    0.000000e+00
-8.508446e-19    -6.451361e-05    0.000000e+00
3.821923e-06    -6.452873e-05    0.000000e+00
7.657028e-06    -6.457410e-05    0.000000e+00
1.151850e-05    -6.464972e-05    0.000000e+00
1.541952e-05    -6.475558e-05    0.000000e+00
1.937327e-05    -6.489169e-05    0.000000e+00
-1.971256e-05    -6.891107e-05    0.000000e+00
-1.569095e-05    -6.878544e-05    0.000000e+00
-1.172208e-05    -6.868772e-05    0.000000e+00
-7.792750e-06    -6.861792e-05    0.000000e+00
-3.889784e-06    -6.857604e-05    0.000000e+00
-8.372921e-19    -6.856208e-05    0.000000e+00
3.889784e-06    -6.857604e-05    0.000000e+00
7.792750e-06    -6.861792e-05    0.000000e+00
1.172208e-05    -6.868772e-05    0.000000e+00
1.569095e-05    -6.878544e-05    0.000000e+00
1.971256e-05    -6.891107e-05    0.000000e+00
-2.002471e-05    -7.299559e-05    0.000000e+00
-1.594068e-05    -7.288043e-05    0.000000e+00
-1.190938e-05    -7.279086e-05    0.000000e+00
-7.917611e-06    -7.272688e-05    0.000000e+00
-3.952212e-06    -7.268851e-05    0.000000e+00
-8.406802e-19    -7.267572e-05    0.000000e+00
3.952212e-06    -7.268851e-05    0.000000e+00
7.917611e-06    -7.272688e-05    0.000000e+00
1.190938e-05    -7.279086e-05    0.000000e+00
1.594068e-05    -7.288043e-05    0.000000e+00
2.002471e-05    -7.299559e-05    0.000000e+00
-2.030971e-05    -7.713981e-05    0.000000e+00
-1.616869e-05    -7.703511e-05    0.000000e+00
-1.208038e-05    -7.695370e-05    0.000000e+00
-8.031599e-06    -7.689557e-05    0.000000e+00
-4.009198e-06    -7.686071e-05    0.000000e+00
-8.859965e-19    -7.684909e-05    0.000000e+00
4.009198e-06    -7.686071e-05    0.000000e+00
8.031599e-06    -7.689557e-05    0.000000e+00
1.208038e-05    -7.695370e-05    0.000000e+00
1.616869e-05    -7.703511e-05    0.000000e+00
2.030971e-05    -7.713981e-05    0.000000e+00
-2.056757e-05    -8.133827e-05    0.000000e+00
-1.637501e-05    -8.124404e-05    0.000000e+00
-1.223508e-05    -8.117079e-05    0.000000e+00
-8.134685e-06    -8.111855e-05    0.000000e+00
-4.060719e-06    -8.108725e-05    0.000000e+00
-9.376655e-19    -8.107682e-05    0.000000e+00
4.060719e-06    -8.108725e-05    0.000000e+00
8.134685e-06    -8.111855e-05    0.000000e+00
1.223508e-05    -8.117079e-05    0.000000e+00
1.637501e-05    -8.124404e-05    0.000000e+00
2.056757e-05    -8.133827e-05    0.000000e+00
-2.079833e-05    -8.558550e-05    0.000000e+00
-1.655963e-05    -8.550173e-05    0.000000e+00
-1.237344e-05    -8.543669e-05    0.000000e+00
-8.226802e-06    -8.539041e-05    0.000000e+00
-4.106724e-06    -8.536275e-05    0.000000e+00
-1.017710e-18    -8.535356e-05    0.000000e+00
4.106724e-06    -8.536275e-05    0.000000e+00
8.226802e-06    -8.539041e-05    0.000000e+00
1.237344e-05    -8.543669e-05    0.000000e+00
1.655963e-05    -8.550173e-05    0.000000e+00
2.079833e-05    -8.558550e-05    0.000000e+00
-2.100210e-05    -8.987603e-05    0.000000e+00
-1.672261e-05    -8.980269e-05    0.000000e+00
-1.249537e-05    -8.974594e-05    0.000000e+00
-8.307807e-06    -8.970578e-05    0.000000e+00
-4.147107e-06    -8.968192e-05    0.000000e+00
-1.093943e-18    -8.967401e-05    0.000000e+00
4.147107e-06    -8.968192e-05    0.000000e+00
8.307807e-06    -8.970578e-05    0.000000e+00
1.249537e-05    -8.974594e-05    0.000000e+00
1.672261e-05    -8.980269e-05    0.000000e+00
2.100210e-05    -8.987603e-05    0.000000e+00
-2.117912e-05    -9.420439e-05    0.000000e+00
-1.686399e-05    -9.414142e-05    0.000000e+00
-1.260070e-05    -9.409307e-05    0.000000e+00
-8.377428e-06    -9.405931e-05    0.000000e+00
-4.181679e-06    -9.403948e-05    0.000000e+00
-1.131636e-18    -9.403296e-05    0.000000e+00
4.181679e-06    -9.403948e-05    0.000000e+00
8.377428e-06    -9.405931e-05    0.000000e+00
1.260070e-05    -9.409307e-05    0.000000e+00
1.686399e-05    -9.414142e-05    0.000000e+00
2.117912e-05    -9.420439e-05    0.000000e+00
-2.132994e-05    -9.856523e-05    0.000000e+00
-1.698387e-05    -9.851248e-05    0.000000e+00
-1.268909e-05    -9.847276e-05    0.000000e+00
-8.435205e-06    -9.844575e-05    0.000000e+00
-4.210141e-06    -9.843026e-05    0.000000e+00
-1.170600e-18    -9.842523e-05    0.000000e+00
4.210141e-06    -9.843026e-05    0.000000e+00
8.435205e-06    -9.844575e-05    0.000000e+00
1.268909e-05    -9.847276e-05    0.000000e+00
1.698387e-05    -9.851248e-05    0.000000e+00
2.132994e-05    -9.856523e-05    0.000000e+00
-2.145562e-05    -1.029537e-04    0.000000e+00
-1.708235e-05    -1.029109e-04    0.000000e+00
-1.275997e-05    -1.028800e-04    0.000000e+00
-8.480517e-06    -1.028600e-04    0.000000e+00
-4.232143e-06    -1.028489e-04    0.000000e+00
-1.214645e-18    -1.028454e-04    0.000000e+00
4.232143e-06    -1.028489e-04    0.000000e+00
8.480517e-06    -1.028600e-04    0.000000e+00
1.275997e-05    -1.028800e-04    0.000000e+00
1.708235e-05    -1.029109e-04    0.000000e+00
2.145562e-05    -1.029537e-04    0.000000e+00
-2.155817e-05    -1.073660e-04    0.000000e+00
-1.715935e-05    -1.073327e-04    0.000000e+00
-1.281258e-05    -1.073105e-04    0.000000e+00
-8.512904e-06    -1.072970e-04    0.000000e+00
-4.247579e-06    -1.072895e-04    0.000000e+00
-1.151541e-18    -1.072870e-04    0.000000e+00
4.247579e-06    -1.072895e-04    0.000000e+00
8.512904e-06    -1.072970e-04    0.000000e+00
1.281258e-05    -1.073105e-04    0.000000e+00
1.715935e-05    -1.073327e-04    0.000000e+00
2.155817e-05    -1.073660e-04    0.000000e+00
-2.164067e-05    -1.118022e-04    0.000000e+00
-1.721429e-05    -1.117772e-04    0.000000e+00
-1.284670e-05    -1.117621e-04    0.000000e+00
-8.533270e-06    -1.117511e-04    0.000000e+00
-4.257281e-06    -1.117436e-04    0.000000e+00
-1.069379e-18    -1.117409e-04    0.000000e+00
4.257281e-06    -1.117436e-04    0.000000e+00
8.533270e-06    -1.117511e-04    0.000000e+00
1.284670e-05    -1.117621e-04    0.000000e+00
1.721429e-05    -1.117772e-04    0.000000e+00
2.164067e-05    -1.118022e-04    0.000000e+00
-2.170513e-05    -1.162704e-04    0.000000e+00
-1.724615e-05    -1.162523e-04    0.000000e+00
-1.286626e-05    -1.162338e-04    0.000000e+00
-8.546206e-06    -1.162132e-04    0.000000e+00
-4.263865e-06    -1.161978e-04    0.000000e+00
-1.066414e-18    -1.161922e-04    0.000000e+00
4.263865e-06    -1.161978e-04    0.000000e+00
8.546206e-06    -1.162132e-04    0.000000e+00
1.286626e-05    -1.162338e-04    0.000000e+00
1.724615e-05    -1.162523e-04    0.000000e+00
2.170513e-05    -1.162704e-04    0.000000e+00
-2.173924e-05    -1.208105e-04    0.000000e+00
-1.726634e-05    -1.207758e-04    0.000000e+00
-1.288608e-05    -1.207173e-04    0.000000e+00
-8.561321e-06    -1.206645e-04    0.000000e+00
-4.272039e-06    -1.206293e-04    0.000000e+00
-1.065779e-18    -1.206170e-04    0.000000e+00
4.272039e-06    -1.206293e-04    0.000000e+00
8.561321e-06    -1.206645e-04    0.000000e+00
1.288608e-05    -1.207173e-04    0.000000e+00
1.726634e-05    -1.207758e-04    0.000000e+00
2.173924e-05    -1.208105e-04    0.000000e+00

CELL_DATA      400
TENSORS Element_Stress6.600000e-01 double
1.820598e+06 2.551812e+05        0
2.551812e+05 4.163488e+05        0
       0        0        0

1.243720e+06 1.308538e+05        0
1.308538e+05 3.566178e+05        0
       0        0        0

8.651185e+05 4.301032e+04        0
4.301032e+04 2.749959e+05        0
       0        0        0

5.100063e+05 -3.578363e+03        0
-3.578363e+03 1.690094e+05        0
       0        0        0

1.688541e+05 -2.488323e+04        0
-2.488323e+04 5.694968e+04        0
       0        0        0

-1.688184e+05 -2.487711e+04        0
-2.487711e+04 -5.695775e+04        0
       0        0        0

-5.095306e+05 -3.579112e+03        0
-3.579112e+03 -1.688447e+05        0
       0        0        0

-8.637077e+05 4.293851e+04        0
4.293851e+04 -2.744671e+05        0
       0        0        0

-1.240734e+06 1.305652e+05        0
1.305652e+05 -3.554740e+05        0
       0        0        0

-1.814375e+06 2.543707e+05        0
2.543707e+05 -4.141970e+05        0
       0        0        0

1.642070e+06 4.159748e+04        0
4.159748e+04 4.234799e+03        0
       0        0        0

1.322354e+06 1.206454e+05        0
1.206454e+05 1.286843e+05        0
       0        0        0

9.082521e+05 9.900755e+04        0
9.900755e+04 1.315191e+05        0
       0        0        0

5.364025e+05 7.580678e+04        0
7.580678e+04 9.193311e+04        0
       0        0        0

1.768172e+05 6.321707e+04        0
6.321707e+04 3.207757e+04        0
       0        0        0

-1.778550e+05 6.319873e+04        0
6.319873e+04 -3.316896e+04        0
       0        0        0

-5.369363e+05 7.574133e+04        0
7.574133e+04 -9.284490e+04        0
       0        0        0

-9.077061e+05 9.886737e+04        0
9.886737e+04 -1.320379e+05        0
       0        0        0

-1.319830e+06 1.204079e+05        0
1.204079e+05 -1.284324e+05        0
       0        0        0

-1.637466e+06 4.151082e+04        0
4.151082e+04 -3.136555e+03        0
       0        0        0

1.584953e+06 1.541639e+04        0
1.541639e+04 6.615316e+03        0
       0        0        0

1.271591e+06 6.833109e+04        0
6.833109e+04 1.757728e+04        0
       0        0        0

9.146413e+05 1.015639e+05        0
1.015639e+05 4.237686e+04        0
       0        0        0

5.430826e+05 1.074765e+05        0
1.074765e+05 3.592346e+04        0
       0        0        0

1.791459e+05 1.074054e+05        0
1.074054e+05 1.272037e+04        0
       0        0        0

-1.824790e+05 1.073775e+05        0
1.073775e+05 -1.611190e+04        0
       0        0        0

-5.458838e+05 1.073933e+05        0
1.073933e+05 -3.912503e+04        0
       0        0        0

-9.163117e+05 1.014348e+05        0
1.014348e+05 -4.515293e+04        0
       0        0        0

-1.271565e+06 6.821622e+04        0
6.821622e+04 -1.966893e+04        0
       0        0        0

-1.582978e+06 1.538448e+04        0
1.538448e+04 -7.911807e+03        0
       0        0        0

1.546129e+06 1.427370e+04        0
1.427370e+04 -3.975752e+03        0
       0        0        0

1.226683e+06 5.548208e+04        0
5.548208e+04 -1.953361e+03        0
       0        0        0

8.865538e+05 9.245024e+04        0
9.245024e+04 2.933168e+03        0
       0        0        0

5.331314e+05 1.146030e+05        0
1.146030e+05 5.877770e+03        0
       0        0        0

1.753740e+05 1.233579e+05        0
1.233579e+05 6.880625e+02        0
       0        0        0

-1.820438e+05 1.233283e+05        0
1.233283e+05 -7.415933e+03        0
       0        0        0

-5.392752e+05 1.145213e+05        0
1.145213e+05 -1.241206e+04        0
       0        0        0

-8.916350e+05 9.234262e+04        0
9.234262e+04 -9.058365e+03        0
       0        0        0

-1.230189e+06 5.539388e+04        0
5.539388e+04 -3.528931e+03        0
       0        0        0

-1.547532e+06 1.424568e+04        0
1.424568e+04 -5.504384e+02        0
       0        0        0

1.509427e+06 1.713063e+04        0
1.713063e+04 -5.567249e+03        0
       0        0        0

1.185340e+06 5.448733e+04        0
5.448733e+04 -8.577651e+03        0
       0        0        0

8.541561e+05 8.905469e+04        0
8.905469e+04 -8.329305e+03        0
       0        0        0

5.137340e+05 1.136408e+05        0
1.136408e+05 -6.745280e+03        0
       0        0        0

1.681056e+05 1.258450e+05        0
1.258450e+05 -5.639044e+03        0
       0        0        0

-1.789903e+05 1.258166e+05        0
1.258166e+05 -5.300819e+03        0
       0        0        0

-5.241237e+05 1.135646e+05        0
1.135646e+05 -4.010288e+03        0
       0        0        0

-8.635542e+05 8.895612e+04        0
8.895612e+04 -2.042812e+03        0
       0        0        0

-1.193244e+06 5.440409e+04        0
5.440409e+04 -1.179541e+03        0
       0        0        0

-1.515273e+06 1.709766e+04        0
1.709766e+04 -3.264824e+03        0
       0        0        0

1.469671e+06 1.958963e+04        0
1.958963e+04 -7.911531e+03        0
       0        0        0

1.147077e+06 5.644559e+04        0
5.644559e+04 -1.054799e+04        0
       0        0        0

8.224151e+05 8.838594e+04        0
8.838594e+04 -1.192774e+04        0
       0        0        0

4.928620e+05 1.117722e+05        0
1.117722e+05 -1.113898e+04        0
       0        0        0

1.594065e+05 1.239614e+05        0
1.239614e+05 -9.157848e+03        0
       0        0        0

-1.752704e+05 1.239347e+05        0
1.239347e+05 -6.757342e+03        0
       0        0        0

-5.082716e+05 1.117003e+05        0
1.117003e+05 -4.611022e+03        0
       0        0        0

-8.369138e+05 8.829171e+04        0
8.829171e+04 -3.479956e+03        0
       0        0        0

-1.160194e+06 5.636191e+04        0
5.636191e+04 -4.312364e+03        0
       0        0        0

-1.480879e+06 1.955284e+04        0
1.955284e+04 -6.139554e+03        0
       0        0        0

1.427069e+06 2.114429e+04        0
2.114429e+04 -1.052964e+04        0
       0        0        0

1.109854e+06 5.834958e+04        0
5.834958e+04 -1.236661e+04        0
       0        0        0

7.924051e+05 8.864128e+04        0
8.864128e+04 -1.362108e+04        0
       0        0        0

4.726277e+05 1.103428e+05        0
1.103428e+05 -1.337050e+04        0
       0        0        0

1.506199e+05 1.216735e+05        0
1.216735e+05 -1.181697e+04        0
       0        0        0

-1.721469e+05 1.216483e+05        0
1.216483e+05 -9.757740e+03        0
       0        0        0

-4.937482e+05 1.102742e+05        0
1.102742e+05 -8.067258e+03        0
       0        0        0

-8.127094e+05 8.854973e+04        0
8.854973e+04 -7.533908e+03        0
       0        0        0

-1.128918e+06 5.826553e+04        0
5.826553e+04 -8.339735e+03        0
       0        0        0

-1.444434e+06 2.110561e+04        0
2.110561e+04 -9.528609e+03        0
       0        0        0

1.382471e+06 2.200181e+04        0
2.200181e+04 -1.363722e+04        0
       0        0        0

1.072891e+06 5.961398e+04        0
5.961398e+04 -1.472183e+04        0
       0        0        0

7.635785e+05 8.901007e+04        0
8.901007e+04 -1.557414e+04        0
       0        0        0

4.533125e+05 1.094858e+05        0
1.094858e+05 -1.552412e+04        0
       0        0        0

1.419522e+05 1.200358e+05        0
1.200358e+05 -1.458784e+04        0
       0        0        0

-1.697603e+05 1.200117e+05        0
1.200117e+05 -1.326479e+04        0
       0        0        0

-4.807667e+05 1.094198e+05        0
1.094198e+05 -1.222641e+04        0
       0        0        0

-7.903212e+05 8.892090e+04        0
8.892090e+04 -1.196593e+04        0
       0        0        0

-1.098554e+06 5.953060e+04        0
5.953060e+04 -1.248635e+04        0
       0        0        0

-1.406666e+06 2.196271e+04        0
2.196271e+04 -1.309846e+04        0
       0        0        0

1.336650e+06 2.243103e+04        0
2.243103e+04 -1.712975e+04        0
       0        0        0

1.035846e+06 6.032508e+04        0
6.032508e+04 -1.770734e+04        0
       0        0        0

7.353690e+05 8.928001e+04        0
8.928001e+04 -1.819357e+04        0
       0        0        0

4.345842e+05 1.090314e+05        0
1.090314e+05 -1.820574e+04        0
       0        0        0

1.333510e+05 1.190751e+05        0
1.190751e+05 -1.770719e+04        0
       0        0        0

-1.679948e+05 1.190519e+05        0
1.190519e+05 -1.697818e+04        0
       0        0        0

-4.689286e+05 1.089678e+05        0
1.089678e+05 -1.641605e+04        0
       0        0        0

-7.691116e+05 8.919329e+04        0
8.919329e+04 -1.629667e+04        0
       0        0        0

-1.068676e+06 6.024325e+04        0
6.024325e+04 -1.657480e+04        0
       0        0        0

-1.368246e+06 2.239236e+04        0
2.239236e+04 -1.685617e+04        0
       0        0        0

1.290108e+06 2.262769e+04        0
2.262769e+04 -2.093370e+04        0
       0        0        0

9.986145e+05 6.068320e+04        0
6.068320e+04 -2.119241e+04        0
       0        0        0

7.073840e+05 8.943847e+04        0
8.943847e+04 -2.142407e+04        0
       0        0        0

4.161153e+05 1.088122e+05        0
1.088122e+05 -2.143279e+04        0
       0        0        0

1.247137e+05 1.185759e+05        0
1.185759e+05 -2.118594e+04        0
       0        0        0

-1.666835e+05 1.185536e+05        0
1.185536e+05 -2.082274e+04        0
       0        0        0

-4.578408e+05 1.087507e+05        0
1.087507e+05 -2.055219e+04        0
       0        0        0

-7.486181e+05 8.935433e+04        0
8.935433e+04 -2.051028e+04        0
       0        0        0

-1.039104e+06 6.060345e+04        0
6.060345e+04 -2.065826e+04        0
       0        0        0

-1.329592e+06 2.258991e+04        0
2.258991e+04 -2.079207e+04        0
       0        0        0

1.243138e+06 2.270943e+04        0
2.270943e+04 -2.498210e+04        0
       0        0        0

9.611829e+05 6.084707e+04        0
6.084707e+04 -2.504187e+04        0
       0        0        0

6.794119e+05 8.952007e+04        0
8.952007e+04 -2.510676e+04        0
       0        0        0

3.976942e+05 1.087151e+05        0
1.087151e+05 -2.508705e+04        0
       0        0        0

1.159751e+05 1.183403e+05        0
1.183403e+05 -2.496213e+04        0
       0        0        0

-1.656966e+05 1.183187e+05        0
1.183187e+05 -2.479576e+04        0
       0        0        0

-4.472257e+05 1.086557e+05        0
1.086557e+05 -2.468699e+04        0
       0        0        0

-7.285608e+05 8.943859e+04        0
8.943859e+04 -2.469694e+04        0
       0        0        0

-1.009752e+06 6.076971e+04        0
6.076971e+04 -2.480000e+04        0
       0        0        0

-1.290922e+06 2.267274e+04        0
2.267274e+04 -2.489961e+04        0
       0        0        0

1.195902e+06 2.273919e+04        0
2.273919e+04 -2.922324e+04        0
       0        0        0

9.235708e+05 6.091458e+04        0
6.091458e+04 -2.915047e+04        0
       0        0        0

6.513590e+05 8.955767e+04        0
8.955767e+04 -2.910387e+04        0
       0        0        0

3.792147e+05 1.086759e+05        0
1.086759e+05 -2.904718e+04        0
       0        0        0

1.071092e+05 1.182389e+05        0
1.182389e+05 -2.896999e+04        0
       0        0        0

-1.649443e+05 1.182180e+05        0
1.182180e+05 -2.889900e+04        0
       0        0        0

-4.369126e+05 1.086185e+05        0
1.086185e+05 -2.887696e+04        0
       0        0        0

-7.087800e+05 8.947891e+04        0
8.947891e+04 -2.892824e+04        0
       0        0        0

-9.805709e+05 6.083975e+04        0
6.083975e+04 -2.903784e+04        0
       0        0        0

-1.252330e+06 2.270369e+04        0
2.270369e+04 -2.916302e+04        0
       0        0        0

1.148491e+06 2.274763e+04        0
2.274763e+04 -3.361527e+04        0
       0        0        0

8.858087e+05 6.093851e+04        0
6.093851e+04 -3.344415e+04        0
       0        0        0

6.231974e+05 8.957284e+04        0
8.957284e+04 -3.331675e+04        0
       0        0        0

3.606384e+05 1.086618e+05        0
1.086618e+05 -3.322145e+04        0
       0        0        0

9.811734e+04 1.181997e+05        0
1.181997e+05 -3.315416e+04        0
       0        0        0

-1.643651e+05 1.181796e+05        0
1.181796e+05 -3.312513e+04        0
       0        0        0

-4.268000e+05 1.086064e+05        0
1.086064e+05 -3.315081e+04        0
       0        0        0

-6.891844e+05 8.949683e+04        0
8.949683e+04 -3.323922e+04        0
       0        0        0

-9.515284e+05 6.086627e+04        0
6.086627e+04 -3.338182e+04        0
       0        0        0

-1.213844e+06 2.271337e+04        0
2.271337e+04 -3.356049e+04        0
       0        0        0

1.100960e+06 2.274841e+04        0
2.274841e+04 -3.812278e+04        0
       0        0        0

8.479289e+05 6.094459e+04        0
6.094459e+04 -3.787019e+04        0
       0        0        0

5.949322e+05 8.957762e+04        0
8.957762e+04 -3.767803e+04        0
       0        0        0

3.419635e+05 1.086573e+05        0
1.086573e+05 -3.754494e+04        0
       0        0        0

8.901558e+04 1.181867e+05        0
1.181867e+05 -3.747027e+04        0
       0        0        0

-1.639142e+05 1.181674e+05        0
1.181674e+05 -3.745768e+04        0
       0        0        0

-4.168253e+05 1.086039e+05        0
1.086039e+05 -3.751247e+04        0
       0        0        0

-6.697180e+05 8.950436e+04        0
8.950436e+04 -3.763608e+04        0
       0        0        0

-9.225952e+05 6.087498e+04        0
6.087498e+04 -3.782343e+04        0
       0        0        0

-1.175457e+06 2.271539e+04        0
2.271539e+04 -3.806658e+04        0
       0        0        0

1.053347e+06 2.274703e+04        0
2.274703e+04 -4.271420e+04        0
       0        0        0

8.099626e+05 6.094429e+04        0
6.094429e+04 -4.238866e+04        0
       0        0        0

5.665832e+05 8.957803e+04        0
8.957803e+04 -4.214000e+04        0
       0        0        0

3.232060e+05 1.086559e+05        0
1.086559e+05 -4.197068e+04        0
       0        0        0

7.982720e+04 1.181835e+05        0
1.181835e+05 -4.188171e+04        0
       0        0        0

-1.635563e+05 1.181649e+05        0
1.181649e+05 -4.187447e+04        0
       0        0        0

-4.069457e+05 1.086046e+05        0
1.086046e+05 -4.195008e+04        0
       0        0        0

-6.503417e+05 8.950753e+04        0
8.950753e+04 -4.210767e+04        0
       0        0        0

-8.937438e+05 6.087730e+04        0
6.087730e+04 -4.234382e+04        0
       0        0        0

-1.137148e+06 2.271526e+04        0
2.271526e+04 -4.265429e+04        0
       0        0        0

1.005683e+06 2.274539e+04        0
2.274539e+04 -4.736038e+04        0
       0        0        0

7.719394e+05 6.094219e+04        0
6.094219e+04 -4.696667e+04        0
       0        0        0

5.381756e+05 8.957681e+04        0
8.957681e+04 -4.666608e+04        0
       0        0        0

3.043894e+05 1.086553e+05        0
1.086553e+05 -4.646218e+04        0
       0        0        0

7.057816e+04 1.181832e+05        0
1.181832e+05 -4.635676e+04        0
       0        0        0

-1.632605e+05 1.181653e+05        0
1.181653e+05 -4.635058e+04        0
       0        0        0

-3.971278e+05 1.086060e+05        0
1.086060e+05 -4.644347e+04        0
       0        0        0

-6.310240e+05 8.950907e+04        0
8.950907e+04 -4.663394e+04        0
       0        0        0

-8.649473e+05 6.087783e+04        0
6.087783e+04 -4.691929e+04        0
       0        0        0

-1.098893e+06 2.271487e+04        0
2.271487e+04 -4.729637e+04        0
       0        0        0

9.579955e+05 2.274400e+04        0
2.274400e+04 -5.203381e+04        0
       0        0        0

7.338873e+05 6.093989e+04        0
6.093989e+04 -5.157525e+04        0
       0        0        0

5.097360e+05 8.957508e+04        0
8.957508e+04 -5.122566e+04        0
       0        0        0

2.855393e+05 1.086546e+05        0
1.086546e+05 -5.098880e+04        0
       0        0        0

6.129495e+04 1.181835e+05        0
1.181835e+05 -5.086675e+04        0
       0        0        0

-1.629989e+05 1.181663e+05        0
1.181663e+05 -5.086025e+04        0
       0        0        0

-3.873432e+05 1.086073e+05        0
1.086073e+05 -5.096887e+04        0
       0        0        0

-6.117373e+05 8.951011e+04        0
8.951011e+04 -5.119108e+04        0
       0        0        0

-8.361791e+05 6.087815e+04        0
6.087815e+04 -5.152449e+04        0
       0        0        0

-1.060664e+06 2.271473e+04        0
2.271473e+04 -5.196605e+04        0
       0        0        0

9.103102e+05 2.274290e+04        0
2.274290e+04 -5.670829e+04        0
       0        0        0

6.958326e+05 6.093780e+04        0
6.093780e+04 -5.618768e+04        0
       0        0        0

4.812907e+05 8.957328e+04        0
8.957328e+04 -5.579141e+04        0
       0        0        0

2.666817e+05 1.086537e+05        0
1.086537e+05 -5.552312e+04        0
       0        0        0

5.200354e+04 1.181835e+05        0
1.181835e+05 -5.538500e+04        0
       0        0        0

-1.627453e+05 1.181671e+05        0
1.181671e+05 -5.537790e+04        0
       0        0        0

-3.775653e+05 1.086084e+05        0
1.086084e+05 -5.550144e+04        0
       0        0        0

-5.924555e+05 8.951107e+04        0
8.951107e+04 -5.575422e+04        0
       0        0        0

-8.074137e+05 6.087870e+04        0
6.087870e+04 -5.613390e+04        0
       0        0        0

-1.022436e+06 2.271486e+04        0
2.271486e+04 -5.663735e+04        0
       0        0        0

8.626520e+05 2.274198e+04        0
2.274198e+04 -6.135878e+04        0
       0        0        0

6.578008e+05 6.093596e+04        0
6.093596e+04 -6.077882e+04        0
       0        0        0

4.528650e+05 8.957150e+04        0
8.957150e+04 -6.033795e+04        0
       0        0        0

2.478418e+05 1.086526e+05        0
1.086526e+05 -6.003971e+04        0
       0        0        0

4.272898e+04 1.181833e+05        0
1.181833e+05 -5.988630e+04        0
       0        0        0

-1.624747e+05 1.181676e+05        0
1.181676e+05 -5.987867e+04        0
       0        0        0

-3.677693e+05 1.086093e+05        0
1.086093e+05 -6.001656e+04        0
       0        0        0

-5.731539e+05 8.951206e+04        0
8.951206e+04 -6.029866e+04        0
       0        0        0

-7.786261e+05 6.087948e+04        0
6.087948e+04 -6.072266e+04        0
       0        0        0

-9.841819e+05 2.271520e+04        0
2.271520e+04 -6.128530e+04        0
       0        0        0

8.150447e+05 2.274119e+04        0
2.274119e+04 -6.596136e+04        0
       0        0        0

6.198157e+05 6.093429e+04        0
6.093429e+04 -6.532473e+04        0
       0        0        0

4.244830e+05 8.956978e+04        0
8.956978e+04 -6.484132e+04        0
       0        0        0

2.290436e+05 1.086514e+05        0
1.086514e+05 -6.451456e+04        0
       0        0        0

3.349528e+04 1.181828e+05        0
1.181828e+05 -6.434667e+04        0
       0        0        0

-1.621631e+05 1.181678e+05        0
1.181678e+05 -6.433865e+04        0
       0        0        0

-3.579315e+05 1.086101e+05        0
1.086101e+05 -6.449035e+04        0
       0        0        0

-5.538087e+05 8.951311e+04        0
8.951311e+04 -6.480052e+04        0
       0        0        0

-7.497925e+05 6.088043e+04        0
6.088043e+04 -6.526685e+04        0
       0        0        0

-9.458791e+05 2.271565e+04        0
2.271565e+04 -6.588596e+04        0
       0        0        0

7.675109e+05 2.274046e+04        0
2.274046e+04 -7.049318e+04        0
       0        0        0

5.819002e+05 6.093273e+04        0
6.093273e+04 -6.980260e+04        0
       0        0        0

3.961677e+05 8.956811e+04        0
8.956811e+04 -6.927870e+04        0
       0        0        0

2.103102e+05 1.086501e+05        0
1.086501e+05 -6.892486e+04        0
       0        0        0

2.432535e+04 1.181822e+05        0
1.181822e+05 -6.874327e+04        0
       0        0        0

-1.617877e+05 1.181679e+05        0
1.181679e+05 -6.873499e+04        0
       0        0        0

-3.480290e+05 1.086108e+05        0
1.086108e+05 -6.889993e+04        0
       0        0        0

-5.343973e+05 8.951420e+04        0
8.951420e+04 -6.923690e+04        0
       0        0        0

-7.208901e+05 6.088150e+04        0
6.088150e+04 -6.974356e+04        0
       0        0        0

-9.075041e+05 2.271617e+04        0
2.271617e+04 -7.041649e+04        0
       0        0        0

7.200723e+05 2.273978e+04        0
2.273978e+04 -7.493249e+04        0
       0        0        0

5.440762e+05 6.093125e+04        0
6.093125e+04 -7.419071e+04        0
       0        0        0

3.679410e+05 8.956648e+04        0
8.956648e+04 -7.362841e+04        0
       0        0        0

1.916633e+05 1.086488e+05        0
1.086488e+05 -7.324889e+04        0
       0        0        0

1.524098e+04 1.181815e+05        0
1.181815e+05 -7.305436e+04        0
       0        0        0

-1.613270e+05 1.181679e+05        0
1.181679e+05 -7.304590e+04        0
       0        0        0

-3.380404e+05 1.086115e+05        0
1.086115e+05 -7.322349e+04        0
       0        0        0

-5.148979e+05 8.951533e+04        0
8.951533e+04 -7.358598e+04        0
       0        0        0

-6.918973e+05 6.088265e+04        0
6.088265e+04 -7.413101e+04        0
       0        0        0

-8.690350e+05 2.271673e+04        0
2.271673e+04 -7.485511e+04        0
       0        0        0

6.727496e+05 2.273915e+04        0
2.273915e+04 -7.925863e+04        0
       0        0        0

5.063643e+05 6.092987e+04        0
6.092987e+04 -7.846843e+04        0
       0        0        0

3.398235e+05 8.956489e+04        0
8.956489e+04 -7.786983e+04        0
       0        0        0

1.731238e+05 1.086474e+05        0
1.086474e+05 -7.746605e+04        0
       0        0        0

6.262879e+03 1.181806e+05        0
1.181806e+05 -7.725929e+04        0
       0        0        0

-1.607601e+05 1.181679e+05        0
1.181679e+05 -7.725069e+04        0
       0        0        0

-3.279448e+05 1.086121e+05        0
1.086121e+05 -7.744030e+04        0
       0        0        0

-4.952900e+05 8.951651e+04        0
8.951651e+04 -7.782701e+04        0
       0        0        0

-6.627933e+05 6.088389e+04        0
6.088389e+04 -7.840849e+04        0
       0        0        0

-8.304513e+05 2.271735e+04        0
2.271735e+04 -7.918115e+04        0
       0        0        0

6.255623e+05 2.273859e+04        0
2.273859e+04 -8.345202e+04        0
       0        0        0

4.687842e+05 6.092860e+04        0
6.092860e+04 -8.261621e+04        0
       0        0        0

3.118350e+05 8.956335e+04        0
8.956335e+04 -8.198342e+04        0
       0        0        0

1.547113e+05 1.086460e+05        0
1.086460e+05 -8.155678e+04        0
       0        0        0

-2.589332e+03 1.181797e+05        0
1.181797e+05 -8.133849e+04        0
       0        0        0

-1.600676e+05 1.181676e+05        0
1.181676e+05 -8.132976e+04        0
       0        0        0

-3.177230e+05 1.086127e+05        0
1.086127e+05 -8.153073e+04        0
       0        0        0

-4.755540e+05 8.951773e+04        0
8.951773e+04 -8.194037e+04        0
       0        0        0

-6.335585e+05 6.088526e+04        0
6.088526e+04 -8.255636e+04        0
       0        0        0

-7.917331e+05 2.271804e+04        0
2.271804e+04 -8.337502e+04        0
       0        0        0

5.785286e+05 2.273817e+04        0
2.273817e+04 -8.749418e+04        0
       0        0        0

4.313542e+05 6.092752e+04        0
6.092752e+04 -8.661559e+04        0
       0        0        0

2.839942e+05 8.956185e+04        0
8.956185e+04 -8.595072e+04        0
       0        0        0

1.364444e+05 1.086444e+05        0
1.086444e+05 -8.550260e+04        0
       0        0        0

-1.129712e+04 1.181785e+05        0
1.181785e+05 -8.527347e+04        0
       0        0        0

-1.592310e+05 1.181672e+05        0
1.181672e+05 -8.526462e+04        0
       0        0        0

-3.073564e+05 1.086132e+05        0
1.086132e+05 -8.547630e+04        0
       0        0        0

-4.556717e+05 8.951900e+04        0
8.951900e+04 -8.590754e+04        0
       0        0        0

-6.041745e+05 6.088680e+04        0
6.088680e+04 -8.655609e+04        0
       0        0        0

-7.528619e+05 2.271886e+04        0
2.271886e+04 -8.741819e+04        0
       0        0        0

5.316658e+05 2.273795e+04        0
2.273795e+04 -9.136769e+04        0
       0        0        0

3.940921e+05 6.092663e+04        0
6.092663e+04 -9.044910e+04        0
       0        0        0

2.563184e+05 8.956035e+04        0
8.956035e+04 -8.975416e+04        0
       0        0        0

1.183407e+05 1.086427e+05        0
1.086427e+05 -8.928591e+04        0
       0        0        0

-1.984304e+04 1.181771e+05        0
1.181771e+05 -8.904673e+04        0
       0        0        0

-1.582329e+05 1.181665e+05        0
1.181665e+05 -8.903797e+04        0
       0        0        0

-2.968278e+05 1.086135e+05        0
1.086135e+05 -8.925978e+04        0
       0        0        0

-4.356257e+05 8.952026e+04        0
8.952026e+04 -8.971126e+04        0
       0        0        0

-5.746240e+05 6.088854e+04        0
6.088854e+04 -9.039032e+04        0
       0        0        0

-7.138200e+05 2.271989e+04        0
2.271989e+04 -9.129325e+04        0
       0        0        0

4.849900e+05 2.273796e+04        0
2.273796e+04 -9.505616e+04        0
       0        0        0

3.570143e+05 6.092577e+04        0
6.092577e+04 -9.410011e+04        0
       0        0        0

2.288244e+05 8.955862e+04        0
8.955862e+04 -9.337680e+04        0
       0        0        0

1.004164e+05 1.086409e+05        0
1.086409e+05 -9.288973e+04        0
       0        0        0

-2.821084e+04 1.181759e+05        0
1.181759e+05 -9.264170e+04        0
       0        0        0

-1.570570e+05 1.181660e+05        0
1.181660e+05 -9.263378e+04        0
       0        0        0

-2.861209e+05 1.086137e+05        0
1.086137e+05 -9.286554e+04        0
       0        0        0

-4.153999e+05 8.952130e+04        0
8.952130e+04 -9.333582e+04        0
       0        0        0

-5.448908e+05 6.089031e+04        0
6.089031e+04 -9.404299e+04        0
       0        0        0

-6.745908e+05 2.272114e+04        0
2.272114e+04 -9.498387e+04        0
       0        0        0

4.385165e+05 2.273798e+04        0
2.273798e+04 -9.854412e+04        0
       0        0        0

3.201365e+05 6.092413e+04        0
6.092413e+04 -9.755241e+04        0
       0        0        0

2.015270e+05 8.955604e+04        0
8.955604e+04 -9.680154e+04        0
       0        0        0

8.268605e+04 1.086393e+05        0
1.086393e+05 -9.629692e+04        0
       0        0        0

-3.638570e+04 1.181760e+05        0
1.181760e+05 -9.604233e+04        0
       0        0        0

-1.556878e+05 1.181669e+05        0
1.181669e+05 -9.603768e+04        0
       0        0        0

-2.752197e+05 1.086142e+05        0
1.086142e+05 -9.628030e+04        0
       0        0        0

-3.949789e+05 8.952148e+04        0
8.952148e+04 -9.676788e+04        0
       0        0        0

-5.149601e+05 6.089129e+04        0
6.089129e+04 -9.749979e+04        0
       0        0        0

-6.351590e+05 2.272241e+04        0
2.272241e+04 -9.847493e+04        0
       0        0        0

3.922608e+05 2.273705e+04        0
2.273705e+04 -1.018168e+05        0
       0        0        0

2.834737e+05 6.091918e+04        0
6.091918e+04 -1.007892e+05        0
       0        0        0

1.744389e+05 8.955103e+04        0
8.955103e+04 -1.000095e+05        0
       0        0        0

6.516112e+04 1.086394e+05        0
1.086394e+05 -9.948864e+04        0
       0        0        0

-4.435479e+04 1.181814e+05        0
1.181814e+05 -9.923256e+04        0
       0        0        0

-1.541098e+05 1.181730e+05        0
1.181730e+05 -9.923756e+04        0
       0        0        0

-2.641076e+05 1.086162e+05        0
1.086162e+05 -9.949471e+04        0
       0        0        0

-3.743470e+05 8.951924e+04        0
8.951924e+04 -9.999807e+04        0
       0        0        0

-4.848186e+05 6.088897e+04        0
6.088897e+04 -1.007491e+05        0
       0        0        0

-5.955116e+05 2.272272e+04        0
2.272272e+04 -1.017526e+05        0
       0        0        0

3.462408e+05 2.273213e+04        0
2.273213e+04 -1.048596e+05        0
       0        0        0

2.470402e+05 6.090435e+04        0
6.090435e+04 -1.037913e+05        0
       0        0        0

1.475679e+05 8.953998e+04        0
8.953998e+04 -1.029768e+05        0
       0        0        0

4.784706e+04 1.086446e+05        0
1.086446e+05 -1.024414e+05        0
       0        0        0

-5.210859e+04 1.182015e+05        0
1.182015e+05 -1.021950e+05        0
       0        0        0

-1.523066e+05 1.181938e+05        0
1.181938e+05 -1.022248e+05        0
       0        0        0

-2.527641e+05 1.086235e+05        0
1.086235e+05 -1.025064e+05        0
       0        0        0

-3.534861e+05 8.951095e+04        0
8.951095e+04 -1.030243e+05        0
       0        0        0

-4.544544e+05 6.087677e+04        0
6.087677e+04 -1.037842e+05        0
       0        0        0

-5.556397e+05 2.271905e+04        0
2.271905e+04 -1.048050e+05        0
       0        0        0

3.004822e+05 2.271539e+04        0
2.271539e+04 -1.076574e+05        0
       0        0        0

2.108493e+05 6.086437e+04        0
6.086437e+04 -1.065333e+05        0
       0        0        0

1.209111e+05 8.951546e+04        0
8.951546e+04 -1.056691e+05        0
       0        0        0

3.073692e+04 1.086641e+05        0
1.086641e+05 -1.051219e+05        0
       0        0        0

-5.964355e+04 1.182578e+05        0
1.182578e+05 -1.049091e+05        0
       0        0        0

-1.502580e+05 1.182508e+05        0
1.182508e+05 -1.049962e+05        0
       0        0        0

-2.411586e+05 1.086450e+05        0
1.086450e+05 -1.053249e+05        0
       0        0        0

-3.323700e+05 8.948920e+04        0
8.948920e+04 -1.058577e+05        0
       0        0        0

-4.238570e+05 6.083943e+04        0
6.083943e+04 -1.066065e+05        0
       0        0        0

-5.155448e+05 2.270357e+04        0
2.270357e+04 -1.076228e+05        0
       0        0        0

2.550302e+05 2.266861e+04        0
2.266861e+04 -1.101928e+05        0
       0        0        0

1.749112e+05 6.076689e+04        0
6.076689e+04 -1.089786e+05        0
       0        0        0

9.444394e+04 8.946363e+04        0
8.946363e+04 -1.080332e+05        0
       0        0        0

1.379929e+04 1.087177e+05        0
1.087177e+05 -1.074804e+05        0
       0        0        0

-6.696699e+04 1.183950e+05        0
1.183950e+05 -1.073481e+05        0
       0        0        0

-1.479345e+05 1.183887e+05        0
1.183887e+05 -1.075565e+05        0
       0        0        0

-2.292386e+05 1.087005e+05        0
1.087005e+05 -1.079789e+05        0
       0        0        0

-3.109536e+05 8.944014e+04        0
8.944014e+04 -1.085307e+05        0
       0        0        0

-3.930164e+05 6.074460e+04        0
6.074460e+04 -1.092323e+05        0
       0        0        0

-4.752498e+05 2.265805e+04        0
2.265805e+04 -1.102010e+05        0
       0        0        0

2.099707e+05 2.255312e+04        0
2.255312e+04 -1.124452e+05        0
       0        0        0

1.392276e+05 6.054966e+04        0
6.054966e+04 -1.110720e+05        0
       0        0        0

6.809783e+04 8.936201e+04        0
8.936201e+04 -1.099896e+05        0
       0        0        0

-3.042201e+03 1.088455e+05        0
1.088455e+05 -1.094456e+05        0
       0        0        0

-7.410476e+04 1.186961e+05        0
1.186961e+05 -1.094775e+05        0
       0        0        0

-1.452897e+05 1.186906e+05        0
1.186906e+05 -1.099193e+05        0
       0        0        0

-2.169085e+05 1.088304e+05        0
1.088304e+05 -1.105207e+05        0
       0        0        0

-2.891518e+05 8.934130e+04        0
8.934130e+04 -1.111065e+05        0
       0        0        0

-3.619182e+05 6.053005e+04        0
6.053005e+04 -1.117009e+05        0
       0        0        0

-4.348222e+05 2.254384e+04        0
2.254384e+04 -1.125421e+05        0
       0        0        0

1.654676e+05 2.229389e+04        0
2.229389e+04 -1.143894e+05        0
       0        0        0

1.037757e+05 6.010633e+04        0
6.010633e+04 -1.127378e+05        0
       0        0        0

4.172434e+04 8.918285e+04        0
8.918285e+04 -1.114369e+05        0
       0        0        0

-1.993674e+04 1.091211e+05        0
1.091211e+05 -1.109352e+05        0
       0        0        0

-8.111029e+04 1.192969e+05        0
1.192969e+05 -1.112604e+05        0
       0        0        0

-1.422485e+05 1.192922e+05        0
1.192922e+05 -1.121001e+05        0
       0        0        0

-2.040019e+05 1.091080e+05        0
1.091080e+05 -1.130150e+05        0
       0        0        0

-2.668047e+05 8.916493e+04        0
8.916493e+04 -1.136749e+05        0
       0        0        0

-3.305323e+05 6.008944e+04        0
6.008944e+04 -1.140806e+05        0
       0        0        0

-3.944153e+05 2.228592e+04        0
2.228592e+04 -1.146607e+05        0
       0        0        0

1.218143e+05 2.175987e+04        0
2.175987e+04 -1.160001e+05        0
       0        0        0

6.846991e+04 5.928775e+04        0
5.928775e+04 -1.139016e+05        0
       0        0        0

1.504776e+04 8.891653e+04        0
8.891653e+04 -1.123083e+05        0
       0        0        0

-3.712658e+04 1.096611e+05        0
1.096611e+05 -1.119237e+05        0
       0        0        0

-8.806576e+04 1.203706e+05        0
1.203706e+05 -1.126850e+05        0
       0        0        0

-1.387020e+05 1.203666e+05        0
1.203666e+05 -1.140839e+05        0
       0        0        0

-1.902583e+05 1.096500e+05        0
1.096500e+05 -1.154691e+05        0
       0        0        0

-2.436324e+05 8.890144e+04        0
8.890144e+04 -1.162985e+05        0
       0        0        0

-2.987810e+05 5.927361e+04        0
5.927361e+04 -1.164537e+05        0
       0        0        0

-3.543298e+05 2.175326e+04        0
2.175326e+04 -1.165894e+05        0
       0        0        0

7.947515e+04 2.075678e+04        0
2.075678e+04 -1.172821e+05        0
       0        0        0

3.307865e+04 5.797447e+04        0
5.797447e+04 -1.145899e+05        0
       0        0        0

-1.236393e+04 8.865059e+04        0
8.865059e+04 -1.127886e+05        0
       0        0        0

-5.490063e+04 1.106013e+05        0
1.106013e+05 -1.126577e+05        0
       0        0        0

-9.504947e+04 1.220074e+05        0
1.220074e+05 -1.138552e+05        0
       0        0        0

-1.345317e+05 1.220041e+05        0
1.220041e+05 -1.157267e+05        0
       0        0        0

-1.753639e+05 1.105923e+05        0
1.105923e+05 -1.176118e+05        0
       0        0        0

-2.192067e+05 8.863840e+04        0
8.863840e+04 -1.187962e+05        0
       0        0        0

-2.664683e+05 5.796312e+04        0
5.796312e+04 -1.188293e+05        0
       0        0        0

-3.150782e+05 2.075156e+04        0
2.075156e+04 -1.183719e+05        0
       0        0        0

3.901604e+04 1.910250e+04        0
1.910250e+04 -1.183311e+05        0
       0        0        0

-2.945801e+03 5.638064e+04        0
5.638064e+04 -1.153385e+05        0
       0        0        0

-4.097162e+04 8.874194e+04        0
8.874194e+04 -1.139163e+05        0
       0        0        0

-7.334316e+04 1.119428e+05        0
1.119428e+05 -1.141993e+05        0
       0        0        0

-1.020044e+05 1.238170e+05        0
1.238170e+05 -1.151847e+05        0
       0        0        0

-1.297257e+05 1.238146e+05        0
1.238146e+05 -1.165458e+05        0
       0        0        0

-1.591896e+05 1.119363e+05        0
1.119363e+05 -1.183359e+05        0
       0        0        0

-1.930733e+05 8.873286e+04        0
8.873286e+04 -1.201362e+05        0
       0        0        0

-2.331278e+05 5.637209e+04        0
5.637209e+04 -1.207525e+05        0
       0        0        0

-2.773664e+05 1.909865e+04        0
1.909865e+04 -1.200521e+05        0
       0        0        0

5.231885e+02 1.710271e+04        0
1.710271e+04 -1.199683e+05        0
       0        0        0

-4.055900e+04 5.592265e+04        0
5.592265e+04 -1.183223e+05        0
       0        0        0

-7.064224e+04 9.001307e+04        0
9.001307e+04 -1.192608e+05        0
       0        0        0

-9.160225e+04 1.128998e+05        0
1.128998e+05 -1.193451e+05        0
       0        0        0

-1.084793e+05 1.240404e+05        0
1.240404e+05 -1.176209e+05        0
       0        0        0

-1.246149e+05 1.240392e+05        0
1.240392e+05 -1.154734e+05        0
       0        0        0

-1.424954e+05 1.128964e+05        0
1.128964e+05 -1.147534e+05        0
       0        0        0

-1.653497e+05 9.000769e+04        0
9.000769e+04 -1.167341e+05        0
       0        0        0

-1.979384e+05 5.591692e+04        0
5.591692e+04 -1.201833e+05        0
       0        0        0

-2.416132e+05 1.710010e+04        0
1.710010e+04 -1.211410e+05        0
       0        0        0

-3.838756e+04 1.780089e+04        0
1.780089e+04 -1.241547e+05        0
       0        0        0

-8.056431e+04 6.133461e+04        0
6.133461e+04 -1.329179e+05        0
       0        0        0

-9.823377e+04 9.241439e+04        0
9.241439e+04 -1.376493e+05        0
       0        0        0

-1.069299e+05 1.101518e+05        0
1.101518e+05 -1.330247e+05        0
       0        0        0

-1.134903e+05 1.182691e+05        0
1.182691e+05 -1.226657e+05        0
       0        0        0

-1.199857e+05 1.182695e+05        0
1.182695e+05 -1.108102e+05        0
       0        0        0

-1.278480e+05 1.101525e+05        0
1.101525e+05 -1.017531e+05        0
       0        0        0

-1.390687e+05 9.241419e+04        0
9.241419e+04 -9.965328e+04        0
       0        0        0

-1.602170e+05 6.133242e+04        0
6.133242e+04 -1.078653e+05        0
       0        0        0

-2.060740e+05 1.779909e+04        0
1.779909e+04 -1.203165e+05        0
       0        0        0

-9.041227e+04 4.054631e+04        0
4.054631e+04 -1.562833e+05        0
       0        0        0

-1.138421e+05 7.593486e+04        0
7.593486e+04 -1.858539e+05        0
       0        0        0

-1.150718e+05 8.920336e+04        0
8.920336e+04 -1.817339e+05        0
       0        0        0

-1.153875e+05 9.571255e+04        0
9.571255e+04 -1.608397e+05        0
       0        0        0

-1.157489e+05 9.856239e+04        0
9.856239e+04 -1.317915e+05        0
       0        0        0

-1.168366e+05 9.856429e+04        0
9.856429e+04 -1.007937e+05        0
       0        0        0

-1.188659e+05 9.571771e+04        0
9.571771e+04 -7.341100e+04        0
       0        0        0

-1.225609e+05 8.921016e+04        0
8.921016e+04 -5.589328e+04        0
       0        0        0

-1.289065e+05 7.594047e+04        0
7.594047e+04 -5.688864e+04        0
       0        0        0

-1.586523e+05 4.054609e+04        0
4.054609e+04 -9.278138e+04        0
       0        0        0

POINT_DATA     451
VECTORS DISPLACEMENT_6.800000e-01 double
0.000000e+00    0.000000e+00    0.000000e+00
0.000000e+00    0.000000e+00    0.000000e+00
0.000000e+00    0.000000e+00    0.000000e+00
0.000000e+00    0.000000e+00    0.000000e+00
0.000000e+00    0.000000e+00    0.000000e+00
0.000000e+00    0.000000e+00    0.000000e+00
0.000000e+00    0.000000e+00    0.000000e+00
0.000000e+00    0.000000e+00    0.000000e+00
0.000000e+00    0.000000e+00    0.000000e+00
0.000000e+00    0.000000e+00    0.000000e+00
0.000000e+00    0.000000e+00    0.000000e+00
-1.141595e-06    -8.299605e-07    0.000000e+00
-7.233448e-07    -4.163094e-07    0.000000e+00
-5.161144e-07    -2.157261e-07    0.000000e+00
-3.332233e-07    -1.068318e-07    0.000000e+00
-1.642863e-07    -5.047426e-08    0.000000e+00
-3.446726e-20    -3.295145e-08    0.000000e+00
1.642863e-07    -5.047426e-08    0.000000e+00
3.332233e-07    -1.068318e-07    0.000000e+00
5.161144e-07    -2.157261e-07    0.000000e+00
7.233448e-07    -4.163094e-07    0.000000e+00
1.141595e-06    -8.299605e-07    0.000000e+00
-2.153941e-06    -1.380309e-06    0.000000e+00
-1.574436e-06    -9.987668e-07    0.000000e+00
-1.105093e-06    -7.015532e-07    0.000000e+00
-7.128292e-07    -5.177059e-07    0.000000e+00
-3.501023e-07    -4.175298e-07    0.000000e+00
-7.277121e-20    -3.857102e-07    0.000000e+00
3.501023e-07    -4.175298e-07    0.000000e+00
7.128292e-07    -5.177059e-07    0.000000e+00
1.105093e-06    -7.015532e-07    0.000000e+00
1.574436e-06    -9.987668e-07    0.000000e+00
2.153941e-06    -1.380309e-06    0.000000e+00
-3.132427e-06    -2.064634e-06    0.000000e+00
-2.394168e-06    -1.682257e-06    0.000000e+00
-1.722702e-06    -1.380761e-06    0.000000e+00
-1.115240e-06    -1.168096e-06    0.000000e+00
-5.487489e-07    -1.045521e-06    0.000000e+00
-1.144851e-19    -1.005593e-06    0.000000e+00
5.487489e-07    -1.045521e-06    0.000000e+00
1.115240e-06    -1.168096e-06    0.000000e+00
1.722702e-06    -1.380761e-06    0.000000e+00
2.394168e-06    -1.682257e-06    0.000000e+00
3.132427e-06    -2.064634e-06    0.000000e+00
-4.100076e-06    -2.909172e-06    0.000000e+00
-3.186876e-06    -2.535522e-06    0.000000e+00
-2.326958e-06    -2.239053e-06    0.000000e+00
-1.519408e-06    -2.025105e-06    0.000000e+00
-7.500557e-07    -1.896684e-06    0.000000e+00
-1.578062e-19    -1.854101e-06    0.000000e+00
7.500557e-07    -1.896684e-06    0.000000e+00
1.519408e-06    -2.025105e-06    0.000000e+00
2.326958e-06    -2.239053e-06    0.000000e+00
3.186876e-06    -2.535522e-06    0.000000e+00
4.100076e-06    -2.909172e-06    0.000000e+00
-5.051341e-06    -3.936654e-06    0.000000e+00
-3.956477e-06    -3.571725e-06    0.000000e+00
-2.911986e-06    -3.284208e-06    0.000000e+00
-1.912865e-06    -3.075889e-06    0.000000e+00
-9.475500e-07    -2.949778e-06    0.000000e+00
-2.022026e-19    -2.907564e-06    0.000000e+00
9.475500e-07    -2.949778e-06    0.000000e+00
1.912865e-06    -3.075889e-06    0.000000e+00
2.911986e-06    -3.284208e-06    0.000000e+00
3.956477e-06    -3.571725e-06    0.000000e+00
5.051341e-06    -3.936654e-06    0.000000e+00
-5.981873e-06    -5.149742e-06    0.000000e+00
-4.704513e-06    -4.794468e-06    0.000000e+00
-3.477740e-06    -4.516043e-06    0.000000e+00
-2.292922e-06    -4.315096e-06    0.000000e+00
-1.138484e-06    -4.193469e-06    0.000000e+00
-2.478630e-19    -4.152740e-06    0.000000e+00
1.138484e-06    -4.193469e-06    0.000000e+00
2.292922e-06    -4.315096e-06    0.000000e+00
3.477740e-06    -4.516043e-06    0.000000e+00
4.704513e-06    -4.794468e-06    0.000000e+00
5.981873e-06    -5.149742e-06    0.000000e+00
-6.888558e-06    -6.546376e-06    0.000000e+00
-5.431254e-06    -6.201154e-06    0.000000e+00
-4.025294e-06    -5.931590e-06    0.000000e+00
-2.659769e-06    -5.737829e-06    0.000000e+00
-1.322562e-06    -5.620886e-06    0.000000e+00
-2.914058e-19    -5.581769e-06    0.000000e+00
1.322562e-06    -5.620886e-06    0.000000e+00
2.659769e-06    -5.737829e-06    0.000000e+00
4.025294e-06    -5.931590e-06    0.000000e+00
5.431254e-06    -6.201154e-06    0.000000e+00
6.888558e-06    -6.546376e-06    0.000000e+00
-7.769676e-06    -8.122139e-06    0.000000e+00
-6.136609e-06    -7.787205e-06    0.000000e+00
-4.555509e-06    -7.526210e-06    0.000000e+00
-3.014226e-06    -7.339157e-06    0.000000e+00
-1.500173e-06    -7.226543e-06    0.000000e+00
-3.350809e-19    -7.188927e-06    0.000000e+00
1.500173e-06    -7.226543e-06    0.000000e+00
3.014226e-06    -7.339157e-06    0.000000e+00
4.555509e-06    -7.526210e-06    0.000000e+00
6.136609e-06    -7.787205e-06    0.000000e+00
7.769676e-06    -8.122139e-06    0.000000e+00
-8.624338e-06    -9.871838e-06    0.000000e+00
-6.820449e-06    -9.547301e-06    0.000000e+00
-5.068913e-06    -9.294676e-06    0.000000e+00
-3.356973e-06    -9.113935e-06    0.000000e+00
-1.671744e-06    -9.005300e-06    0.000000e+00
-3.798149e-19    -8.969049e-06    0.000000e+00
1.671744e-06    -9.005300e-06    0.000000e+00
3.356973e-06    -9.113935e-06    0.000000e+00
5.068913e-06    -9.294676e-06    0.000000e+00
6.820449e-06    -9.547301e-06    0.000000e+00
8.624338e-06    -9.871838e-06    0.000000e+00
-9.452128e-06    -1.179002e-05    0.000000e+00
-7.482678e-06    -1.147593e-05    0.000000e+00
-5.565791e-06    -1.123156e-05    0.000000e+00
-3.688437e-06    -1.105688e-05    0.000000e+00
-1.837569e-06    -1.095199e-05    0.000000e+00
-4.262164e-19    -1.091701e-05    0.000000e+00
1.837569e-06    -1.095199e-05    0.000000e+00
3.688437e-06    -1.105688e-05    0.000000e+00
5.565791e-06    -1.123156e-05    0.000000e+00
7.482678e-06    -1.147593e-05    0.000000e+00
9.452128e-06    -1.179002e-05    0.000000e+00
-1.025287e-05    -1.387120e-05    0.000000e+00
-8.123242e-06    -1.356758e-05    0.000000e+00
-6.046283e-06    -1.333140e-05    0.000000e+00
-4.008850e-06    -1.316265e-05    0.000000e+00
-1.997814e-06    -1.306137e-05    0.000000e+00
-4.663975e-19    -1.302760e-05    0.000000e+00
1.997814e-06    -1.306137e-05    0.000000e+00
4.008850e-06    -1.316265e-05    0.000000e+00
6.046283e-06    -1.333140e-05    0.000000e+00
8.123242e-06    -1.356758e-05    0.000000e+00
1.025287e-05    -1.387120e-05    0.000000e+00
-1.102648e-05    -1.610989e-05    0.000000e+00
-8.742113e-06    -1.581673e-05    0.000000e+00
-6.510452e-06    -1.558871e-05    0.000000e+00
-4.318325e-06    -1.542583e-05    0.000000e+00
-2.152566e-06    -1.532809e-05    0.000000e+00
-5.067904e-19    -1.529550e-05    0.000000e+00
2.152566e-06    -1.532809e-05    0.000000e+00
4.318325e-06    -1.542583e-05    0.000000e+00
6.510452e-06    -1.558871e-05    0.000000e+00
8.742113e-06    -1.581673e-05    0.000000e+00
1.102648e-05    -1.610989e-05    0.000000e+00
-1.177296e-05    -1.850062e-05    0.000000e+00
-9.339276e-06    -1.821793e-05    0.000000e+00
-6.958324e-06    -1.799806e-05    0.000000e+00
-4.616914e-06    -1.784101e-05    0.000000e+00
-2.301865e-06    -1.774678e-05    0.000000e+00
-5.519478e-19    -1.771537e-05    0.000000e+00
2.301865e-06    -1.774678e-05    0.000000e+00
4.616914e-06    -1.784101e-05    0.000000e+00
6.958324e-06    -1.799806e-05    0.000000e+00
9.339276e-06    -1.821793e-05    0.000000e+00
1.177296e-05    -1.850062e-05    0.000000e+00
-1.249228e-05    -2.103794e-05    0.000000e+00
-9.914727e-06    -2.076572e-05    0.000000e+00
-7.389909e-06    -2.055400e-05    0.000000e+00
-4.904637e-06    -2.040277e-05    0.000000e+00
-2.445728e-06    -2.031204e-05    0.000000e+00
-5.826528e-19    -2.028179e-05    0.000000e+00
2.445728e-06    -2.031204e-05    0.000000e+00
4.904637e-06    -2.040277e-05    0.000000e+00
7.389909e-06    -2.055400e-05    0.000000e+00
9.914727e-06    -2.076572e-05    0.000000e+00
1.249228e-05    -2.103794e-05    0.000000e+00
-1.318446e-05    -2.371642e-05    0.000000e+00
-1.046846e-05    -2.345467e-05    0.000000e+00
-7.805208e-06    -2.325109e-05    0.000000e+00
-5.181501e-06    -2.310568e-05    0.000000e+00
-2.584160e-06    -2.301844e-05    0.000000e+00
-6.093343e-19    -2.298935e-05    0.000000e+00
2.584160e-06    -2.301844e-05    0.000000e+00
5.181501e-06    -2.310568e-05    0.000000e+00
7.805208e-06    -2.325109e-05    0.000000e+00
1.046846e-05    -2.345467e-05    0.000000e+00
1.318446e-05    -2.371642e-05    0.000000e+00
-1.384949e-05    -2.653062e-05    0.000000e+00
-1.100049e-05    -2.627934e-05    0.000000e+00
-8.204222e-06    -2.608391e-05    0.000000e+00
-5.447509e-06    -2.594431e-05    0.000000e+00
-2.717163e-06    -2.586055e-05    0.000000e+00
-6.297690e-19    -2.583264e-05    0.000000e+00
2.717163e-06    -2.586055e-05    0.000000e+00
5.447509e-06    -2.594431e-05    0.000000e+00
8.204222e-06    -2.608391e-05    0.000000e+00
1.100049e-05    -2.627934e-05    0.000000e+00
1.384949e-05    -2.653062e-05    0.000000e+00
-1.448737e-05    -2.947511e-05    0.000000e+00
-1.151079e-05    -2.923430e-05    0.000000e+00
-8.586950e-06    -2.904701e-05    0.000000e+00
-5.702661e-06    -2.891323e-05    0.000000e+00
-2.844739e-06    -2.883296e-05    0.000000e+00
-6.325219e-19    -2.880621e-05    0.000000e+00
2.844739e-06    -2.883296e-05    0.000000e+00
5.702661e-06    -2.891323e-05    0.000000e+00
8.586950e-06    -2.904701e-05    0.000000e+00
1.151079e-05    -2.923430e-05    0.000000e+00
1.448737e-05    -2.947511e-05    0.000000e+00
-1.509811e-05    -3.254446e-05    0.000000e+00
-1.199938e-05    -3.231413e-05    0.000000e+00
-8.953392e-06    -3.213498e-05    0.000000e+00
-5.946955e-06    -3.200701e-05    0.000000e+00
-2.966886e-06    -3.193024e-05    0.000000e+00
-6.500978e-19    -3.190464e-05    0.000000e+00
2.966886e-06    -3.193024e-05    0.000000e+00
5.946955e-06    -3.200701e-05    0.000000e+00
8.953392e-06    -3.213498e-05    0.000000e+00
1.199938e-05    -3.231413e-05    0.000000e+00
1.509811e-05    -3.254446e-05    0.000000e+00
-1.568170e-05    -3.573325e-05    0.000000e+00
-1.246626e-05    -3.551338e-05    0.000000e+00
-9.303549e-06    -3.534238e-05    0.000000e+00
-6.180392e-06    -3.522023e-05    0.000000e+00
-3.083604e-06    -3.514694e-05    0.000000e+00
-6.830262e-19    -3.512251e-05    0.000000e+00
3.083604e-06    -3.514694e-05    0.000000e+00
6.180392e-06    -3.522023e-05    0.000000e+00
9.303549e-06    -3.534238e-05    0.000000e+00
1.246626e-05    -3.551338e-05    0.000000e+00
1.568170e-05    -3.573325e-05    0.000000e+00
-1.623815e-05    -3.903604e-05    0.000000e+00
-1.291142e-05    -3.882665e-05    0.000000e+00
-9.637419e-06    -3.866378e-05    0.000000e+00
-6.402972e-06    -3.854745e-05    0.000000e+00
-3.194894e-06    -3.847765e-05    0.000000e+00
-7.284483e-19    -3.845439e-05    0.000000e+00
3.194894e-06    -3.847765e-05    0.000000e+00
6.402972e-06    -3.854745e-05    0.000000e+00
9.637419e-06    -3.866378e-05    0.000000e+00
1.291142e-05    -3.882665e-05    0.000000e+00
1.623815e-05    -3.903604e-05    0.000000e+00
-1.676746e-05    -4.244741e-05    0.000000e+00
-1.333486e-05    -4.224848e-05    0.000000e+00
-9.955003e-06    -4.209376e-05    0.000000e+00
-6.614695e-06    -4.198325e-05    0.000000e+00
-3.300755e-06    -4.191694e-05    0.000000e+00
-7.904935e-19    -4.189484e-05    0.000000e+00
3.300755e-06    -4.191694e-05    0.000000e+00
6.614695e-06    -4.198325e-05    0.000000e+00
9.955003e-06    -4.209376e-05    0.000000e+00
1.333486e-05    -4.224848e-05    0.000000e+00
1.676746e-05    -4.244741e-05    0.000000e+00
-1.726962e-05    -4.596192e-05    0.000000e+00
-1.373659e-05    -4.577347e-05    0.000000e+00
-1.025630e-05    -4.562689e-05    0.000000e+00
-6.815560e-06    -4.552219e-05    0.000000e+00
-3.401188e-06    -4.545937e-05    0.000000e+00
-8.385626e-19    -4.543843e-05    0.000000e+00
3.401188e-06    -4.545937e-05    0.000000e+00
6.815560e-06    -4.552219e-05    0.000000e+00
1.025630e-05    -4.562689e-05    0.000000e+00
1.373659e-05    -4.577347e-05    0.000000e+00
1.726962e-05    -4.596192e-05    0.000000e+00
-1.774464e-05    -4.957415e-05    0.000000e+00
-1.411661e-05    -4.939617e-05    0.000000e+00
-1.054131e-05    -4.925773e-05    0.000000e+00
-7.005568e-06    -4.915885e-05    0.000000e+00
-3.496192e-06    -4.909952e-05    0.000000e+00
-8.694793e-19    -4.907975e-05    0.000000e+00
3.496192e-06    -4.909952e-05    0.000000e+00
7.005568e-06    -4.915885e-05    0.000000e+00
1.054131e-05    -4.925773e-05    0.000000e+00
1.411661e-05    -4.939617e-05    0.000000e+00
1.774464e-05    -4.957415e-05    0.000000e+00
-1.819252e-05    -5.327868e-05    0.000000e+00
-1.447491e-05    -5.311116e-05    0.000000e+00
-1.081004e-05    -5.298087e-05    0.000000e+00
-7.184718e-06    -5.288780e-05    0.000000e+00
-3.585767e-06    -5.283196e-05    0.000000e+00
-9.095016e-19    -5.281335e-05    0.000000e+00
3.585767e-06    -5.283196e-05    0.000000e+00
7.184718e-06    -5.288780e-05    0.000000e+00
1.081004e-05    -5.298087e-05    0.000000e+00
1.447491e-05    -5.311116e-05    0.000000e+00
1.819252e-05    -5.327868e-05    0.000000e+00
-1.861325e-05    -5.707006e-05    0.000000e+00
-1.481149e-05    -5.691301e-05    0.000000e+00
-1.106248e-05    -5.679086e-05    0.000000e+00
-7.353011e-06    -5.670361e-05    0.000000e+00
-3.669914e-06    -5.665126e-05    0.000000e+00
-9.200895e-19    -5.663381e-05    0.000000e+00
3.669914e-06    -5.665126e-05    0.000000e+00
7.353011e-06    -5.670361e-05    0.000000e+00
1.106248e-05    -5.679086e-05    0.000000e+00
1.481149e-05    -5.691301e-05    0.000000e+00
1.861325e-05    -5.707006e-05    0.000000e+00
-1.900683e-05    -6.094287e-05    0.000000e+00
-1.512636e-05    -6.079629e-05    0.000000e+00
-1.129863e-05    -6.068229e-05    0.000000e+00
-7.510448e-06    -6.060086e-05    0.000000e+00
-3.748633e-06    -6.055200e-05    0.000000e+00
-9.359714e-19    -6.053571e-05    0.000000e+00
3.748633e-06    -6.055200e-05    0.000000e+00
7.510448e-06    -6.060086e-05    0.000000e+00
1.129863e-05    -6.068229e-05    0.000000e+00
1.512636e-05    -6.079629e-05    0.000000e+00
1.900683e-05    -6.094287e-05    0.000000e+00
-1.937327e-05    -6.489169e-05    0.000000e+00
-1.541952e-05    -6.475558e-05    0.000000e+00
-1.151850e-05    -6.464972e-05    0.000000e+00
-7.657028e-06    -6.457410e-05    0.000000e+00
-3.821923e-06    -6.452873e-05    0.000000e+00
-9.478299e-19    -6.451361e-05    0.000000e+00
3.821923e-06    -6.452873e-05    0.000000e+00
7.657028e-06    -6.457410e-05    0.000000e+00
1.151850e-05    -6.464972e-05    0.000000e+00
1.541952e-05    -6.475558e-05    0.000000e+00
1.937327e-05    -6.489169e-05    0.000000e+00
-1.971256e-05    -6.891107e-05    0.000000e+00
-1.569095e-05    -6.878544e-05    0.000000e+00
-1.172208e-05    -6.868772e-05    0.000000e+00
-7.792750e-06    -6.861792e-05    0.000000e+00
-3.889784e-06    -6.857604e-05    0.000000e+00
-9.457123e-19    -6.856208e-05    0.000000e+00
3.889784e-06    -6.857604e-05    0.000000e+00
7.792750e-06    -6.861792e-05    0.000000e+00
1.172208e-05    -6.868772e-05    0.000000e+00
1.569095e-05    -6.878544e-05    0.000000e+00
1.971256e-05    -6.891107e-05    0.000000e+00
-2.002471e-05    -7.299559e-05    0.000000e+00
-1.594068e-05    -7.288043e-05    0.000000e+00
-1.190938e-05    -7.279086e-05    0.000000e+00
-7.917611e-06    -7.272688e-05    0.000000e+00
-3.952212e-06    -7.268851e-05    0.000000e+00
-9.563002e-19    -7.267572e-05    0.000000e+00
3.952212e-06    -7.268851e-05    0.000000e+00
7.917611e-06    -7.272688e-05    0.000000e+00
1.190938e-05    -7.279086e-05    0.000000e+00
1.594068e-05    -7.288043e-05    0.000000e+00
2.002471e-05    -7.299559e-05    0.000000e+00
-2.030971e-05    -7.713981e-05    0.000000e+00
-1.616869e-05    -7.703511e-05    0.000000e+00
-1.208038e-05    -7.695370e-05    0.000000e+00
-8.031599e-06    -7.689557e-05    0.000000e+00
-4.009198e-06    -7.686071e-05    0.000000e+00
-9.982283e-19    -7.684909e-05    0.000000e+00
4.009198e-06    -7.686071e-05    0.000000e+00
8.031599e-06    -7.689557e-05    0.000000e+00
1.208038e-05    -7.695370e-05    0.000000e+00
1.616869e-05    -7.703511e-05    0.000000e+00
2.030971e-05    -7.713981e-05    0.000000e+00
-2.056757e-05    -8.133827e-05    0.000000e+00
-1.637501e-05    -8.124404e-05    0.000000e+00
-1.223508e-05    -8.117079e-05    0.000000e+00
-8.134685e-06    -8.111855e-05    0.000000e+00
-4.060719e-06    -8.108725e-05    0.000000e+00
-1.033804e-18    -8.107682e-05    0.000000e+00
4.060719e-06    -8.108725e-05    0.000000e+00
8.134685e-06    -8.111855e-05    0.000000e+00
1.223508e-05    -8.117079e-05    0.000000e+00
1.637501e-05    -8.124404e-05    0.000000e+00
2.056757e-05    -8.133827e-05    0.000000e+00
-2.079833e-05    -8.558550e-05    0.000000e+00
-1.655963e-05    -8.550173e-05    0.000000e+00
-1.237344e-05    -8.543669e-05    0.000000e+00
-8.226802e-06    -8.539041e-05    0.000000e+00
-4.106724e-06    -8.536275e-05    0.000000e+00
-1.105378e-18    -8.535356e-05    0.000000e+00
4.106724e-06    -8.536275e-05    0.000000e+00
8.226802e-06    -8.539041e-05    0.000000e+00
1.237344e-05    -8.543669e-05    0.000000e+00
1.655963e-05    -8.550173e-05    0.000000e+00
2.079833e-05    -8.558550e-05    0.000000e+00
-2.100210e-05    -8.987603e-05    0.000000e+00
-1.672261e-05    -8.980269e-05    0.000000e+00
-1.249537e-05    -8.974594e-05    0.000000e+00
-8.307807e-06    -8.970578e-05    0.000000e+00
-4.147107e-06    -8.968192e-05    0.000000e+00
-1.169329e-18    -8.967401e-05    0.000000e+00
4.147107e-06    -8.968192e-05    0.000000e+00
8.307807e-06    -8.970578e-05    0.000000e+00
1.249537e-05    -8.974594e-05    0.000000e+00
1.672261e-05    -8.980269e-05    0.000000e+00
2.100210e-05    -8.987603e-05    0.000000e+00
-2.117912e-05    -9.420439e-05    0.000000e+00
-1.686399e-05    -9.414142e-05    0.000000e+00
-1.260070e-05    -9.409307e-05    0.000000e+00
-8.377428e-06    -9.405931e-05    0.000000e+00
-4.181679e-06    -9.403948e-05    0.000000e+00
-1.203210e-18    -9.403296e-05    0.000000e+00
4.181679e-06    -9.403948e-05    0.000000e+00
8.377428e-06    -9.405931e-05    0.000000e+00
1.260070e-05    -9.409307e-05    0.000000e+00
1.686399e-05    -9.414142e-05    0.000000e+00
2.117912e-05    -9.420439e-05    0.000000e+00
-2.132994e-05    -9.856523e-05    0.000000e+00
-1.698387e-05    -9.851248e-05    0.000000e+00
-1.268909e-05    -9.847276e-05    0.000000e+00
-8.435205e-06    -9.844575e-05    0.000000e+00
-4.210141e-06    -9.843026e-05    0.000000e+00
-1.260809e-18    -9.842523e-05    0.000000e+00
4.210141e-06    -9.843026e-05    0.000000e+00
8.435205e-06    -9.844575e-05    0.000000e+00
1.268909e-05    -9.847276e-05    0.000000e+00
1.698387e-05    -9.851248e-05    0.000000e+00
2.132994e-05    -9.856523e-05    0.000000e+00
-2.145562e-05    -1.029537e-04    0.000000e+00
-1.708235e-05    -1.029109e-04    0.000000e+00
-1.275997e-05    -1.028800e-04    0.000000e+00
-8.480517e-06    -1.028600e-04    0.000000e+00
-4.232143e-06    -1.028489e-04    0.000000e+00
-1.310360e-18    -1.028454e-04    0.000000e+00
4.232143e-06    -1.028489e-04    0.000000e+00
8.480517e-06    -1.028600e-04    0.000000e+00
1.275997e-05    -1.028800e-04    0.000000e+00
1.708235e-05    -1.029109e-04    0.000000e+00
2.145562e-05    -1.029537e-04    0.000000e+00
-2.155817e-05    -1.073660e-04    0.000000e+00
-1.715935e-05    -1.073327e-04    0.000000e+00
-1.281258e-05    -1.073105e-04    0.000000e+00
-8.512904e-06    -1.072970e-04    0.000000e+00
-4.247579e-06    -1.072895e-04    0.000000e+00
-1.246832e-18    -1.072870e-04    0.000000e+00
4.247579e-06    -1.072895e-04    0.000000e+00
8.512904e-06    -1.072970e-04    0.000000e+00
1.281258e-05    -1.073105e-04    0.000000e+00
1.715935e-05    -1.073327e-04    0.000000e+00
2.155817e-05    -1.073660e-04    0.000000e+00
-2.164067e-05    -1.118022e-04    0.000000e+00
-1.721429e-05    -1.117772e-04    0.000000e+00
-1.284670e-05    -1.117621e-04    0.000000e+00
-8.533270e-06    -1.117511e-04    0.000000e+00
-4.257281e-06    -1.117436e-04    0.000000e+00
-1.169329e-18    -1.117409e-04    0.000000e+00
4.257281e-06    -1.117436e-04    0.000000e+00
8.533270e-06    -1.117511e-04    0.000000e+00
1.284670e-05    -1.117621e-04    0.000000e+00
1.721429e-05    -1.117772e-04    0.000000e+00
2.164067e-05    -1.118022e-04    0.000000e+00
-2.170513e-05    -1.162704e-04    0.000000e+00
-1.724615e-05    -1.162523e-04    0.000000e+00
-1.286626e-05    -1.162338e-04    0.000000e+00
-8.546206e-06    -1.162132e-04    0.000000e+00
-4.263865e-06    -1.161978e-04    0.000000e+00
-1.165941e-18    -1.161922e-04    0.000000e+00
4.263865e-06    -1.161978e-04    0.000000e+00
8.546206e-06    -1.162132e-04    0.000000e+00
1.286626e-05    -1.162338e-04    0.000000e+00
1.724615e-05    -1.162523e-04    0.000000e+00
2.170513e-05    -1.162704e-04    0.000000e+00
-2.173924e-05    -1.208105e-04    0.000000e+00
-1.726634e-05    -1.207758e-04    0.000000e+00
-1.288608e-05    -1.207173e-04    0.000000e+00
-8.561321e-06    -1.206645e-04    0.000000e+00
-4.272039e-06    -1.206293e-04    0.000000e+00
-1.168482e-18    -1.206170e-04    0.000000e+00
4.272039e-06    -1.206293e-04    0.000000e+00
8.561321e-06    -1.206645e-04    0.000000e+00
1.288608e-05    -1.207173e-04    0.000000e+00
1.726634e-05    -1.207758e-04    0.000000e+00
2.173924e-05    -1.208105e-04    0.000000e+00

CELL_DATA      400
TENSORS Element_Stress6.800000e-01 double
1.820598e+06 2.551812e+05        0
2.551812e+05 4.163488e+05        0
       0        0        0

1.243720e+06 1.308538e+05        0
1.308538e+05 3.566178e+05        0
       0        0        0

8.651185e+05 4.301032e+04        0
4.301032e+04 2.749959e+05        0
       0        0        0

5.100063e+05 -3.578363e+03        0
-3.578363e+03 1.690094e+05        0
       0        0        0

1.688541e+05 -2.488323e+04        0
-2.488323e+04 5.694968e+04        0
       0        0        0

-1.688184e+05 -2.487711e+04        0
-2.487711e+04 -5.695775e+04        0
       0        0        0

-5.095306e+05 -3.579112e+03        0
-3.579112e+03 -1.688447e+05        0
       0        0        0

-8.637077e+05 4.293851e+04        0
4.293851e+04 -2.744671e+05        0
       0        0        0

-1.240734e+06 1.305652e+05        0
1.305652e+05 -3.554740e+05        0
       0        0        0

-1.814375e+06 2.543707e+05        0
2.543707e+05 -4.141970e+05        0
       0        0        0

1.642070e+06 4.159748e+04        0
4.159748e+04 4.234799e+03        0
       0        0        0

1.322354e+06 1.206454e+05        0
1.206454e+05 1.286843e+05        0
       0        0        0

9.082521e+05 9.900755e+04        0
9.900755e+04 1.315191e+05        0
       0        0        0

5.364025e+05 7.580678e+04        0
7.580678e+04 9.193311e+04        0
       0        0        0

1.768172e+05 6.321707e+04        0
6.321707e+04 3.207757e+04        0
       0        0        0

-1.778550e+05 6.319873e+04        0
6.319873e+04 -3.316896e+04        0
       0        0        0

-5.369363e+05 7.574133e+04        0
7.574133e+04 -9.284490e+04        0
       0        0        0

-9.077061e+05 9.886737e+04        0
9.886737e+04 -1.320379e+05        0
       0        0        0

-1.319830e+06 1.204079e+05        0
1.204079e+05 -1.284324e+05        0
       0        0        0

-1.637466e+06 4.151082e+04        0
4.151082e+04 -3.136555e+03        0
       0        0        0

1.584953e+06 1.541639e+04        0
1.541639e+04 6.615316e+03        0
       0        0        0

1.271591e+06 6.833109e+04        0
6.833109e+04 1.757728e+04        0
       0        0        0

9.146413e+05 1.015639e+05        0
1.015639e+05 4.237686e+04        0
       0        0        0

5.430826e+05 1.074765e+05        0
1.074765e+05 3.592346e+04        0
       0        0        0

1.791459e+05 1.074054e+05        0
1.074054e+05 1.272037e+04        0
       0        0        0

-1.824790e+05 1.073775e+05        0
1.073775e+05 -1.611190e+04        0
       0        0        0

-5.458838e+05 1.073933e+05        0
1.073933e+05 -3.912503e+04        0
       0        0        0

-9.163117e+05 1.014348e+05        0
1.014348e+05 -4.515293e+04        0
       0        0        0

-1.271565e+06 6.821622e+04        0
6.821622e+04 -1.966893e+04        0
       0        0        0

-1.582978e+06 1.538448e+04        0
1.538448e+04 -7.911807e+03        0
       0        0        0

1.546129e+06 1.427370e+04        0
1.427370e+04 -3.975752e+03        0
       0        0        0

1.226683e+06 5.548208e+04        0
5.548208e+04 -1.953361e+03        0
       0        0        0

8.865538e+05 9.245024e+04        0
9.245024e+04 2.933168e+03        0
       0        0        0

5.331314e+05 1.146030e+05        0
1.146030e+05 5.877770e+03        0
       0        0        0

1.753740e+05 1.233579e+05        0
1.233579e+05 6.880625e+02        0
       0        0        0

-1.820438e+05 1.233283e+05        0
1.233283e+05 -7.415933e+03        0
       0        0        0

-5.392752e+05 1.145213e+05        0
1.145213e+05 -1.241206e+04        0
       0        0        0

-8.916350e+05 9.234262e+04        0
9.234262e+04 -9.058365e+03        0
       0        0        0

-1.230189e+06 5.539388e+04        0
5.539388e+04 -3.528931e+03        0
       0        0        0

-1.547532e+06 1.424568e+04        0
1.424568e+04 -5.504384e+02        0
       0        0        0

1.509427e+06 1.713063e+04        0
1.713063e+04 -5.567249e+03        0
       0        0        0

1.185340e+06 5.448733e+04        0
5.448733e+04 -8.577651e+03        0
       0        0        0

8.541561e+05 8.905469e+04        0
8.905469e+04 -8.329305e+03        0
       0        0        0

5.137340e+05 1.136408e+05        0
1.136408e+05 -6.745280e+03        0
       0        0        0

1.681056e+05 1.258450e+05        0
1.258450e+05 -5.639044e+03        0
       0        0        0

-1.789903e+05 1.258166e+05        0
1.258166e+05 -5.300819e+03        0
       0        0        0

-5.241237e+05 1.135646e+05        0
1.135646e+05 -4.010288e+03        0
       0        0        0

-8.635542e+05 8.895612e+04        0
8.895612e+04 -2.042812e+03        0
       0        0        0

-1.193244e+06 5.440409e+04        0
5.440409e+04 -1.179541e+03        0
       0        0        0

-1.515273e+06 1.709766e+04        0
1.709766e+04 -3.264824e+03        0
       0        0        0

1.469671e+06 1.958963e+04        0
1.958963e+04 -7.911531e+03        0
       0        0        0

1.147077e+06 5.644559e+04        0
5.644559e+04 -1.054799e+04        0
       0        0        0

8.224151e+05 8.838594e+04        0
8.838594e+04 -1.192774e+04        0
       0        0        0

4.928620e+05 1.117722e+05        0
1.117722e+05 -1.113898e+04        0
       0        0        0

1.594065e+05 1.239614e+05        0
1.239614e+05 -9.157848e+03        0
       0        0        0

-1.752704e+05 1.239347e+05        0
1.239347e+05 -6.757342e+03        0
       0        0        0

-5.082716e+05 1.117003e+05        0
1.117003e+05 -4.611022e+03        0
       0        0        0

-8.369138e+05 8.829171e+04        0
8.829171e+04 -3.479956e+03        0
       0        0        0

-1.160194e+06 5.636191e+04        0
5.636191e+04 -4.312364e+03        0
       0        0        0

-1.480879e+06 1.955284e+04        0
1.955284e+04 -6.139554e+03        0
       0        0        0

1.427069e+06 2.114429e+04        0
2.114429e+04 -1.052964e+04        0
       0        0        0

1.109854e+06 5.834958e+04        0
5.834958e+04 -1.236661e+04        0
       0        0        0

7.924051e+05 8.864128e+04        0
8.864128e+04 -1.362108e+04        0
       0        0        0

4.726277e+05 1.103428e+05        0
1.103428e+05 -1.337050e+04        0
       0        0        0

1.506199e+05 1.216735e+05        0
1.216735e+05 -1.181697e+04        0
       0        0        0

-1.721469e+05 1.216483e+05        0
1.216483e+05 -9.757740e+03        0
       0        0        0

-4.937482e+05 1.102742e+05        0
1.102742e+05 -8.067258e+03        0
       0        0        0

-8.127094e+05 8.854973e+04        0
8.854973e+04 -7.533908e+03        0
       0        0        0

-1.128918e+06 5.826553e+04        0
5.826553e+04 -8.339735e+03        0
       0        0        0

-1.444434e+06 2.110561e+04        0
2.110561e+04 -9.528609e+03        0
       0        0        0

1.382471e+06 2.200181e+04        0
2.200181e+04 -1.363722e+04        0
       0        0        0

1.072891e+06 5.961398e+04        0
5.961398e+04 -1.472183e+04        0
       0        0        0

7.635785e+05 8.901007e+04        0
8.901007e+04 -1.557414e+04        0
       0        0        0

4.533125e+05 1.094858e+05        0
1.094858e+05 -1.552412e+04        0
       0        0        0

1.419522e+05 1.200358e+05        0
1.200358e+05 -1.458784e+04        0
       0        0        0

-1.697603e+05 1.200117e+05        0
1.200117e+05 -1.326479e+04        0
       0        0        0

-4.807667e+05 1.094198e+05        0
1.094198e+05 -1.222641e+04        0
       0        0        0

-7.903212e+05 8.892090e+04        0
8.892090e+04 -1.196593e+04        0
       0        0        0

-1.098554e+06 5.953060e+04        0
5.953060e+04 -1.248635e+04        0
       0        0        0

-1.406666e+06 2.196271e+04        0
2.196271e+04 -1.309846e+04        0
       0        0        0

1.336650e+06 2.243103e+04        0
2.243103e+04 -1.712975e+04        0
       0        0        0

1.035846e+06 6.032508e+04        0
6.032508e+04 -1.770734e+04        0
       0        0        0

7.353690e+05 8.928001e+04        0
8.928001e+04 -1.819357e+04        0
       0        0        0

4.345842e+05 1.090314e+05        0
1.090314e+05 -1.820574e+04        0
       0        0        0

1.333510e+05 1.190751e+05        0
1.190751e+05 -1.770719e+04        0
       0        0        0

-1.679948e+05 1.190519e+05        0
1.190519e+05 -1.697818e+04        0
       0        0        0

-4.689286e+05 1.089678e+05        0
1.089678e+05 -1.641605e+04        0
       0        0        0

-7.691116e+05 8.919329e+04        0
8.919329e+04 -1.629667e+04        0
       0        0        0

-1.068676e+06 6.024325e+04        0
6.024325e+04 -1.657480e+04        0
       0        0        0

-1.368246e+06 2.239236e+04        0
2.239236e+04 -1.685617e+04        0
       0        0        0

1.290108e+06 2.262769e+04        0
2.262769e+04 -2.093370e+04        0
       0        0        0

9.986145e+05 6.068320e+04        0
6.068320e+04 -2.119241e+04        0
       0        0        0

7.073840e+05 8.943847e+04        0
8.943847e+04 -2.142407e+04        0
       0        0        0

4.161153e+05 1.088122e+05        0
1.088122e+05 -2.143279e+04        0
       0        0        0

1.247137e+05 1.185759e+05        0
1.185759e+05 -2.118594e+04        0
       0        0        0

-1.666835e+05 1.185536e+05        0
1.185536e+05 -2.082274e+04        0
       0        0        0

-4.578408e+05 1.087507e+05        0
1.087507e+05 -2.055219e+04        0
       0        0        0

-7.486181e+05 8.935433e+04        0
8.935433e+04 -2.051028e+04        0
       0        0        0

-1.039104e+06 6.060345e+04        0
6.060345e+04 -2.065826e+04        0
       0        0        0

-1.329592e+06 2.258991e+04        0
2.258991e+04 -2.079207e+04        0
       0        0        0

1.243138e+06 2.270943e+04        0
2.270943e+04 -2.498210e+04        0
       0        0        0

9.611829e+05 6.084707e+04        0
6.084707e+04 -2.504187e+04        0
       0        0        0

6.794119e+05 8.952007e+04        0
8.952007e+04 -2.510676e+04        0
       0        0        0

3.976942e+05 1.087151e+05        0
1.087151e+05 -2.508705e+04        0
       0        0        0

1.159751e+05 1.183403e+05        0
1.183403e+05 -2.496213e+04        0
       0        0        0

-1.656966e+05 1.183187e+05        0
1.183187e+05 -2.479576e+04        0
       0        0        0

-4.472257e+05 1.086557e+05        0
1.086557e+05 -2.468699e+04        0
       0        0        0

-7.285608e+05 8.943859e+04        0
8.943859e+04 -2.469694e+04        0
       0        0        0

-1.009752e+06 6.076971e+04        0
6.076971e+04 -2.480000e+04        0
       0        0        0

-1.290922e+06 2.267274e+04        0
2.267274e+04 -2.489961e+04        0
       0        0        0

1.195902e+06 2.273919e+04        0
2.273919e+04 -2.922324e+04        0
       0        0        0

9.235708e+05 6.091458e+04        0
6.091458e+04 -2.915047e+04        0
       0        0        0

6.513590e+05 8.955767e+04        0
8.955767e+04 -2.910387e+04        0
       0        0        0

3.792147e+05 1.086759e+05        0
1.086759e+05 -2.904718e+04        0
       0        0        0

1.071092e+05 1.182389e+05        0
1.182389e+05 -2.896999e+04        0
       0        0        0

-1.649443e+05 1.182180e+05        0
1.182180e+05 -2.889900e+04        0
       0        0        0

-4.369126e+05 1.086185e+05        0
1.086185e+05 -2.887696e+04        0
       0        0        0

-7.087800e+05 8.947891e+04        0
8.947891e+04 -2.892824e+04        0
       0        0        0

-9.805709e+05 6.083975e+04        0
6.083975e+04 -2.903784e+04        0
       0        0        0

-1.252330e+06 2.270369e+04        0
2.270369e+04 -2.916302e+04        0
       0        0        0

1.148491e+06 2.274763e+04        0
2.274763e+04 -3.361527e+04        0
       0        0        0

8.858087e+05 6.093851e+04        0
6.093851e+04 -3.344415e+04        0
       0        0        0

6.231974e+05 8.957284e+04        0
8.957284e+04 -3.331675e+04        0
       0        0        0

3.606384e+05 1.086618e+05        0
1.086618e+05 -3.322145e+04        0
       0        0        0

9.811734e+04 1.181997e+05        0
1.181997e+05 -3.315416e+04        0
       0        0        0

-1.643651e+05 1.181796e+05        0
1.181796e+05 -3.312513e+04        0
       0        0        0

-4.268000e+05 1.086064e+05        0
1.086064e+05 -3.315081e+04        0
       0        0        0

-6.891844e+05 8.949683e+04        0
8.949683e+04 -3.323922e+04        0
       0        0        0

-9.515284e+05 6.086627e+04        0
6.086627e+04 -3.338182e+04        0
       0        0        0

-1.213844e+06 2.271337e+04        0
2.271337e+04 -3.356049e+04        0
       0        0        0

1.100960e+06 2.274841e+04        0
2.274841e+04 -3.812278e+04        0
       0        0        0

8.479289e+05 6.094459e+04        0
6.094459e+04 -3.787019e+04        0
       0        0        0

5.949322e+05 8.957762e+04        0
8.957762e+04 -3.767803e+04        0
       0        0        0

3.419635e+05 1.086573e+05        0
1.086573e+05 -3.754494e+04        0
       0        0        0

8.901558e+04 1.181867e+05        0
1.181867e+05 -3.747027e+04        0
       0        0        0

-1.639142e+05 1.181674e+05        0
1.181674e+05 -3.745768e+04        0
       0        0        0

-4.168253e+05 1.086039e+05        0
1.086039e+05 -3.751247e+04        0
       0        0        0

-6.697180e+05 8.950436e+04        0
8.950436e+04 -3.763608e+04        0
       0        0        0

-9.225952e+05 6.087498e+04        0
6.087498e+04 -3.782343e+04        0
       0        0        0

-1.175457e+06 2.271539e+04        0
2.271539e+04 -3.806658e+04        0
       0        0        0

1.053347e+06 2.274703e+04        0
2.274703e+04 -4.271420e+04        0
       0        0        0

8.099626e+05 6.094429e+04        0
6.094429e+04 -4.238866e+04        0
       0        0        0

5.665832e+05 8.957803e+04        0
8.957803e+04 -4.214000e+04        0
       0        0        0

3.232060e+05 1.086559e+05        0
1.086559e+05 -4.197068e+04        0
       0        0        0

7.982720e+04 1.181835e+05        0
1.181835e+05 -4.188171e+04        0
       0        0        0

-1.635563e+05 1.181649e+05        0
1.181649e+05 -4.187447e+04        0
       0        0        0

-4.069457e+05 1.086046e+05        0
1.086046e+05 -4.195008e+04        0
       0        0        0

-6.503417e+05 8.950753e+04        0
8.950753e+04 -4.210767e+04        0
       0        0        0

-8.937438e+05 6.087730e+04        0
6.087730e+04 -4.234382e+04        0
       0        0        0

-1.137148e+06 2.271526e+04        0
2.271526e+04 -4.265429e+04        0
       0        0        0

1.005683e+06 2.274539e+04        0
2.274539e+04 -4.736038e+04        0
       0        0        0

7.719394e+05 6.094219e+04        0
6.094219e+04 -4.696667e+04        0
       0        0        0

5.381756e+05 8.957681e+04        0
8.957681e+04 -4.666608e+04        0
       0        0        0

3.043894e+05 1.086553e+05        0
1.086553e+05 -4.646218e+04        0
       0        0        0

7.057816e+04 1.181832e+05        0
1.181832e+05 -4.635676e+04        0
       0        0        0

-1.632605e+05 1.181653e+05        0
1.181653e+05 -4.635058e+04        0
       0        0        0

-3.971278e+05 1.086060e+05        0
1.086060e+05 -4.644347e+04        0
       0        0        0

-6.310240e+05 8.950907e+04        0
8.950907e+04 -4.663394e+04        0
       0        0        0

-8.649473e+05 6.087783e+04        0
6.087783e+04 -4.691929e+04        0
       0        0        0

-1.098893e+06 2.271487e+04        0
2.271487e+04 -4.729637e+04        0
       0        0        0

9.579955e+05 2.274400e+04        0
2.274400e+04 -5.203381e+04        0
       0        0        0

7.338873e+05 6.093989e+04        0
6.093989e+04 -5.157525e+04        0
       0        0        0

5.097360e+05 8.957508e+04        0
8.957508e+04 -5.122566e+04        0
       0        0        0

2.855393e+05 1.086546e+05        0
1.086546e+05 -5.098880e+04        0
       0        0        0

6.129495e+04 1.181835e+05        0
1.181835e+05 -5.086675e+04        0
       0        0        0

-1.629989e+05 1.181663e+05        0
1.181663e+05 -5.086025e+04        0
       0        0        0

-3.873432e+05 1.086073e+05        0
1.086073e+05 -5.096887e+04        0
       0        0        0

-6.117373e+05 8.951011e+04        0
8.951011e+04 -5.119108e+04        0
       0        0        0

-8.361791e+05 6.087815e+04        0
6.087815e+04 -5.152449e+04        0
       0        0        0

-1.060664e+06 2.271473e+04        0
2.271473e+04 -5.196605e+04        0
       0        0        0

9.103102e+05 2.274290e+04        0
2.274290e+04 -5.670829e+04        0
       0        0        0

6.958326e+05 6.093780e+04        0
6.093780e+04 -5.618768e+04        0
       0        0        0

4.812907e+05 8.957328e+04        0
8.957328e+04 -5.579141e+04        0
       0        0        0

2.666817e+05 1.086537e+05        0
1.086537e+05 -5.552312e+04        0
       0        0        0

5.200354e+04 1.181835e+05        0
1.181835e+05 -5.538500e+04        0
       0        0        0

-1.627453e+05 1.181671e+05        0
1.181671e+05 -5.537790e+04        0
       0        0        0

-3.775653e+05 1.086084e+05        0
1.086084e+05 -5.550144e+04        0
       0        0        0

-5.924555e+05 8.951107e+04        0
8.951107e+04 -5.575422e+04        0
       0        0        0

-8.074137e+05 6.087870e+04        0
6.087870e+04 -5.613390e+04        0
       0        0        0

-1.022436e+06 2.271486e+04        0
2.271486e+04 -5.663735e+04        0
       0        0        0

8.626520e+05 2.274198e+04        0
2.274198e+04 -6.135878e+04        0
       0        0        0

6.578008e+05 6.093596e+04        0
6.093596e+04 -6.077882e+04        0
       0        0        0

4.528650e+05 8.957150e+04        0
8.957150e+04 -6.033795e+04        0
       0        0        0

2.478418e+05 1.086526e+05        0
1.086526e+05 -6.003971e+04        0
       0        0        0

4.272898e+04 1.181833e+05        0
1.181833e+05 -5.988630e+04        0
       0        0        0

-1.624747e+05 1.181676e+05        0
1.181676e+05 -5.987867e+04        0
       0        0        0

-3.677693e+05 1.086093e+05        0
1.086093e+05 -6.001656e+04        0
       0        0        0

-5.731539e+05 8.951206e+04        0
8.951206e+04 -6.029866e+04        0
       0        0        0

-7.786261e+05 6.087948e+04        0
6.087948e+04 -6.072266e+04        0
       0        0        0

-9.841819e+05 2.271520e+04        0
2.271520e+04 -6.128530e+04        0
       0        0        0

8.150447e+05 2.274119e+04        0
2.274119e+04 -6.596136e+04        0
       0        0        0

6.198157e+05 6.093429e+04        0
6.093429e+04 -6.532473e+04        0
       0        0        0

4.244830e+05 8.956978e+04        0
8.956978e+04 -6.484132e+04        0
       0        0        0

2.290436e+05 1.086514e+05        0
1.086514e+05 -6.451456e+04        0
       0        0        0

3.349528e+04 1.181828e+05        0
1.181828e+05 -6.434667e+04        0
       0        0        0

-1.621631e+05 1.181678e+05        0
1.181678e+05 -6.433865e+04        0
       0        0        0

-3.579315e+05 1.086101e+05        0
1.086101e+05 -6.449035e+04        0
       0        0        0

-5.538087e+05 8.951311e+04        0
8.951311e+04 -6.480052e+04        0
       0        0        0

-7.497925e+05 6.088043e+04        0
6.088043e+04 -6.526685e+04        0
       0        0        0

-9.458791e+05 2.271565e+04        0
2.271565e+04 -6.588596e+04        0
       0        0        0

7.675109e+05 2.274046e+04        0
2.274046e+04 -7.049318e+04        0
       0        0        0

5.819002e+05 6.093273e+04        0
6.093273e+04 -6.980260e+04        0
       0        0        0

3.961677e+05 8.956811e+04        0
8.956811e+04 -6.927870e+04        0
       0        0        0

2.103102e+05 1.086501e+05        0
1.086501e+05 -6.892486e+04        0
       0        0        0

2.432535e+04 1.181822e+05        0
1.181822e+05 -6.874327e+04        0
       0        0        0

-1.617877e+05 1.181679e+05        0
1.181679e+05 -6.873499e+04        0
       0        0        0

-3.480290e+05 1.086108e+05        0
1.086108e+05 -6.889993e+04        0
       0        0        0

-5.343973e+05 8.951420e+04        0
8.951420e+04 -6.923690e+04        0
       0        0        0

-7.208901e+05 6.088150e+04        0
6.088150e+04 -6.974356e+04        0
       0        0        0

-9.075041e+05 2.271617e+04        0
2.271617e+04 -7.041649e+04        0
       0        0        0

7.200723e+05 2.273978e+04        0
2.273978e+04 -7.493249e+04        0
       0        0        0

5.440762e+05 6.093125e+04        0
6.093125e+04 -7.419071e+04        0
       0        0        0

3.679410e+05 8.956648e+04        0
8.956648e+04 -7.362841e+04        0
       0        0        0

1.916633e+05 1.086488e+05        0
1.086488e+05 -7.324889e+04        0
       0        0        0

1.524098e+04 1.181815e+05        0
1.181815e+05 -7.305436e+04        0
       0        0        0

-1.613270e+05 1.181679e+05        0
1.181679e+05 -7.304590e+04        0
       0        0        0

-3.380404e+05 1.086115e+05        0
1.086115e+05 -7.322349e+04        0
       0        0        0

-5.148979e+05 8.951533e+04        0
8.951533e+04 -7.358598e+04        0
       0        0        0

-6.918973e+05 6.088265e+04        0
6.088265e+04 -7.413101e+04        0
       0        0        0

-8.690350e+05 2.271673e+04        0
2.271673e+04 -7.485511e+04        0
       0        0        0

6.727496e+05 2.273915e+04        0
2.273915e+04 -7.925863e+04        0
       0        0        0

5.063643e+05 6.092987e+04        0
6.092987e+04 -7.846843e+04        0
       0        0        0

3.398235e+05 8.956489e+04        0
8.956489e+04 -7.786983e+04        0
       0        0        0

1.731238e+05 1.086474e+05        0
1.086474e+05 -7.746605e+04        0
       0        0        0

6.262879e+03 1.181806e+05        0
1.181806e+05 -7.725929e+04        0
       0        0        0

-1.607601e+05 1.181679e+05        0
1.181679e+05 -7.725069e+04        0
       0        0        0

-3.279448e+05 1.086121e+05        0
1.086121e+05 -7.744030e+04        0
       0        0        0

-4.952900e+05 8.951651e+04        0
8.951651e+04 -7.782701e+04        0
       0        0        0

-6.627933e+05 6.088389e+04        0
6.088389e+04 -7.840849e+04        0
       0        0        0

-8.304513e+05 2.271735e+04        0
2.271735e+04 -7.918115e+04        0
       0        0        0

6.255623e+05 2.273859e+04        0
2.273859e+04 -8.345202e+04        0
       0        0        0

4.687842e+05 6.092860e+04        0
6.092860e+04 -8.261621e+04        0
       0        0        0

3.118350e+05 8.956335e+04        0
8.956335e+04 -8.198342e+04        0
       0        0        0

1.547113e+05 1.086460e+05        0
1.086460e+05 -8.155678e+04        0
       0        0        0

-2.589332e+03 1.181797e+05        0
1.181797e+05 -8.133849e+04        0
       0        0        0

-1.600676e+05 1.181676e+05        0
1.181676e+05 -8.132976e+04        0
       0        0        0

-3.177230e+05 1.086127e+05        0
1.086127e+05 -8.153073e+04        0
       0        0        0

-4.755540e+05 8.951773e+04        0
8.951773e+04 -8.194037e+04        0
       0        0        0

-6.335585e+05 6.088526e+04        0
6.088526e+04 -8.255636e+04        0
       0        0        0

-7.917331e+05 2.271804e+04        0
2.271804e+04 -8.337502e+04        0
       0        0        0

5.785286e+05 2.273817e+04        0
2.273817e+04 -8.749418e+04        0
       0        0        0

4.313542e+05 6.092752e+04        0
6.092752e+04 -8.661559e+04        0
       0        0        0

2.839942e+05 8.956185e+04        0
8.956185e+04 -8.595072e+04        0
       0        0        0

1.364444e+05 1.086444e+05        0
1.086444e+05 -8.550260e+04        0
       0        0        0

-1.129712e+04 1.181785e+05        0
1.181785e+05 -8.527347e+04        0
       0        0        0

-1.592310e+05 1.181672e+05        0
1.181672e+05 -8.526462e+04        0
       0        0        0

-3.073564e+05 1.086132e+05        0
1.086132e+05 -8.547630e+04        0
       0        0        0

-4.556717e+05 8.951900e+04        0
8.951900e+04 -8.590754e+04        0
       0        0        0

-6.041745e+05 6.088680e+04        0
6.088680e+04 -8.655609e+04        0
       0        0        0

-7.528619e+05 2.271886e+04        0
2.271886e+04 -8.741819e+04        0
       0        0        0

5.316658e+05 2.273795e+04        0
2.273795e+04 -9.136769e+04        0
       0        0        0

3.940921e+05 6.092663e+04        0
6.092663e+04 -9.044910e+04        0
       0        0        0

2.563184e+05 8.956035e+04        0
8.956035e+04 -8.975416e+04        0
       0        0        0

1.183407e+05 1.086427e+05        0
1.086427e+05 -8.928591e+04        0
       0        0        0

-1.984304e+04 1.181771e+05        0
1.181771e+05 -8.904673e+04        0
       0        0        0

-1.582329e+05 1.181665e+05        0
1.181665e+05 -8.903797e+04        0
       0        0        0

-2.968278e+05 1.086135e+05        0
1.086135e+05 -8.925978e+04        0
       0        0        0

-4.356257e+05 8.952026e+04        0
8.952026e+04 -8.971126e+04        0
       0        0        0

-5.746240e+05 6.088854e+04        0
6.088854e+04 -9.039032e+04        0
       0        0        0

-7.138200e+05 2.271989e+04        0
2.271989e+04 -9.129325e+04        0
       0        0        0

4.849900e+05 2.273796e+04        0
2.273796e+04 -9.505616e+04        0
       0        0        0

3.570143e+05 6.092577e+04        0
6.092577e+04 -9.410011e+04        0
       0        0        0

2.288244e+05 8.955862e+04        0
8.955862e+04 -9.337680e+04        0
       0        0        0

1.004164e+05 1.086409e+05        0
1.086409e+05 -9.288973e+04        0
       0        0        0

-2.821084e+04 1.181759e+05        0
1.181759e+05 -9.264170e+04        0
       0        0        0

-1.570570e+05 1.181660e+05        0
1.181660e+05 -9.263378e+04        0
       0        0        0

-2.861209e+05 1.086137e+05        0
1.086137e+05 -9.286554e+04        0
       0        0        0

-4.153999e+05 8.952130e+04        0
8.952130e+04 -9.333582e+04        0
       0        0        0

-5.448908e+05 6.089031e+04        0
6.089031e+04 -9.404299e+04        0
       0        0        0

-6.745908e+05 2.272114e+04        0
2.272114e+04 -9.498387e+04        0
       0        0        0

4.385165e+05 2.273798e+04        0
2.273798e+04 -9.854412e+04        0
       0        0        0

3.201365e+05 6.092413e+04        0
6.092413e+04 -9.755241e+04        0
       0        0        0

2.015270e+05 8.955604e+04        0
8.955604e+04 -9.680154e+04        0
       0        0        0

8.268605e+04 1.086393e+05        0
1.086393e+05 -9.629692e+04        0
       0        0        0

-3.638570e+04 1.181760e+05        0
1.181760e+05 -9.604233e+04        0
       0        0        0

-1.556878e+05 1.181669e+05        0
1.181669e+05 -9.603768e+04        0
       0        0        0

-2.752197e+05 1.086142e+05        0
1.086142e+05 -9.628030e+04        0
       0        0        0

-3.949789e+05 8.952148e+04        0
8.952148e+04 -9.676788e+04        0
       0        0        0

-5.149601e+05 6.089129e+04        0
6.089129e+04 -9.749979e+04        0
       0        0        0

-6.351590e+05 2.272241e+04        0
2.272241e+04 -9.847493e+04        0
       0        0        0

3.922608e+05 2.273705e+04        0
2.273705e+04 -1.018168e+05        0
       0        0        0

2.834737e+05 6.091918e+04        0
6.091918e+04 -1.007892e+05        0
       0        0        0

1.744389e+05 8.955103e+04        0
8.955103e+04 -1.000095e+05        0
       0        0        0

6.516112e+04 1.086394e+05        0
1.086394e+05 -9.948864e+04        0
       0        0        0

-4.435479e+04 1.181814e+05        0
1.181814e+05 -9.923256e+04        0
       0        0        0

-1.541098e+05 1.181730e+05        0
1.181730e+05 -9.923756e+04        0
       0        0        0

-2.641076e+05 1.086162e+05        0
1.086162e+05 -9.949471e+04        0
       0        0        0

-3.743470e+05 8.951924e+04        0
8.951924e+04 -9.999807e+04        0
       0        0        0

-4.848186e+05 6.088897e+04        0
6.088897e+04 -1.007491e+05        0
       0        0        0

-5.955116e+05 2.272272e+04        0
2.272272e+04 -1.017526e+05        0
       0        0        0

3.462408e+05 2.273213e+04        0
2.273213e+04 -1.048596e+05        0
       0        0        0

2.470402e+05 6.090435e+04        0
6.090435e+04 -1.037913e+05        0
       0        0        0

1.475679e+05 8.953998e+04        0
8.953998e+04 -1.029768e+05        0
       0        0        0

4.784706e+04 1.086446e+05        0
1.086446e+05 -1.024414e+05        0
       0        0        0

-5.210859e+04 1.182015e+05        0
1.182015e+05 -1.021950e+05        0
       0        0        0

-1.523066e+05 1.181938e+05        0
1.181938e+05 -1.022248e+05        0
       0        0        0

-2.527641e+05 1.086235e+05        0
1.086235e+05 -1.025064e+05        0
       0        0        0

-3.534861e+05 8.951095e+04        0
8.951095e+04 -1.030243e+05        0
       0        0        0

-4.544544e+05 6.087677e+04        0
6.087677e+04 -1.037842e+05        0
       0        0        0

-5.556397e+05 2.271905e+04        0
2.271905e+04 -1.048050e+05        0
       0        0        0

3.004822e+05 2.271539e+04        0
2.271539e+04 -1.076574e+05        0
       0        0        0

2.108493e+05 6.086437e+04        0
6.086437e+04 -1.065333e+05        0
       0        0        0

1.209111e+05 8.951546e+04        0
8.951546e+04 -1.056691e+05        0
       0        0        0

3.073692e+04 1.086641e+05        0
1.086641e+05 -1.051219e+05        0
       0        0        0

-5.964355e+04 1.182578e+05        0
1.182578e+05 -1.049091e+05        0
       0        0        0

-1.502580e+05 1.182508e+05        0
1.182508e+05 -1.049962e+05        0
       0        0        0

-2.411586e+05 1.086450e+05        0
1.086450e+05 -1.053249e+05        0
       0        0        0

-3.323700e+05 8.948920e+04        0
8.948920e+04 -1.058577e+05        0
       0        0        0

-4.238570e+05 6.083943e+04        0
6.083943e+04 -1.066065e+05        0
       0        0        0

-5.155448e+05 2.270357e+04        0
2.270357e+04 -1.076228e+05        0
       0        0        0

2.550302e+05 2.266861e+04        0
2.266861e+04 -1.101928e+05        0
       0        0        0

1.749112e+05 6.076689e+04        0
6.076689e+04 -1.089786e+05        0
       0        0        0

9.444394e+04 8.946363e+04        0
8.946363e+04 -1.080332e+05        0
       0        0        0

1.379929e+04 1.087177e+05        0
1.087177e+05 -1.074804e+05        0
       0        0        0

-6.696699e+04 1.183950e+05        0
1.183950e+05 -1.073481e+05        0
       0        0        0

-1.479345e+05 1.183887e+05        0
1.183887e+05 -1.075565e+05        0
       0        0        0

-2.292386e+05 1.087005e+05        0
1.087005e+05 -1.079789e+05        0
       0        0        0

-3.109536e+05 8.944014e+04        0
8.944014e+04 -1.085307e+05        0
       0        0        0

-3.930164e+05 6.074460e+04        0
6.074460e+04 -1.092323e+05        0
       0        0        0

-4.752498e+05 2.265805e+04        0
2.265805e+04 -1.102010e+05        0
       0        0        0

2.099707e+05 2.255312e+04        0
2.255312e+04 -1.124452e+05        0
       0        0        0

1.392276e+05 6.054966e+04        0
6.054966e+04 -1.110720e+05        0
       0        0        0

6.809783e+04 8.936201e+04        0
8.936201e+04 -1.099896e+05        0
       0        0        0

-3.042201e+03 1.088455e+05        0
1.088455e+05 -1.094456e+05        0
       0        0        0

-7.410476e+04 1.186961e+05        0
1.186961e+05 -1.094775e+05        0
       0        0        0

-1.452897e+05 1.186906e+05        0
1.186906e+05 -1.099193e+05        0
       0        0        0

-2.169085e+05 1.088304e+05        0
1.088304e+05 -1.105207e+05        0
       0        0        0

-2.891518e+05 8.934130e+04        0
8.934130e+04 -1.111065e+05        0
       0        0        0

-3.619182e+05 6.053005e+04        0
6.053005e+04 -1.117009e+05        0
       0        0        0

-4.348222e+05 2.254384e+04        0
2.254384e+04 -1.125421e+05        0
       0        0        0

1.654676e+05 2.229389e+04        0
2.229389e+04 -1.143894e+05        0
       0        0        0

1.037757e+05 6.010633e+04        0
6.010633e+04 -1.127378e+05        0
       0        0        0

4.172434e+04 8.918285e+04        0
8.918285e+04 -1.114369e+05        0
       0        0        0

-1.993674e+04 1.091211e+05        0
1.091211e+05 -1.109352e+05        0
       0        0        0

-8.111029e+04 1.192969e+05        0
1.192969e+05 -1.112604e+05        0
       0        0        0

-1.422485e+05 1.192922e+05        0
1.192922e+05 -1.121001e+05        0
       0        0        0

-2.040019e+05 1.091080e+05        0
1.091080e+05 -1.130150e+05        0
       0        0        0

-2.668047e+05 8.916493e+04        0
8.916493e+04 -1.136749e+05        0
       0        0        0

-3.305323e+05 6.008944e+04        0
6.008944e+04 -1.140806e+05        0
       0        0        0

-3.944153e+05 2.228592e+04        0
2.228592e+04 -1.146607e+05        0
       0        0        0

1.218143e+05 2.175987e+04        0
2.175987e+04 -1.160001e+05        0
       0        0        0

6.846991e+04 5.928775e+04        0
5.928775e+04 -1.139016e+05        0
       0        0        0

1.504776e+04 8.891653e+04        0
8.891653e+04 -1.123083e+05        0
       0        0        0

-3.712658e+04 1.096611e+05        0
1.096611e+05 -1.119237e+05        0
       0        0        0

-8.806576e+04 1.203706e+05        0
1.203706e+05 -1.126850e+05        0
       0        0        0

-1.387020e+05 1.203666e+05        0
1.203666e+05 -1.140839e+05        0
       0        0        0

-1.902583e+05 1.096500e+05        0
1.096500e+05 -1.154691e+05        0
       0        0        0

-2.436324e+05 8.890144e+04        0
8.890144e+04 -1.162985e+05        0
       0        0        0

-2.987810e+05 5.927361e+04        0
5.927361e+04 -1.164537e+05        0
       0        0        0

-3.543298e+05 2.175326e+04        0
2.175326e+04 -1.165894e+05        0
       0        0        0

7.947515e+04 2.075678e+04        0
2.075678e+04 -1.172821e+05        0
       0        0        0

3.307865e+04 5.797447e+04        0
5.797447e+04 -1.145899e+05        0
       0        0        0

-1.236393e+04 8.865059e+04        0
8.865059e+04 -1.127886e+05        0
       0        0        0

-5.490063e+04 1.106013e+05        0
1.106013e+05 -1.126577e+05        0
       0        0        0

-9.504947e+04 1.220074e+05        0
1.220074e+05 -1.138552e+05        0
       0        0        0

-1.345317e+05 1.220041e+05        0
1.220041e+05 -1.157267e+05        0
       0        0        0

-1.753639e+05 1.105923e+05        0
1.105923e+05 -1.176118e+05        0
       0        0        0

-2.192067e+05 8.863840e+04        0
8.863840e+04 -1.187962e+05        0
       0        0        0

-2.664683e+05 5.796312e+04        0
5.796312e+04 -1.188293e+05        0
       0        0        0

-3.150782e+05 2.075156e+04        0
2.075156e+04 -1.183719e+05        0
       0        0        0

3.901604e+04 1.910250e+04        0
1.910250e+04 -1.183311e+05        0
       0        0        0

-2.945801e+03 5.638064e+04        0
5.638064e+04 -1.153385e+05        0
       0        0        0

-4.097162e+04 8.874194e+04        0
8.874194e+04 -1.139163e+05        0
       0        0        0

-7.334316e+04 1.119428e+05        0
1.119428e+05 -1.141993e+05        0
       0        0        0

-1.020044e+05 1.238170e+05        0
1.238170e+05 -1.151847e+05        0
       0        0        0

-1.297257e+05 1.238146e+05        0
1.238146e+05 -1.165458e+05        0
       0        0        0

-1.591896e+05 1.119363e+05        0
1.119363e+05 -1.183359e+05        0
       0        0        0

-1.930733e+05 8.873286e+04        0
8.873286e+04 -1.201362e+05        0
       0        0        0

-2.331278e+05 5.637209e+04        0
5.637209e+04 -1.207525e+05        0
       0        0        0

-2.773664e+05 1.909865e+04        0
1.909865e+04 -1.200521e+05        0
       0        0        0

5.231885e+02 1.710271e+04        0
1.710271e+04 -1.199683e+05        0
       0        0        0

-4.055900e+04 5.592265e+04        0
5.592265e+04 -1.183223e+05        0
       0        0        0

-7.064224e+04 9.001307e+04        0
9.001307e+04 -1.192608e+05        0
       0        0        0

-9.160225e+04 1.128998e+05        0
1.128998e+05 -1.193451e+05        0
       0        0        0

-1.084793e+05 1.240404e+05        0
1.240404e+05 -1.176209e+05        0
       0        0        0

-1.246149e+05 1.240392e+05        0
1.240392e+05 -1.154734e+05        0
       0        0        0

-1.424954e+05 1.128964e+05        0
1.128964e+05 -1.147534e+05        0
       0        0        0

-1.653497e+05 9.000769e+04        0
9.000769e+04 -1.167341e+05        0
       0        0        0

-1.979384e+05 5.591692e+04        0
5.591692e+04 -1.201833e+05        0
       0        0        0

-2.416132e+05 1.710010e+04        0
1.710010e+04 -1.211410e+05        0
       0        0        0

-3.838756e+04 1.780089e+04        0
1.780089e+04 -1.241547e+05        0
       0        0        0

-8.056431e+04 6.133461e+04        0
6.133461e+04 -1.329179e+05        0
       0        0        0

-9.823377e+04 9.241439e+04        0
9.241439e+04 -1.376493e+05        0
       0        0        0

-1.069299e+05 1.101518e+05        0
1.101518e+05 -1.330247e+05        0
       0        0        0

-1.134903e+05 1.182691e+05        0
1.182691e+05 -1.226657e+05        0
       0        0        0

-1.199857e+05 1.182695e+05        0
1.182695e+05 -1.108102e+05        0
       0        0        0

-1.278480e+05 1.101525e+05        0
1.101525e+05 -1.017531e+05        0
       0        0        0

-1.390687e+05 9.241419e+04        0
9.241419e+04 -9.965328e+04        0
       0        0        0

-1.602170e+05 6.133242e+04        0
6.133242e+04 -1.078653e+05        0
       0        0        0

-2.060740e+05 1.779909e+04        0
1.779909e+04 -1.203165e+05        0
       0        0        0

-9.041227e+04 4.054631e+04        0
4.054631e+04 -1.562833e+05        0
       0        0        0

-1.138421e+05 7.593486e+04        0
7.593486e+04 -1.858539e+05        0
       0        0        0

-1.150718e+05 8.920336e+04        0
8.920336e+04 -1.817339e+05        0
       0        0        0

-1.153875e+05 9.571255e+04        0
9.571255e+04 -1.608397e+05        0
       0        0        0

-1.157489e+05 9.856239e+04        0
9.856239e+04 -1.317915e+05        0
       0        0        0

-1.168366e+05 9.856429e+04        0
9.856429e+04 -1.007937e+05        0
       0        0        0

-1.188659e+05 9.571771e+04        0
9.571771e+04 -7.341100e+04        0
       0        0        0

-1.225609e+05 8.921016e+04        0
8.921016e+04 -5.589328e+04        0
       0        0        0

-1.289065e+05 7.594047e+04        0
7.594047e+04 -5.688864e+04        0
       0        0        0

-1.586523e+05 4.054609e+04        0
4.054609e+04 -9.278138e+04        0
       0        0        0

POINT_DATA     451
VECTORS DISPLACEMENT_7.000000e-01 double
0.000000e+00    0.000000e+00    0.000000e+00
0.000000e+00    0.000000e+00    0.000000e+00
0.000000e+00    0.000000e+00    0.000000e+00
0.000000e+00    0.000000e+00    0.000000e+00
0.000000e+00    0.000000e+00    0.000000e+00
0.000000e+00    0.000000e+00    0.000000e+00
0.000000e+00    0.000000e+00    0.000000e+00
0.000000e+00    0.000000e+00    0.000000e+00
0.000000e+00    0.000000e+00    0.000000e+00
0.000000e+00    0.000000e+00    0.000000e+00
0.000000e+00    0.000000e+00    0.000000e+00
-1.141595e-06    -8.299605e-07    0.000000e+00
-7.233448e-07    -4.163094e-07    0.000000e+00
-5.161144e-07    -2.157261e-07    0.000000e+00
-3.332233e-07    -1.068318e-07    0.000000e+00
-1.642863e-07    -5.047426e-08    0.000000e+00
-3.308918e-20    -3.295145e-08    0.000000e+00
1.642863e-07    -5.047426e-08    0.000000e+00
3.332233e-07    -1.068318e-07    0.000000e+00
5.161144e-07    -2.157261e-07    0.000000e+00
7.233448e-07    -4.163094e-07    0.000000e+00
1.141595e-06    -8.299605e-07    0.000000e+00
-2.153941e-06    -1.380309e-06    0.000000e+00
-1.574436e-06    -9.987668e-07    0.000000e+00
-1.105093e-06    -7.015532e-07    0.000000e+00
-7.128292e-07    -5.177059e-07    0.000000e+00
-3.501023e-07    -4.175298e-07    0.000000e+00
-6.990007e-20    -3.857102e-07    0.000000e+00
3.501023e-07    -4.175298e-07    0.000000e+00
7.128292e-07    -5.177059e-07    0.000000e+00
1.105093e-06    -7.015532e-07    0.000000e+00
1.574436e-06    -9.987668e-07    0.000000e+00
2.153941e-06    -1.380309e-06    0.000000e+00
-3.132427e-06    -2.064634e-06    0.000000e+00
-2.394168e-06    -1.682257e-06    0.000000e+00
-1.722702e-06    -1.380761e-06    0.000000e+00
-1.115240e-06    -1.168096e-06    0.000000e+00
-5.487489e-07    -1.045521e-06    0.000000e+00
-1.101044e-19    -1.005593e-06    0.000000e+00
5.487489e-07    -1.045521e-06    0.000000e+00
1.115240e-06    -1.168096e-06    0.000000e+00
1.722702e-06    -1.380761e-06    0.000000e+00
2.394168e-06    -1.682257e-06    0.000000e+00
3.132427e-06    -2.064634e-06    0.000000e+00
-4.100076e-06    -2.909172e-06    0.000000e+00
-3.186876e-06    -2.535522e-06    0.000000e+00
-2.326958e-06    -2.239053e-06    0.000000e+00
-1.519408e-06    -2.025105e-06    0.000000e+00
-7.500557e-07    -1.896684e-06    0.000000e+00
-1.517777e-19    -1.854101e-06    0.000000e+00
7.500557e-07    -1.896684e-06    0.000000e+00
1.519408e-06    -2.025105e-06    0.000000e+00
2.326958e-06    -2.239053e-06    0.000000e+00
3.186876e-06    -2.535522e-06    0.000000e+00
4.100076e-06    -2.909172e-06    0.000000e+00
-5.051341e-06    -3.936654e-06    0.000000e+00
-3.956477e-06    -3.571725e-06    0.000000e+00
-2.911986e-06    -3.284208e-06    0.000000e+00
-1.912865e-06    -3.075889e-06    0.000000e+00
-9.475500e-07    -2.949778e-06    0.000000e+00
-1.948573e-19    -2.907564e-06    0.000000e+00
9.475500e-07    -2.949778e-06    0.000000e+00
1.912865e-06    -3.075889e-06    0.000000e+00
2.911986e-06    -3.284208e-06    0.000000e+00
3.956477e-06    -3.571725e-06    0.000000e+00
5.051341e-06    -3.936654e-06    0.000000e+00
-5.981873e-06    -5.149742e-06    0.000000e+00
-4.704513e-06    -4.794468e-06    0.000000e+00
-3.477740e-06    -4.516043e-06    0.000000e+00
-2.292922e-06    -4.315096e-06    0.000000e+00
-1.138484e-06    -4.193469e-06    0.000000e+00
-2.394059e-19    -4.152740e-06    0.000000e+00
1.138484e-06    -4.193469e-06    0.000000e+00
2.292922e-06    -4.315096e-06    0.000000e+00
3.477740e-06    -4.516043e-06    0.000000e+00
4.704513e-06    -4.794468e-06    0.000000e+00
5.981873e-06    -5.149742e-06    0.000000e+00
-6.888558e-06    -6.546376e-06    0.000000e+00
-5.431254e-06    -6.201154e-06    0.000000e+00
-4.025294e-06    -5.931590e-06    0.000000e+00
-2.659769e-06    -5.737829e-06    0.000000e+00
-1.322562e-06    -5.620886e-06    0.000000e+00
-2.802885e-19    -5.581769e-06    0.000000e+00
1.322562e-06    -5.620886e-06    0.000000e+00
2.659769e-06    -5.737829e-06    0.000000e+00
4.025294e-06    -5.931590e-06    0.000000e+00
5.431254e-06    -6.201154e-06    0.000000e+00
6.888558e-06    -6.546376e-06    0.000000e+00
-7.769676e-06    -8.122139e-06    0.000000e+00
-6.136609e-06    -7.787205e-06    0.000000e+00
-4.555509e-06    -7.526210e-06    0.000000e+00
-3.014226e-06    -7.339157e-06    0.000000e+00
-1.500173e-06    -7.226543e-06    0.000000e+00
-3.200196e-19    -7.188927e-06    0.000000e+00
1.500173e-06    -7.226543e-06    0.000000e+00
3.014226e-06    -7.339157e-06    0.000000e+00
4.555509e-06    -7.526210e-06    0.000000e+00
6.136609e-06    -7.787205e-06    0.000000e+00
7.769676e-06    -8.122139e-06    0.000000e+00
-8.624338e-06    -9.871838e-06    0.000000e+00
-6.820449e-06    -9.547301e-06    0.000000e+00
-5.068913e-06    -9.294676e-06    0.000000e+00
-3.356973e-06    -9.113935e-06    0.000000e+00
-1.671744e-06    -9.005300e-06    0.000000e+00
-3.611801e-19    -8.969049e-06    0.000000e+00
1.671744e-06    -9.005300e-06    0.000000e+00
3.356973e-06    -9.113935e-06    0.000000e+00
5.068913e-06    -9.294676e-06    0.000000e+00
6.820449e-06    -9.547301e-06    0.000000e+00
8.624338e-06    -9.871838e-06    0.000000e+00
-9.452128e-06    -1.179002e-05    0.000000e+00
-7.482678e-06    -1.147593e-05    0.000000e+00
-5.565791e-06    -1.123156e-05    0.000000e+00
-3.688437e-06    -1.105688e-05    0.000000e+00
-1.837569e-06    -1.095199e-05    0.000000e+00
-4.031347e-19    -1.091701e-05    0.000000e+00
1.837569e-06    -1.095199e-05    0.000000e+00
3.688437e-06    -1.105688e-05    0.000000e+00
5.565791e-06    -1.123156e-05    0.000000e+00
7.482678e-06    -1.147593e-05    0.000000e+00
9.452128e-06    -1.179002e-05    0.000000e+00
-1.025287e-05    -1.387120e-05    0.000000e+00
-8.123242e-06    -1.356758e-05    0.000000e+00
-6.046283e-06    -1.333140e-05    0.000000e+00
-4.008850e-06    -1.316265e-05    0.000000e+00
-1.997814e-06    -1.306137e-05    0.000000e+00
-4.379160e-19    -1.302760e-05    0.000000e+00
1.997814e-06    -1.306137e-05    0.000000e+00
4.008850e-06    -1.316265e-05    0.000000e+00
6.046283e-06    -1.333140e-05    0.000000e+00
8.123242e-06    -1.356758e-05    0.000000e+00
1.025287e-05    -1.387120e-05    0.000000e+00
-1.102648e-05    -1.610989e-05    0.000000e+00
-8.742113e-06    -1.581673e-05    0.000000e+00
-6.510452e-06    -1.558871e-05    0.000000e+00
-4.318325e-06    -1.542583e-05    0.000000e+00
-2.152566e-06    -1.532809e-05    0.000000e+00
-4.744443e-19    -1.529550e-05    0.000000e+00
2.152566e-06    -1.532809e-05    0.000000e+00
4.318325e-06    -1.542583e-05    0.000000e+00
6.510452e-06    -1.558871e-05    0.000000e+00
8.742113e-06    -1.581673e-05    0.000000e+00
1.102648e-05    -1.610989e-05    0.000000e+00
-1.177296e-05    -1.850062e-05    0.000000e+00
-9.339276e-06    -1.821793e-05    0.000000e+00
-6.958324e-06    -1.799806e-05    0.000000e+00
-4.616914e-06    -1.784101e-05    0.000000e+00
-2.301865e-06    -1.774678e-05    0.000000e+00
-5.166901e-19    -1.771537e-05    0.000000e+00
2.301865e-06    -1.774678e-05    0.000000e+00
4.616914e-06    -1.784101e-05    0.000000e+00
6.958324e-06    -1.799806e-05    0.000000e+00
9.339276e-06    -1.821793e-05    0.000000e+00
1.177296e-05    -1.850062e-05    0.000000e+00
-1.249228e-05    -2.103794e-05    0.000000e+00
-9.914727e-06    -2.076572e-05    0.000000e+00
-7.389909e-06    -2.055400e-05    0.000000e+00
-4.904637e-06    -2.040277e-05    0.000000e+00
-2.445728e-06    -2.031204e-05    0.000000e+00
-5.437952e-19    -2.028179e-05    0.000000e+00
2.445728e-06    -2.031204e-05    0.000000e+00
4.904637e-06    -2.040277e-05    0.000000e+00
7.389909e-06    -2.055400e-05    0.000000e+00
9.914727e-06    -2.076572e-05    0.000000e+00
1.249228e-05    -2.103794e-05    0.000000e+00
-1.318446e-05    -2.371642e-05    0.000000e+00
-1.046846e-05    -2.345467e-05    0.000000e+00
-7.805208e-06    -2.325109e-05    0.000000e+00
-5.181501e-06    -2.310568e-05    0.000000e+00
-2.584160e-06    -2.301844e-05    0.000000e+00
-5.694179e-19    -2.298935e-05    0.000000e+00
2.584160e-06    -2.301844e-05    0.000000e+00
5.181501e-06    -2.310568e-05    0.000000e+00
7.805208e-06    -2.325109e-05    0.000000e+00
1.046846e-05    -2.345467e-05    0.000000e+00
1.318446e-05    -2.371642e-05    0.000000e+00
-1.384949e-05    -2.653062e-05    0.000000e+00
-1.100049e-05    -2.627934e-05    0.000000e+00
-8.204222e-06    -2.608391e-05    0.000000e+00
-5.447509e-06    -2.594431e-05    0.000000e+00
-2.717163e-06    -2.586055e-05    0.000000e+00
-5.881585e-19    -2.583264e-05    0.000000e+00
2.717163e-06    -2.586055e-05    0.000000e+00
5.447509e-06    -2.594431e-05    0.000000e+00
8.204222e-06    -2.608391e-05    0.000000e+00
1.100049e-05    -2.627934e-05    0.000000e+00
1.384949e-05    -2.653062e-05    0.000000e+00
-1.448737e-05    -2.947511e-05    0.000000e+00
-1.151079e-05    -2.923430e-05    0.000000e+00
-8.586950e-06    -2.904701e-05    0.000000e+00
-5.702661e-06    -2.891323e-05    0.000000e+00
-2.844739e-06    -2.883296e-05    0.000000e+00
-5.916525e-19    -2.880621e-05    0.000000e+00
2.844739e-06    -2.883296e-05    0.000000e+00
5.702661e-06    -2.891323e-05    0.000000e+00
8.586950e-06    -2.904701e-05    0.000000e+00
1.151079e-05    -2.923430e-05    0.000000e+00
1.448737e-05    -2.947511e-05    0.000000e+00
-1.509811e-05    -3.254446e-05    0.000000e+00
-1.199938e-05    -3.231413e-05    0.000000e+00
-8.953392e-06    -3.213498e-05    0.000000e+00
-5.946955e-06    -3.200701e-05    0.000000e+00
-2.966886e-06    -3.193024e-05    0.000000e+00
-6.055227e-19    -3.190464e-05    0.000000e+00
2.966886e-06    -3.193024e-05    0.000000e+00
5.946955e-06    -3.200701e-05    0.000000e+00
8.953392e-06    -3.213498e-05    0.000000e+00
1.199938e-05    -3.231413e-05    0.000000e+00
1.509811e-05    -3.254446e-05    0.000000e+00
-1.568170e-05    -3.573325e-05    0.000000e+00
-1.246626e-05    -3.551338e-05    0.000000e+00
-9.303549e-06    -3.534238e-05    0.000000e+00
-6.180392e-06    -3.522023e-05    0.000000e+00
-3.083604e-06    -3.514694e-05    0.000000e+00
-6.318866e-19    -3.512251e-05    0.000000e+00
3.083604e-06    -3.514694e-05    0.000000e+00
6.180392e-06    -3.522023e-05    0.000000e+00
9.303549e-06    -3.534238e-05    0.000000e+00
1.246626e-05    -3.551338e-05    0.000000e+00
1.568170e-05    -3.573325e-05    0.000000e+00
-1.623815e-05    -3.903604e-05    0.000000e+00
-1.291142e-05    -3.882665e-05    0.000000e+00
-9.637419e-06    -3.866378e-05    0.000000e+00
-6.402972e-06    -3.854745e-05    0.000000e+00
-3.194894e-06    -3.847765e-05    0.000000e+00
-6.803792e-19    -3.845439e-05    0.000000e+00
3.194894e-06    -3.847765e-05    0.000000e+00
6.402972e-06    -3.854745e-05    0.000000e+00
9.637419e-06    -3.866378e-05    0.000000e+00
1.291142e-05    -3.882665e-05    0.000000e+00
1.623815e-05    -3.903604e-05    0.000000e+00
-1.676746e-05    -4.244741e-05    0.000000e+00
-1.333486e-05    -4.224848e-05    0.000000e+00
-9.955003e-06    -4.209376e-05    0.000000e+00
-6.614695e-06    -4.198325e-05    0.000000e+00
-3.300755e-06    -4.191694e-05    0.000000e+00
-7.483536e-19    -4.189484e-05    0.000000e+00
3.300755e-06    -4.191694e-05    0.000000e+00
6.614695e-06    -4.198325e-05    0.000000e+00
9.955003e-06    -4.209376e-05    0.000000e+00
1.333486e-05    -4.224848e-05    0.000000e+00
1.676746e-05    -4.244741e-05    0.000000e+00
-1.726962e-05    -4.596192e-05    0.000000e+00
-1.373659e-05    -4.577347e-05    0.000000e+00
-1.025630e-05    -4.562689e-05    0.000000e+00
-6.815560e-06    -4.552219e-05    0.000000e+00
-3.401188e-06    -4.545937e-05    0.000000e+00
-7.970580e-19    -4.543843e-05    0.000000e+00
3.401188e-06    -4.545937e-05    0.000000e+00
6.815560e-06    -4.552219e-05    0.000000e+00
1.025630e-05    -4.562689e-05    0.000000e+00
1.373659e-05    -4.577347e-05    0.000000e+00
1.726962e-05    -4.596192e-05    0.000000e+00
-1.774464e-05    -4.957415e-05    0.000000e+00
-1.411661e-05    -4.939617e-05    0.000000e+00
-1.054131e-05    -4.925773e-05    0.000000e+00
-7.005568e-06    -4.915885e-05    0.000000e+00
-3.496192e-06    -4.909952e-05    0.000000e+00
-8.355980e-19    -4.907975e-05    0.000000e+00
3.496192e-06    -4.909952e-05    0.000000e+00
7.005568e-06    -4.915885e-05    0.000000e+00
1.054131e-05    -4.925773e-05    0.000000e+00
1.411661e-05    -4.939617e-05    0.000000e+00
1.774464e-05    -4.957415e-05    0.000000e+00
-1.819252e-05    -5.327868e-05    0.000000e+00
-1.447491e-05    -5.311116e-05    0.000000e+00
-1.081004e-05    -5.298087e-05    0.000000e+00
-7.184718e-06    -5.288780e-05    0.000000e+00
-3.585767e-06    -5.283196e-05    0.000000e+00
-8.785849e-19    -5.281335e-05    0.000000e+00
3.585767e-06    -5.283196e-05    0.000000e+00
7.184718e-06    -5.288780e-05    0.000000e+00
1.081004e-05    -5.298087e-05    0.000000e+00
1.447491e-05    -5.311116e-05    0.000000e+00
1.819252e-05    -5.327868e-05    0.000000e+00
-1.861325e-05    -5.707006e-05    0.000000e+00
-1.481149e-05    -5.691301e-05    0.000000e+00
-1.106248e-05    -5.679086e-05    0.000000e+00
-7.353011e-06    -5.670361e-05    0.000000e+00
-3.669914e-06    -5.665126e-05    0.000000e+00
-8.957373e-19    -5.663381e-05    0.000000e+00
3.669914e-06    -5.665126e-05    0.000000e+00
7.353011e-06    -5.670361e-05    0.000000e+00
1.106248e-05    -5.679086e-05    0.000000e+00
1.481149e-05    -5.691301e-05    0.000000e+00
1.861325e-05    -5.707006e-05    0.000000e+00
-1.900683e-05    -6.094287e-05    0.000000e+00
-1.512636e-05    -6.079629e-05    0.000000e+00
-1.129863e-05    -6.068229e-05    0.000000e+00
-7.510448e-06    -6.060086e-05    0.000000e+00
-3.748633e-06    -6.055200e-05    0.000000e+00
-9.069605e-19    -6.053571e-05    0.000000e+00
3.748633e-06    -6.055200e-05    0.000000e+00
7.510448e-06    -6.060086e-05    0.000000e+00
1.129863e-05    -6.068229e-05    0.000000e+00
1.512636e-05    -6.079629e-05    0.000000e+00
1.900683e-05    -6.094287e-05    0.000000e+00
-1.937327e-05    -6.489169e-05    0.000000e+00
-1.541952e-05    -6.475558e-05    0.000000e+00
-1.151850e-05    -6.464972e-05    0.000000e+00
-7.657028e-06    -6.457410e-05    0.000000e+00
-3.821923e-06    -6.452873e-05    0.000000e+00
-9.133133e-19    -6.451361e-05    0.000000e+00
3.821923e-06    -6.452873e-05    0.000000e+00
7.657028e-06    -6.457410e-05    0.000000e+00
1.151850e-05    -6.464972e-05    0.000000e+00
1.541952e-05    -6.475558e-05    0.000000e+00
1.937327e-05    -6.489169e-05    0.000000e+00
-1.971256e-05    -6.891107e-05    0.000000e+00
-1.569095e-05    -6.878544e-05    0.000000e+00
-1.172208e-05    -6.868772e-05    0.000000e+00
-7.792750e-06    -6.861792e-05    0.000000e+00
-3.889784e-06    -6.857604e-05    0.000000e+00
-8.978549e-19    -6.856208e-05    0.000000e+00
3.889784e-06    -6.857604e-05    0.000000e+00
7.792750e-06    -6.861792e-05    0.000000e+00
1.172208e-05    -6.868772e-05    0.000000e+00
1.569095e-05    -6.878544e-05    0.000000e+00
1.971256e-05    -6.891107e-05    0.000000e+00
-2.002471e-05    -7.299559e-05    0.000000e+00
-1.594068e-05    -7.288043e-05    0.000000e+00
-1.190938e-05    -7.279086e-05    0.000000e+00
-7.917611e-06    -7.272688e-05    0.000000e+00
-3.952212e-06    -7.268851e-05    0.000000e+00
-8.978549e-19    -7.267572e-05    0.000000e+00
3.952212e-06    -7.268851e-05    0.000000e+00
7.917611e-06    -7.272688e-05    0.000000e+00
1.190938e-05    -7.279086e-05    0.000000e+00
1.594068e-05    -7.288043e-05    0.000000e+00
2.002471e-05    -7.299559e-05    0.000000e+00
-2.030971e-05    -7.713981e-05    0.000000e+00
-1.616869e-05    -7.703511e-05    0.000000e+00
-1.208038e-05    -7.695370e-05    0.000000e+00
-8.031599e-06    -7.689557e-05    0.000000e+00
-4.009198e-06    -7.686071e-05    0.000000e+00
-9.275011e-19    -7.684909e-05    0.000000e+00
4.009198e-06    -7.686071e-05    0.000000e+00
8.031599e-06    -7.689557e-05    0.000000e+00
1.208038e-05    -7.695370e-05    0.000000e+00
1.616869e-05    -7.703511e-05    0.000000e+00
2.030971e-05    -7.713981e-05    0.000000e+00
-2.056757e-05    -8.133827e-05    0.000000e+00
-1.637501e-05    -8.124404e-05    0.000000e+00
-1.223508e-05    -8.117079e-05    0.000000e+00
-8.134685e-06    -8.111855e-05    0.000000e+00
-4.060719e-06    -8.108725e-05    0.000000e+00
-9.643470e-19    -8.107682e-05    0.000000e+00
4.060719e-06    -8.108725e-05    0.000000e+00
8.134685e-06    -8.111855e-05    0.000000e+00
1.223508e-05    -8.117079e-05    0.000000e+00
1.637501e-05    -8.124404e-05    0.000000e+00
2.056757e-05    -8.133827e-05    0.000000e+00
-2.079833e-05    -8.558550e-05    0.000000e+00
-1.655963e-05    -8.550173e-05    0.000000e+00
-1.237344e-05    -8.543669e-05    0.000000e+00
-8.226802e-06    -8.539041e-05    0.000000e+00
-4.106724e-06    -8.536275e-05    0.000000e+00
-1.030839e-18    -8.535356e-05    0.000000e+00
4.106724e-06    -8.536275e-05    0.000000e+00
8.226802e-06    -8.539041e-05    0.000000e+00
1.237344e-05    -8.543669e-05    0.000000e+00
1.655963e-05    -8.550173e-05    0.000000e+00
2.079833e-05    -8.558550e-05    0.000000e+00
-2.100210e-05    -8.987603e-05    0.000000e+00
-1.672261e-05    -8.980269e-05    0.000000e+00
-1.249537e-05    -8.974594e-05    0.000000e+00
-8.307807e-06    -8.970578e-05    0.000000e+00
-4.147107e-06    -8.968192e-05    0.000000e+00
-1.104107e-18    -8.967401e-05    0.000000e+00
4.147107e-06    -8.968192e-05    0.000000e+00
8.307807e-06    -8.970578e-05    0.000000e+00
1.249537e-05    -8.974594e-05    0.000000e+00
1.672261e-05    -8.980269e-05    0.000000e+00
2.100210e-05    -8.987603e-05    0.000000e+00
-2.117912e-05    -9.420439e-05    0.000000e+00
-1.686399e-05    -9.414142e-05    0.000000e+00
-1.260070e-05    -9.409307e-05    0.000000e+00
-8.377428e-06    -9.405931e-05    0.000000e+00
-4.181679e-06    -9.403948e-05    0.000000e+00
-1.126977e-18    -9.403296e-05    0.000000e+00
4.181679e-06    -9.403948e-05    0.000000e+00
8.377428e-06    -9.405931e-05    0.000000e+00
1.260070e-05    -9.409307e-05    0.000000e+00
1.686399e-05    -9.414142e-05    0.000000e+00
2.117912e-05    -9.420439e-05    0.000000e+00
-2.132994e-05    -9.856523e-05    0.000000e+00
-1.698387e-05    -9.851248e-05    0.000000e+00
-1.268909e-05    -9.847276e-05    0.000000e+00
-8.435205e-06    -9.844575e-05    0.000000e+00
-4.210141e-06    -9.843026e-05    0.000000e+00
-1.173141e-18    -9.842523e-05    0.000000e+00
4.210141e-06    -9.843026e-05    0.000000e+00
8.435205e-06    -9.844575e-05    0.000000e+00
1.268909e-05    -9.847276e-05    0.000000e+00
1.698387e-05    -9.851248e-05    0.000000e+00
2.132994e-05    -9.856523e-05    0.000000e+00
-2.145562e-05    -1.029537e-04    0.000000e+00
-1.708235e-05    -1.029109e-04    0.000000e+00
-1.275997e-05    -1.028800e-04    0.000000e+00
-8.480517e-06    -1.028600e-04    0.000000e+00
-4.232143e-06    -1.028489e-04    0.000000e+00
-1.210834e-18    -1.028454e-04    0.000000e+00
4.232143e-06    -1.028489e-04    0.000000e+00
8.480517e-06    -1.028600e-04    0.000000e+00
1.275997e-05    -1.028800e-04    0.000000e+00
1.708235e-05    -1.029109e-04    0.000000e+00
2.145562e-05    -1.029537e-04    0.000000e+00
-2.155817e-05    -1.073660e-04    0.000000e+00
-1.715935e-05    -1.073327e-04    0.000000e+00
-1.281258e-05    -1.073105e-04    0.000000e+00
-8.512904e-06    -1.072970e-04    0.000000e+00
-4.247579e-06    -1.072895e-04    0.000000e+00
-1.156200e-18    -1.072870e-04    0.000000e+00
4.247579e-06    -1.072895e-04    0.000000e+00
8.512904e-06    -1.072970e-04    0.000000e+00
1.281258e-05    -1.073105e-04    0.000000e+00
1.715935e-05    -1.073327e-04    0.000000e+00
2.155817e-05    -1.073660e-04    0.000000e+00
-2.164067e-05    -1.118022e-04    0.000000e+00
-1.721429e-05    -1.117772e-04    0.000000e+00
-1.284670e-05    -1.117621e-04    0.000000e+00
-8.533270e-06    -1.117511e-04    0.000000e+00
-4.257281e-06    -1.117436e-04    0.000000e+00
-1.087167e-18    -1.117409e-04    0.000000e+00
4.257281e-06    -1.117436e-04    0.000000e+00
8.533270e-06    -1.117511e-04    0.000000e+00
1.284670e-05    -1.117621e-04    0.000000e+00
1.721429e-05    -1.117772e-04    0.000000e+00
2.164067e-05    -1.118022e-04    0.000000e+00
-2.170513e-05    -1.162704e-04    0.000000e+00
-1.724615e-05    -1.162523e-04    0.000000e+00
-1.286626e-05    -1.162338e-04    0.000000e+00
-8.546206e-06    -1.162132e-04    0.000000e+00
-4.263865e-06    -1.161978e-04    0.000000e+00
-1.094790e-18    -1.161922e-04    0.000000e+00
4.263865e-06    -1.161978e-04    0.000000e+00
8.546206e-06    -1.162132e-04    0.000000e+00
1.286626e-05    -1.162338e-04    0.000000e+00
1.724615e-05    -1.162523e-04    0.000000e+00
2.170513e-05    -1.162704e-04    0.000000e+00
-2.173924e-05    -1.208105e-04    0.000000e+00
-1.726634e-05    -1.207758e-04    0.000000e+00
-1.288608e-05    -1.207173e-04    0.000000e+00
-8.561321e-06    -1.206645e-04    0.000000e+00
-4.272039e-06    -1.206293e-04    0.000000e+00
-1.101566e-18    -1.206170e-04    0.000000e+00
4.272039e-06    -1.206293e-04    0.000000e+00
8.561321e-06    -1.206645e-04    0.000000e+00
1.288608e-05    -1.207173e-04    0.000000e+00
1.726634e-05    -1.207758e-04    0.000000e+00
2.173924e-05    -1.208105e-04    0.000000e+00

CELL_DATA      400
TENSORS Element_Stress7.000000e-01 double
1.820598e+06 2.551812e+05        0
2.551812e+05 4.163488e+05        0
       0        0        0

1.243720e+06 1.308538e+05        0
1.308538e+05 3.566178e+05        0
       0        0        0

8.651185e+05 4.301032e+04        0
4.301032e+04 2.749959e+05        0
       0        0        0

5.100063e+05 -3.578363e+03        0
-3.578363e+03 1.690094e+05        0
       0        0        0

1.688541e+05 -2.488323e+04        0
-2.488323e+04 5.694968e+04        0
       0        0        0

-1.688184e+05 -2.487711e+04        0
-2.487711e+04 -5.695775e+04        0
       0        0        0

-5.095306e+05 -3.579112e+03        0
-3.579112e+03 -1.688447e+05        0
       0        0        0

-8.637077e+05 4.293851e+04        0
4.293851e+04 -2.744671e+05        0
       0        0        0

-1.240734e+06 1.305652e+05        0
1.305652e+05 -3.554740e+05        0
       0        0        0

-1.814375e+06 2.543707e+05        0
2.543707e+05 -4.141970e+05        0
       0        0        0

1.642070e+06 4.159748e+04        0
4.159748e+04 4.234799e+03        0
       0        0        0

1.322354e+06 1.206454e+05        0
1.206454e+05 1.286843e+05        0
       0        0        0

9.082521e+05 9.900755e+04        0
9.900755e+04 1.315191e+05        0
       0        0        0

5.364025e+05 7.580678e+04        0
7.580678e+04 9.193311e+04        0
       0        0        0

1.768172e+05 6.321707e+04        0
6.321707e+04 3.207757e+04        0
       0        0        0

-1.778550e+05 6.319873e+04        0
6.319873e+04 -3.316896e+04        0
       0        0        0

-5.369363e+05 7.574133e+04        0
7.574133e+04 -9.284490e+04        0
       0        0        0

-9.077061e+05 9.886737e+04        0
9.886737e+04 -1.320379e+05        0
       0        0        0

-1.319830e+06 1.204079e+05        0
1.204079e+05 -1.284324e+05        0
       0        0        0

-1.637466e+06 4.151082e+04        0
4.151082e+04 -3.136555e+03        0
       0        0        0

1.584953e+06 1.541639e+04        0
1.541639e+04 6.615316e+03        0
       0        0        0

1.271591e+06 6.833109e+04        0
6.833109e+04 1.757728e+04        0
       0        0        0

9.146413e+05 1.015639e+05        0
1.015639e+05 4.237686e+04        0
       0        0        0

5.430826e+05 1.074765e+05        0
1.074765e+05 3.592346e+04        0
       0        0        0

1.791459e+05 1.074054e+05        0
1.074054e+05 1.272037e+04        0
       0        0        0

-1.824790e+05 1.073775e+05        0
1.073775e+05 -1.611190e+04        0
       0        0        0

-5.458838e+05 1.073933e+05        0
1.073933e+05 -3.912503e+04        0
       0        0        0

-9.163117e+05 1.014348e+05        0
1.014348e+05 -4.515293e+04        0
       0        0        0

-1.271565e+06 6.821622e+04        0
6.821622e+04 -1.966893e+04        0
       0        0        0

-1.582978e+06 1.538448e+04        0
1.538448e+04 -7.911807e+03        0
       0        0        0

1.546129e+06 1.427370e+04        0
1.427370e+04 -3.975752e+03        0
       0        0        0

1.226683e+06 5.548208e+04        0
5.548208e+04 -1.953361e+03        0
       0        0        0

8.865538e+05 9.245024e+04        0
9.245024e+04 2.933168e+03        0
       0        0        0

5.331314e+05 1.146030e+05        0
1.146030e+05 5.877770e+03        0
       0        0        0

1.753740e+05 1.233579e+05        0
1.233579e+05 6.880625e+02        0
       0        0        0

-1.820438e+05 1.233283e+05        0
1.233283e+05 -7.415933e+03        0
       0        0        0

-5.392752e+05 1.145213e+05        0
1.145213e+05 -1.241206e+04        0
       0        0        0

-8.916350e+05 9.234262e+04        0
9.234262e+04 -9.058365e+03        0
       0        0        0

-1.230189e+06 5.539388e+04        0
5.539388e+04 -3.528931e+03        0
       0        0        0

-1.547532e+06 1.424568e+04        0
1.424568e+04 -5.504384e+02        0
       0        0        0

1.509427e+06 1.713063e+04        0
1.713063e+04 -5.567249e+03        0
       0        0        0

1.185340e+06 5.448733e+04        0
5.448733e+04 -8.577651e+03        0
       0        0        0

8.541561e+05 8.905469e+04        0
8.905469e+04 -8.329305e+03        0
       0        0        0

5.137340e+05 1.136408e+05        0
1.136408e+05 -6.745280e+03        0
       0        0        0

1.681056e+05 1.258450e+05        0
1.258450e+05 -5.639044e+03        0
       0        0        0

-1.789903e+05 1.258166e+05        0
1.258166e+05 -5.300819e+03        0
       0        0        0

-5.241237e+05 1.135646e+05        0
1.135646e+05 -4.010288e+03        0
       0        0        0

-8.635542e+05 8.895612e+04        0
8.895612e+04 -2.042812e+03        0
       0        0        0

-1.193244e+06 5.440409e+04        0
5.440409e+04 -1.179541e+03        0
       0        0        0

-1.515273e+06 1.709766e+04        0
1.709766e+04 -3.264824e+03        0
       0        0        0

1.469671e+06 1.958963e+04        0
1.958963e+04 -7.911531e+03        0
       0        0        0

1.147077e+06 5.644559e+04        0
5.644559e+04 -1.054799e+04        0
       0        0        0

8.224151e+05 8.838594e+04        0
8.838594e+04 -1.192774e+04        0
       0        0        0

4.928620e+05 1.117722e+05        0
1.117722e+05 -1.113898e+04        0
       0        0        0

1.594065e+05 1.239614e+05        0
1.239614e+05 -9.157848e+03        0
       0        0        0

-1.752704e+05 1.239347e+05        0
1.239347e+05 -6.757342e+03        0
       0        0        0

-5.082716e+05 1.117003e+05        0
1.117003e+05 -4.611022e+03        0
       0        0        0

-8.369138e+05 8.829171e+04        0
8.829171e+04 -3.479956e+03        0
       0        0        0

-1.160194e+06 5.636191e+04        0
5.636191e+04 -4.312364e+03        0
       0        0        0

-1.480879e+06 1.955284e+04        0
1.955284e+04 -6.139554e+03        0
       0        0        0

1.427069e+06 2.114429e+04        0
2.114429e+04 -1.052964e+04        0
       0        0        0

1.109854e+06 5.834958e+04        0
5.834958e+04 -1.236661e+04        0
       0        0        0

7.924051e+05 8.864128e+04        0
8.864128e+04 -1.362108e+04        0
       0        0        0

4.726277e+05 1.103428e+05        0
1.103428e+05 -1.337050e+04        0
       0        0        0

1.506199e+05 1.216735e+05        0
1.216735e+05 -1.181697e+04        0
       0        0        0

-1.721469e+05 1.216483e+05        0
1.216483e+05 -9.757740e+03        0
       0        0        0

-4.937482e+05 1.102742e+05        0
1.102742e+05 -8.067258e+03        0
       0        0        0

-8.127094e+05 8.854973e+04        0
8.854973e+04 -7.533908e+03        0
       0        0        0

-1.128918e+06 5.826553e+04        0
5.826553e+04 -8.339735e+03        0
       0        0        0

-1.444434e+06 2.110561e+04        0
2.110561e+04 -9.528609e+03        0
       0        0        0

1.382471e+06 2.200181e+04        0
2.200181e+04 -1.363722e+04        0
       0        0        0

1.072891e+06 5.961398e+04        0
5.961398e+04 -1.472183e+04        0
       0        0        0

7.635785e+05 8.901007e+04        0
8.901007e+04 -1.557414e+04        0
       0        0        0

4.533125e+05 1.094858e+05        0
1.094858e+05 -1.552412e+04        0
       0        0        0

1.419522e+05 1.200358e+05        0
1.200358e+05 -1.458784e+04        0
       0        0        0

-1.697603e+05 1.200117e+05        0
1.200117e+05 -1.326479e+04        0
       0        0        0

-4.807667e+05 1.094198e+05        0
1.094198e+05 -1.222641e+04        0
       0        0        0

-7.903212e+05 8.892090e+04        0
8.892090e+04 -1.196593e+04        0
       0        0        0

-1.098554e+06 5.953060e+04        0
5.953060e+04 -1.248635e+04        0
       0        0        0

-1.406666e+06 2.196271e+04        0
2.196271e+04 -1.309846e+04        0
       0        0        0

1.336650e+06 2.243103e+04        0
2.243103e+04 -1.712975e+04        0
       0        0        0

1.035846e+06 6.032508e+04        0
6.032508e+04 -1.770734e+04        0
       0        0        0

7.353690e+05 8.928001e+04        0
8.928001e+04 -1.819357e+04        0
       0        0        0

4.345842e+05 1.090314e+05        0
1.090314e+05 -1.820574e+04        0
       0        0        0

1.333510e+05 1.190751e+05        0
1.190751e+05 -1.770719e+04        0
       0        0        0

-1.679948e+05 1.190519e+05        0
1.190519e+05 -1.697818e+04        0
       0        0        0

-4.689286e+05 1.089678e+05        0
1.089678e+05 -1.641605e+04        0
       0        0        0

-7.691116e+05 8.919329e+04        0
8.919329e+04 -1.629667e+04        0
       0        0        0

-1.068676e+06 6.024325e+04        0
6.024325e+04 -1.657480e+04        0
       0        0        0

-1.368246e+06 2.239236e+04        0
2.239236e+04 -1.685617e+04        0
       0        0        0

1.290108e+06 2.262769e+04        0
2.262769e+04 -2.093370e+04        0
       0        0        0

9.986145e+05 6.068320e+04        0
6.068320e+04 -2.119241e+04        0
       0        0        0

7.073840e+05 8.943847e+04        0
8.943847e+04 -2.142407e+04        0
       0        0        0

4.161153e+05 1.088122e+05        0
1.088122e+05 -2.143279e+04        0
       0        0        0

1.247137e+05 1.185759e+05        0
1.185759e+05 -2.118594e+04        0
       0        0        0

-1.666835e+05 1.185536e+05        0
1.185536e+05 -2.082274e+04        0
       0        0        0

-4.578408e+05 1.087507e+05        0
1.087507e+05 -2.055219e+04        0
       0        0        0

-7.486181e+05 8.935433e+04        0
8.935433e+04 -2.051028e+04        0
       0        0        0

-1.039104e+06 6.060345e+04        0
6.060345e+04 -2.065826e+04        0
       0        0        0

-1.329592e+06 2.258991e+04        0
2.258991e+04 -2.079207e+04        0
       0        0        0

1.243138e+06 2.270943e+04        0
2.270943e+04 -2.498210e+04        0
       0        0        0

9.611829e+05 6.084707e+04        0
6.084707e+04 -2.504187e+04        0
       0        0        0

6.794119e+05 8.952007e+04        0
8.952007e+04 -2.510676e+04        0
       0        0        0

3.976942e+05 1.087151e+05        0
1.087151e+05 -2.508705e+04        0
       0        0        0

1.159751e+05 1.183403e+05        0
1.183403e+05 -2.496213e+04        0
       0        0        0

-1.656966e+05 1.183187e+05        0
1.183187e+05 -2.479576e+04        0
       0        0        0

-4.472257e+05 1.086557e+05        0
1.086557e+05 -2.468699e+04        0
       0        0        0

-7.285608e+05 8.943859e+04        0
8.943859e+04 -2.469694e+04        0
       0        0        0

-1.009752e+06 6.076971e+04        0
6.076971e+04 -2.480000e+04        0
       0        0        0

-1.290922e+06 2.267274e+04        0
2.267274e+04 -2.489961e+04        0
       0        0        0

1.195902e+06 2.273919e+04        0
2.273919e+04 -2.922324e+04        0
       0        0        0

9.235708e+05 6.091458e+04        0
6.091458e+04 -2.915047e+04        0
       0        0        0

6.513590e+05 8.955767e+04        0
8.955767e+04 -2.910387e+04        0
       0        0        0

3.792147e+05 1.086759e+05        0
1.086759e+05 -2.904718e+04        0
       0        0        0

1.071092e+05 1.182389e+05        0
1.182389e+05 -2.896999e+04        0
       0        0        0

-1.649443e+05 1.182180e+05        0
1.182180e+05 -2.889900e+04        0
       0        0        0

-4.369126e+05 1.086185e+05        0
1.086185e+05 -2.887696e+04        0
       0        0        0

-7.087800e+05 8.947891e+04        0
8.947891e+04 -2.892824e+04        0
       0        0        0

-9.805709e+05 6.083975e+04        0
6.083975e+04 -2.903784e+04        0
       0        0        0

-1.252330e+06 2.270369e+04        0
2.270369e+04 -2.916302e+04        0
       0        0        0

1.148491e+06 2.274763e+04        0
2.274763e+04 -3.361527e+04        0
       0        0        0

8.858087e+05 6.093851e+04        0
6.093851e+04 -3.344415e+04        0
       0        0        0

6.231974e+05 8.957284e+04        0
8.957284e+04 -3.331675e+04        0
       0        0        0

3.606384e+05 1.086618e+05        0
1.086618e+05 -3.322145e+04        0
       0        0        0

9.811734e+04 1.181997e+05        0
1.181997e+05 -3.315416e+04        0
       0        0        0

-1.643651e+05 1.181796e+05        0
1.181796e+05 -3.312513e+04        0
       0        0        0

-4.268000e+05 1.086064e+05        0
1.086064e+05 -3.315081e+04        0
       0        0        0

-6.891844e+05 8.949683e+04        0
8.949683e+04 -3.323922e+04        0
       0        0        0

-9.515284e+05 6.086627e+04        0
6.086627e+04 -3.338182e+04        0
       0        0        0

-1.213844e+06 2.271337e+04        0
2.271337e+04 -3.356049e+04        0
       0        0        0

1.100960e+06 2.274841e+04        0
2.274841e+04 -3.812278e+04        0
       0        0        0

8.479289e+05 6.094459e+04        0
6.094459e+04 -3.787019e+04        0
       0        0        0

5.949322e+05 8.957762e+04        0
8.957762e+04 -3.767803e+04        0
       0        0        0

3.419635e+05 1.086573e+05        0
1.086573e+05 -3.754494e+04        0
       0        0        0

8.901558e+04 1.181867e+05        0
1.181867e+05 -3.747027e+04        0
       0        0        0

-1.639142e+05 1.181674e+05        0
1.181674e+05 -3.745768e+04        0
       0        0        0

-4.168253e+05 1.086039e+05        0
1.086039e+05 -3.751247e+04        0
       0        0        0

-6.697180e+05 8.950436e+04        0
8.950436e+04 -3.763608e+04        0
       0        0        0

-9.225952e+05 6.087498e+04        0
6.087498e+04 -3.782343e+04        0
       0        0        0

-1.175457e+06 2.271539e+04        0
2.271539e+04 -3.806658e+04        0
       0        0        0

1.053347e+06 2.274703e+04        0
2.274703e+04 -4.271420e+04        0
       0        0        0

8.099626e+05 6.094429e+04        0
6.094429e+04 -4.238866e+04        0
       0        0        0

5.665832e+05 8.957803e+04        0
8.957803e+04 -4.214000e+04        0
       0        0        0

3.232060e+05 1.086559e+05        0
1.086559e+05 -4.197068e+04        0
       0        0        0

7.982720e+04 1.181835e+05        0
1.181835e+05 -4.188171e+04        0
       0        0        0

-1.635563e+05 1.181649e+05        0
1.181649e+05 -4.187447e+04        0
       0        0        0

-4.069457e+05 1.086046e+05        0
1.086046e+05 -4.195008e+04        0
       0        0        0

-6.503417e+05 8.950753e+04        0
8.950753e+04 -4.210767e+04        0
       0        0        0

-8.937438e+05 6.087730e+04        0
6.087730e+04 -4.234382e+04        0
       0        0        0

-1.137148e+06 2.271526e+04        0
2.271526e+04 -4.265429e+04        0
       0        0        0

1.005683e+06 2.274539e+04        0
2.274539e+04 -4.736038e+04        0
       0        0        0

7.719394e+05 6.094219e+04        0
6.094219e+04 -4.696667e+04        0
       0        0        0

5.381756e+05 8.957681e+04        0
8.957681e+04 -4.666608e+04        0
       0        0        0

3.043894e+05 1.086553e+05        0
1.086553e+05 -4.646218e+04        0
       0        0        0

7.057816e+04 1.181832e+05        0
1.181832e+05 -4.635676e+04        0
       0        0        0

-1.632605e+05 1.181653e+05        0
1.181653e+05 -4.635058e+04        0
       0        0        0

-3.971278e+05 1.086060e+05        0
1.086060e+05 -4.644347e+04        0
       0        0        0

-6.310240e+05 8.950907e+04        0
8.950907e+04 -4.663394e+04        0
       0        0        0

-8.649473e+05 6.087783e+04        0
6.087783e+04 -4.691929e+04        0
       0        0        0

-1.098893e+06 2.271487e+04        0
2.271487e+04 -4.729637e+04        0
       0        0        0

9.579955e+05 2.274400e+04        0
2.274400e+04 -5.203381e+04        0
       0        0        0

7.338873e+05 6.093989e+04        0
6.093989e+04 -5.157525e+04        0
       0        0        0

5.097360e+05 8.957508e+04        0
8.957508e+04 -5.122566e+04        0
       0        0        0

2.855393e+05 1.086546e+05        0
1.086546e+05 -5.098880e+04        0
       0        0        0

6.129495e+04 1.181835e+05        0
1.181835e+05 -5.086675e+04        0
       0        0        0

-1.629989e+05 1.181663e+05        0
1.181663e+05 -5.086025e+04        0
       0        0        0

-3.873432e+05 1.086073e+05        0
1.086073e+05 -5.096887e+04        0
       0        0        0

-6.117373e+05 8.951011e+04        0
8.951011e+04 -5.119108e+04        0
       0        0        0

-8.361791e+05 6.087815e+04        0
6.087815e+04 -5.152449e+04        0
       0        0        0

-1.060664e+06 2.271473e+04        0
2.271473e+04 -5.196605e+04        0
       0        0        0

9.103102e+05 2.274290e+04        0
2.274290e+04 -5.670829e+04        0
       0        0        0

6.958326e+05 6.093780e+04        0
6.093780e+04 -5.618768e+04        0
       0        0        0

4.812907e+05 8.957328e+04        0
8.957328e+04 -5.579141e+04        0
       0        0        0

2.666817e+05 1.086537e+05        0
1.086537e+05 -5.552312e+04        0
       0        0        0

5.200354e+04 1.181835e+05        0
1.181835e+05 -5.538500e+04        0
       0        0        0

-1.627453e+05 1.181671e+05        0
1.181671e+05 -5.537790e+04        0
       0        0        0

-3.775653e+05 1.086084e+05        0
1.086084e+05 -5.550144e+04        0
       0        0        0

-5.924555e+05 8.951107e+04        0
8.951107e+04 -5.575422e+04        0
       0        0        0

-8.074137e+05 6.087870e+04        0
6.087870e+04 -5.613390e+04        0
       0        0        0

-1.022436e+06 2.271486e+04        0
2.271486e+04 -5.663735e+04        0
       0        0        0

8.626520e+05 2.274198e+04        0
2.274198e+04 -6.135878e+04        0
       0        0        0

6.578008e+05 6.093596e+04        0
6.093596e+04 -6.077882e+04        0
       0        0        0

4.528650e+05 8.957150e+04        0
8.957150e+04 -6.033795e+04        0
       0        0        0

2.478418e+05 1.086526e+05        0
1.086526e+05 -6.003971e+04        0
       0        0        0

4.272898e+04 1.181833e+05        0
1.181833e+05 -5.988630e+04        0
       0        0        0

-1.624747e+05 1.181676e+05        0
1.181676e+05 -5.987867e+04        0
       0        0        0

-3.677693e+05 1.086093e+05        0
1.086093e+05 -6.001656e+04        0
       0        0        0

-5.731539e+05 8.951206e+04        0
8.951206e+04 -6.029866e+04        0
       0        0        0

-7.786261e+05 6.087948e+04        0
6.087948e+04 -6.072266e+04        0
       0        0        0

-9.841819e+05 2.271520e+04        0
2.271520e+04 -6.128530e+04        0
       0        0        0

8.150447e+05 2.274119e+04        0
2.274119e+04 -6.596136e+04        0
       0        0        0

6.198157e+05 6.093429e+04        0
6.093429e+04 -6.532473e+04        0
       0        0        0

4.244830e+05 8.956978e+04        0
8.956978e+04 -6.484132e+04        0
       0        0        0

2.290436e+05 1.086514e+05        0
1.086514e+05 -6.451456e+04        0
       0        0        0

3.349528e+04 1.181828e+05        0
1.181828e+05 -6.434667e+04        0
       0        0        0

-1.621631e+05 1.181678e+05        0
1.181678e+05 -6.433865e+04        0
       0        0        0

-3.579315e+05 1.086101e+05        0
1.086101e+05 -6.449035e+04        0
       0        0        0

-5.538087e+05 8.951311e+04        0
8.951311e+04 -6.480052e+04        0
       0        0        0

-7.497925e+05 6.088043e+04        0
6.088043e+04 -6.526685e+04        0
       0        0        0

-9.458791e+05 2.271565e+04        0
2.271565e+04 -6.588596e+04        0
       0        0        0

7.675109e+05 2.274046e+04        0
2.274046e+04 -7.049318e+04        0
       0        0        0

5.819002e+05 6.093273e+04        0
6.093273e+04 -6.980260e+04        0
       0        0        0

3.961677e+05 8.956811e+04        0
8.956811e+04 -6.927870e+04        0
       0        0        0

2.103102e+05 1.086501e+05        0
1.086501e+05 -6.892486e+04        0
       0        0        0

2.432535e+04 1.181822e+05        0
1.181822e+05 -6.874327e+04        0
       0        0        0

-1.617877e+05 1.181679e+05        0
1.181679e+05 -6.873499e+04        0
       0        0        0

-3.480290e+05 1.086108e+05        0
1.086108e+05 -6.889993e+04        0
       0        0        0

-5.343973e+05 8.951420e+04        0
8.951420e+04 -6.923690e+04        0
       0        0        0

-7.208901e+05 6.088150e+04        0
6.088150e+04 -6.974356e+04        0
       0        0        0

-9.075041e+05 2.271617e+04        0
2.271617e+04 -7.041649e+04        0
       0        0        0

7.200723e+05 2.273978e+04        0
2.273978e+04 -7.493249e+04        0
       0        0        0

5.440762e+05 6.093125e+04        0
6.093125e+04 -7.419071e+04        0
       0        0        0

3.679410e+05 8.956648e+04        0
8.956648e+04 -7.362841e+04        0
       0        0        0

1.916633e+05 1.086488e+05        0
1.086488e+05 -7.324889e+04        0
       0        0        0

1.524098e+04 1.181815e+05        0
1.181815e+05 -7.305436e+04        0
       0        0        0

-1.613270e+05 1.181679e+05        0
1.181679e+05 -7.304590e+04        0
       0        0        0

-3.380404e+05 1.086115e+05        0
1.086115e+05 -7.322349e+04        0
       0        0        0

-5.148979e+05 8.951533e+04        0
8.951533e+04 -7.358598e+04        0
       0        0        0

-6.918973e+05 6.088265e+04        0
6.088265e+04 -7.413101e+04        0
       0        0        0

-8.690350e+05 2.271673e+04        0
2.271673e+04 -7.485511e+04        0
       0        0        0

6.727496e+05 2.273915e+04        0
2.273915e+04 -7.925863e+04        0
       0        0        0

5.063643e+05 6.092987e+04        0
6.092987e+04 -7.846843e+04        0
       0        0        0

3.398235e+05 8.956489e+04        0
8.956489e+04 -7.786983e+04        0
       0        0        0

1.731238e+05 1.086474e+05        0
1.086474e+05 -7.746605e+04        0
       0        0        0

6.262879e+03 1.181806e+05        0
1.181806e+05 -7.725929e+04        0
       0        0        0

-1.607601e+05 1.181679e+05        0
1.181679e+05 -7.725069e+04        0
       0        0        0

-3.279448e+05 1.086121e+05        0
1.086121e+05 -7.744030e+04        0
       0        0        0

-4.952900e+05 8.951651e+04        0
8.951651e+04 -7.782701e+04        0
       0        0        0

-6.627933e+05 6.088389e+04        0
6.088389e+04 -7.840849e+04        0
       0        0        0

-8.304513e+05 2.271735e+04        0
2.271735e+04 -7.918115e+04        0
       0        0        0

6.255623e+05 2.273859e+04        0
2.273859e+04 -8.345202e+04        0
       0        0        0

4.687842e+05 6.092860e+04        0
6.092860e+04 -8.261621e+04        0
       0        0        0

3.118350e+05 8.956335e+04        0
8.956335e+04 -8.198342e+04        0
       0        0        0

1.547113e+05 1.086460e+05        0
1.086460e+05 -8.155678e+04        0
       0        0        0

-2.589332e+03 1.181797e+05        0
1.181797e+05 -8.133849e+04        0
       0        0        0

-1.600676e+05 1.181676e+05        0
1.181676e+05 -8.132976e+04        0
       0        0        0

-3.177230e+05 1.086127e+05        0
1.086127e+05 -8.153073e+04        0
       0        0        0

-4.755540e+05 8.951773e+04        0
8.951773e+04 -8.194037e+04        0
       0        0        0

-6.335585e+05 6.088526e+04        0
6.088526e+04 -8.255636e+04        0
       0        0        0

-7.917331e+05 2.271804e+04        0
2.271804e+04 -8.337502e+04        0
       0        0        0

5.785286e+05 2.273817e+04        0
2.273817e+04 -8.749418e+04        0
       0        0        0

4.313542e+05 6.092752e+04        0
6.092752e+04 -8.661559e+04        0
       0        0        0

2.839942e+05 8.956185e+04        0
8.956185e+04 -8.595072e+04        0
       0        0        0

1.364444e+05 1.086444e+05        0
1.086444e+05 -8.550260e+04        0
       0        0        0

-1.129712e+04 1.181785e+05        0
1.181785e+05 -8.527347e+04        0
       0        0        0

-1.592310e+05 1.181672e+05        0
1.181672e+05 -8.526462e+04        0
       0        0        0

-3.073564e+05 1.086132e+05        0
1.086132e+05 -8.547630e+04        0
       0        0        0

-4.556717e+05 8.951900e+04        0
8.951900e+04 -8.590754e+04        0
       0        0        0

-6.041745e+05 6.088680e+04        0
6.088680e+04 -8.655609e+04        0
       0        0        0

-7.528619e+05 2.271886e+04        0
2.271886e+04 -8.741819e+04        0
       0        0        0

5.316658e+05 2.273795e+04        0
2.273795e+04 -9.136769e+04        0
       0        0        0

3.940921e+05 6.092663e+04        0
6.092663e+04 -9.044910e+04        0
       0        0        0

2.563184e+05 8.956035e+04        0
8.956035e+04 -8.975416e+04        0
       0        0        0

1.183407e+05 1.086427e+05        0
1.086427e+05 -8.928591e+04        0
       0        0        0

-1.984304e+04 1.181771e+05        0
1.181771e+05 -8.904673e+04        0
       0        0        0

-1.582329e+05 1.181665e+05        0
1.181665e+05 -8.903797e+04        0
       0        0        0

-2.968278e+05 1.086135e+05        0
1.086135e+05 -8.925978e+04        0
       0        0        0

-4.356257e+05 8.952026e+04        0
8.952026e+04 -8.971126e+04        0
       0        0        0

-5.746240e+05 6.088854e+04        0
6.088854e+04 -9.039032e+04        0
       0        0        0

-7.138200e+05 2.271989e+04        0
2.271989e+04 -9.129325e+04        0
       0        0        0

4.849900e+05 2.273796e+04        0
2.273796e+04 -9.505616e+04        0
       0        0        0

3.570143e+05 6.092577e+04        0
6.092577e+04 -9.410011e+04        0
       0        0        0

2.288244e+05 8.955862e+04        0
8.955862e+04 -9.337680e+04        0
       0        0        0

1.004164e+05 1.086409e+05        0
1.086409e+05 -9.288973e+04        0
       0        0        0

-2.821084e+04 1.181759e+05        0
1.181759e+05 -9.264170e+04        0
       0        0        0

-1.570570e+05 1.181660e+05        0
1.181660e+05 -9.263378e+04        0
       0        0        0

-2.861209e+05 1.086137e+05        0
1.086137e+05 -9.286554e+04        0
       0        0        0

-4.153999e+05 8.952130e+04        0
8.952130e+04 -9.333582e+04        0
       0        0        0

-5.448908e+05 6.089031e+04        0
6.089031e+04 -9.404299e+04        0
       0        0        0

-6.745908e+05 2.272114e+04        0
2.272114e+04 -9.498387e+04        0
       0        0        0

4.385165e+05 2.273798e+04        0
2.273798e+04 -9.854412e+04        0
       0        0        0

3.201365e+05 6.092413e+04        0
6.092413e+04 -9.755241e+04        0
       0        0        0

2.015270e+05 8.955604e+04        0
8.955604e+04 -9.680154e+04        0
       0        0        0

8.268605e+04 1.086393e+05        0
1.086393e+05 -9.629692e+04        0
       0        0        0

-3.638570e+04 1.181760e+05        0
1.181760e+05 -9.604233e+04        0
       0        0        0

-1.556878e+05 1.181669e+05        0
1.181669e+05 -9.603768e+04        0
       0        0        0

-2.752197e+05 1.086142e+05        0
1.086142e+05 -9.628030e+04        0
       0        0        0

-3.949789e+05 8.952148e+04        0
8.952148e+04 -9.676788e+04        0
       0        0        0

-5.149601e+05 6.089129e+04        0
6.089129e+04 -9.749979e+04        0
       0        0        0

-6.351590e+05 2.272241e+04        0
2.272241e+04 -9.847493e+04        0
       0        0        0

3.922608e+05 2.273705e+04        0
2.273705e+04 -1.018168e+05        0
       0        0        0

2.834737e+05 6.091918e+04        0
6.091918e+04 -1.007892e+05        0
       0        0        0

1.744389e+05 8.955103e+04        0
8.955103e+04 -1.000095e+05        0
       0        0        0

6.516112e+04 1.086394e+05        0
1.086394e+05 -9.948864e+04        0
       0        0        0

-4.435479e+04 1.181814e+05        0
1.181814e+05 -9.923256e+04        0
       0        0        0

-1.541098e+05 1.181730e+05        0
1.181730e+05 -9.923756e+04        0
       0        0        0

-2.641076e+05 1.086162e+05        0
1.086162e+05 -9.949471e+04        0
       0        0        0

-3.743470e+05 8.951924e+04        0
8.951924e+04 -9.999807e+04        0
       0        0        0

-4.848186e+05 6.088897e+04        0
6.088897e+04 -1.007491e+05        0
       0        0        0

-5.955116e+05 2.272272e+04        0
2.272272e+04 -1.017526e+05        0
       0        0        0

3.462408e+05 2.273213e+04        0
2.273213e+04 -1.048596e+05        0
       0        0        0

2.470402e+05 6.090435e+04        0
6.090435e+04 -1.037913e+05        0
       0        0        0

1.475679e+05 8.953998e+04        0
8.953998e+04 -1.029768e+05        0
       0        0        0

4.784706e+04 1.086446e+05        0
1.086446e+05 -1.024414e+05        0
       0        0        0

-5.210859e+04 1.182015e+05        0
1.182015e+05 -1.021950e+05        0
       0        0        0

-1.523066e+05 1.181938e+05        0
1.181938e+05 -1.022248e+05        0
       0        0        0

-2.527641e+05 1.086235e+05        0
1.086235e+05 -1.025064e+05        0
       0        0        0

-3.534861e+05 8.951095e+04        0
8.951095e+04 -1.030243e+05        0
       0        0        0

-4.544544e+05 6.087677e+04        0
6.087677e+04 -1.037842e+05        0
       0        0        0

-5.556397e+05 2.271905e+04        0
2.271905e+04 -1.048050e+05        0
       0        0        0

3.004822e+05 2.271539e+04        0
2.271539e+04 -1.076574e+05        0
       0        0        0

2.108493e+05 6.086437e+04        0
6.086437e+04 -1.065333e+05        0
       0        0        0

1.209111e+05 8.951546e+04        0
8.951546e+04 -1.056691e+05        0
       0        0        0

3.073692e+04 1.086641e+05        0
1.086641e+05 -1.051219e+05        0
       0        0        0

-5.964355e+04 1.182578e+05        0
1.182578e+05 -1.049091e+05        0
       0        0        0

-1.502580e+05 1.182508e+05        0
1.182508e+05 -1.049962e+05        0
       0        0        0

-2.411586e+05 1.086450e+05        0
1.086450e+05 -1.053249e+05        0
       0        0        0

-3.323700e+05 8.948920e+04        0
8.948920e+04 -1.058577e+05        0
       0        0        0

-4.238570e+05 6.083943e+04        0
6.083943e+04 -1.066065e+05        0
       0        0        0

-5.155448e+05 2.270357e+04        0
2.270357e+04 -1.076228e+05        0
       0        0        0

2.550302e+05 2.266861e+04        0
2.266861e+04 -1.101928e+05        0
       0        0        0

1.749112e+05 6.076689e+04        0
6.076689e+04 -1.089786e+05        0
       0        0        0

9.444394e+04 8.946363e+04        0
8.946363e+04 -1.080332e+05        0
       0        0        0

1.379929e+04 1.087177e+05        0
1.087177e+05 -1.074804e+05        0
       0        0        0

-6.696699e+04 1.183950e+05        0
1.183950e+05 -1.073481e+05        0
       0        0        0

-1.479345e+05 1.183887e+05        0
1.183887e+05 -1.075565e+05        0
       0        0        0

-2.292386e+05 1.087005e+05        0
1.087005e+05 -1.079789e+05        0
       0        0        0

-3.109536e+05 8.944014e+04        0
8.944014e+04 -1.085307e+05        0
       0        0        0

-3.930164e+05 6.074460e+04        0
6.074460e+04 -1.092323e+05        0
       0        0        0

-4.752498e+05 2.265805e+04        0
2.265805e+04 -1.102010e+05        0
       0        0        0

2.099707e+05 2.255312e+04        0
2.255312e+04 -1.124452e+05        0
       0        0        0

1.392276e+05 6.054966e+04        0
6.054966e+04 -1.110720e+05        0
       0        0        0

6.809783e+04 8.936201e+04        0
8.936201e+04 -1.099896e+05        0
       0        0        0

-3.042201e+03 1.088455e+05        0
1.088455e+05 -1.094456e+05        0
       0        0        0

-7.410476e+04 1.186961e+05        0
1.186961e+05 -1.094775e+05        0
       0        0        0

-1.452897e+05 1.186906e+05        0
1.186906e+05 -1.099193e+05        0
       0        0        0

-2.169085e+05 1.088304e+05        0
1.088304e+05 -1.105207e+05        0
       0        0        0

-2.891518e+05 8.934130e+04        0
8.934130e+04 -1.111065e+05        0
       0        0        0

-3.619182e+05 6.053005e+04        0
6.053005e+04 -1.117009e+05        0
       0        0        0

-4.348222e+05 2.254384e+04        0
2.254384e+04 -1.125421e+05        0
       0        0        0

1.654676e+05 2.229389e+04        0
2.229389e+04 -1.143894e+05        0
       0        0        0

1.037757e+05 6.010633e+04        0
6.010633e+04 -1.127378e+05        0
       0        0        0

4.172434e+04 8.918285e+04        0
8.918285e+04 -1.114369e+05        0
       0        0        0

-1.993674e+04 1.091211e+05        0
1.091211e+05 -1.109352e+05        0
       0        0        0

-8.111029e+04 1.192969e+05        0
1.192969e+05 -1.112604e+05        0
       0        0        0

-1.422485e+05 1.192922e+05        0
1.192922e+05 -1.121001e+05        0
       0        0        0

-2.040019e+05 1.091080e+05        0
1.091080e+05 -1.130150e+05        0
       0        0        0

-2.668047e+05 8.916493e+04        0
8.916493e+04 -1.136749e+05        0
       0        0        0

-3.305323e+05 6.008944e+04        0
6.008944e+04 -1.140806e+05        0
       0        0        0

-3.944153e+05 2.228592e+04        0
2.228592e+04 -1.146607e+05        0
       0        0        0

1.218143e+05 2.175987e+04        0
2.175987e+04 -1.160001e+05        0
       0        0        0

6.846991e+04 5.928775e+04        0
5.928775e+04 -1.139016e+05        0
       0        0        0

1.504776e+04 8.891653e+04        0
8.891653e+04 -1.123083e+05        0
       0        0        0

-3.712658e+04 1.096611e+05        0
1.096611e+05 -1.119237e+05        0
       0        0        0

-8.806576e+04 1.203706e+05        0
1.203706e+05 -1.126850e+05        0
       0        0        0

-1.387020e+05 1.203666e+05        0
1.203666e+05 -1.140839e+05        0
       0        0        0

-1.902583e+05 1.096500e+05        0
1.096500e+05 -1.154691e+05        0
       0        0        0

-2.436324e+05 8.890144e+04        0
8.890144e+04 -1.162985e+05        0
       0        0        0

-2.987810e+05 5.927361e+04        0
5.927361e+04 -1.164537e+05        0
       0        0        0

-3.543298e+05 2.175326e+04        0
2.175326e+04 -1.165894e+05        0
       0        0        0

7.947515e+04 2.075678e+04        0
2.075678e+04 -1.172821e+05        0
       0        0        0

3.307865e+04 5.797447e+04        0
5.797447e+04 -1.145899e+05        0
       0        0        0

-1.236393e+04 8.865059e+04        0
8.865059e+04 -1.127886e+05        0
       0        0        0

-5.490063e+04 1.106013e+05        0
1.106013e+05 -1.126577e+05        0
       0        0        0

-9.504947e+04 1.220074e+05        0
1.220074e+05 -1.138552e+05        0
       0        0        0

-1.345317e+05 1.220041e+05        0
1.220041e+05 -1.157267e+05        0
       0        0        0

-1.753639e+05 1.105923e+05        0
1.105923e+05 -1.176118e+05        0
       0        0        0

-2.192067e+05 8.863840e+04        0
8.863840e+04 -1.187962e+05        0
       0        0        0

-2.664683e+05 5.796312e+04        0
5.796312e+04 -1.188293e+05        0
       0        0        0

-3.150782e+05 2.075156e+04        0
2.075156e+04 -1.183719e+05        0
       0        0        0

3.901604e+04 1.910250e+04        0
1.910250e+04 -1.183311e+05        0
       0        0        0

-2.945801e+03 5.638064e+04        0
5.638064e+04 -1.153385e+05        0
       0        0        0

-4.097162e+04 8.874194e+04        0
8.874194e+04 -1.139163e+05        0
       0        0        0

-7.334316e+04 1.119428e+05        0
1.119428e+05 -1.141993e+05        0
       0        0        0

-1.020044e+05 1.238170e+05        0
1.238170e+05 -1.151847e+05        0
       0        0        0

-1.297257e+05 1.238146e+05        0
1.238146e+05 -1.165458e+05        0
       0        0        0

-1.591896e+05 1.119363e+05        0
1.119363e+05 -1.183359e+05        0
       0        0        0

-1.930733e+05 8.873286e+04        0
8.873286e+04 -1.201362e+05        0
       0        0        0

-2.331278e+05 5.637209e+04        0
5.637209e+04 -1.207525e+05        0
       0        0        0

-2.773664e+05 1.909865e+04        0
1.909865e+04 -1.200521e+05        0
       0        0        0

5.231885e+02 1.710271e+04        0
1.710271e+04 -1.199683e+05        0
       0        0        0

-4.055900e+04 5.592265e+04        0
5.592265e+04 -1.183223e+05        0
       0        0        0

-7.064224e+04 9.001307e+04        0
9.001307e+04 -1.192608e+05        0
       0        0        0

-9.160225e+04 1.128998e+05        0
1.128998e+05 -1.193451e+05        0
       0        0        0

-1.084793e+05 1.240404e+05        0
1.240404e+05 -1.176209e+05        0
       0        0        0

-1.246149e+05 1.240392e+05        0
1.240392e+05 -1.154734e+05        0
       0        0        0

-1.424954e+05 1.128964e+05        0
1.128964e+05 -1.147534e+05        0
       0        0        0

-1.653497e+05 9.000769e+04        0
9.000769e+04 -1.167341e+05        0
       0        0        0

-1.979384e+05 5.591692e+04        0
5.591692e+04 -1.201833e+05        0
       0        0        0

-2.416132e+05 1.710010e+04        0
1.710010e+04 -1.211410e+05        0
       0        0        0

-3.838756e+04 1.780089e+04        0
1.780089e+04 -1.241547e+05        0
       0        0        0

-8.056431e+04 6.133461e+04        0
6.133461e+04 -1.329179e+05        0
       0        0        0

-9.823377e+04 9.241439e+04        0
9.241439e+04 -1.376493e+05        0
       0        0        0

-1.069299e+05 1.101518e+05        0
1.101518e+05 -1.330247e+05        0
       0        0        0

-1.134903e+05 1.182691e+05        0
1.182691e+05 -1.226657e+05        0
       0        0        0

-1.199857e+05 1.182695e+05        0
1.182695e+05 -1.108102e+05        0
       0        0        0

-1.278480e+05 1.101525e+05        0
1.101525e+05 -1.017531e+05        0
       0        0        0

-1.390687e+05 9.241419e+04        0
9.241419e+04 -9.965328e+04        0
       0        0        0

-1.602170e+05 6.133242e+04        0
6.133242e+04 -1.078653e+05        0
       0        0        0

-2.060740e+05 1.779909e+04        0
1.779909e+04 -1.203165e+05        0
       0        0        0

-9.041227e+04 4.054631e+04        0
4.054631e+04 -1.562833e+05        0
       0        0        0

-1.138421e+05 7.593486e+04        0
7.593486e+04 -1.858539e+05        0
       0        0        0

-1.150718e+05 8.920336e+04        0
8.920336e+04 -1.817339e+05        0
       0        0        0

-1.153875e+05 9.571255e+04        0
9.571255e+04 -1.608397e+05        0
       0        0        0

-1.157489e+05 9.856239e+04        0
9.856239e+04 -1.317915e+05        0
       0        0        0

-1.168366e+05 9.856429e+04        0
9.856429e+04 -1.007937e+05        0
       0        0        0

-1.188659e+05 9.571771e+04        0
9.571771e+04 -7.341100e+04        0
       0        0        0

-1.225609e+05 8.921016e+04        0
8.921016e+04 -5.589328e+04        0
       0        0        0

-1.289065e+05 7.594047e+04        0
7.594047e+04 -5.688864e+04        0
       0        0        0

-1.586523e+05 4.054609e+04        0
4.054609e+04 -9.278138e+04        0
       0        0        0

POINT_DATA     451
VECTORS DISPLACEMENT_7.200000e-01 double
0.000000e+00    0.000000e+00    0.000000e+00
0.000000e+00    0.000000e+00    0.000000e+00
0.000000e+00    0.000000e+00    0.000000e+00
0.000000e+00    0.000000e+00    0.000000e+00
0.000000e+00    0.000000e+00    0.000000e+00
0.000000e+00    0.000000e+00    0.000000e+00
0.000000e+00    0.000000e+00    0.000000e+00
0.000000e+00    0.000000e+00    0.000000e+00
0.000000e+00    0.000000e+00    0.000000e+00
0.000000e+00    0.000000e+00    0.000000e+00
0.000000e+00    0.000000e+00    0.000000e+00
-1.141595e-06    -8.299605e-07    0.000000e+00
-7.233448e-07    -4.163094e-07    0.000000e+00
-5.161144e-07    -2.157261e-07    0.000000e+00
-3.332233e-07    -1.068318e-07    0.000000e+00
-1.642863e-07    -5.047426e-08    0.000000e+00
-3.510419e-20    -3.295145e-08    0.000000e+00
1.642863e-07    -5.047426e-08    0.000000e+00
3.332233e-07    -1.068318e-07    0.000000e+00
5.161144e-07    -2.157261e-07    0.000000e+00
7.233448e-07    -4.163094e-07    0.000000e+00
1.141595e-06    -8.299605e-07    0.000000e+00
-2.153941e-06    -1.380309e-06    0.000000e+00
-1.574436e-06    -9.987668e-07    0.000000e+00
-1.105093e-06    -7.015532e-07    0.000000e+00
-7.128292e-07    -5.177059e-07    0.000000e+00
-3.501023e-07    -4.175298e-07    0.000000e+00
-7.407651e-20    -3.857102e-07    0.000000e+00
3.501023e-07    -4.175298e-07    0.000000e+00
7.128292e-07    -5.177059e-07    0.000000e+00
1.105093e-06    -7.015532e-07    0.000000e+00
1.574436e-06    -9.987668e-07    0.000000e+00
2.153941e-06    -1.380309e-06    0.000000e+00
-3.132427e-06    -2.064634e-06    0.000000e+00
-2.394168e-06    -1.682257e-06    0.000000e+00
-1.722702e-06    -1.380761e-06    0.000000e+00
-1.115240e-06    -1.168096e-06    0.000000e+00
-5.487489e-07    -1.045521e-06    0.000000e+00
-1.164439e-19    -1.005593e-06    0.000000e+00
5.487489e-07    -1.045521e-06    0.000000e+00
1.115240e-06    -1.168096e-06    0.000000e+00
1.722702e-06    -1.380761e-06    0.000000e+00
2.394168e-06    -1.682257e-06    0.000000e+00
3.132427e-06    -2.064634e-06    0.000000e+00
-4.100076e-06    -2.909172e-06    0.000000e+00
-3.186876e-06    -2.535522e-06    0.000000e+00
-2.326958e-06    -2.239053e-06    0.000000e+00
-1.519408e-06    -2.025105e-06    0.000000e+00
-7.500557e-07    -1.896684e-06    0.000000e+00
-1.602083e-19    -1.854101e-06    0.000000e+00
7.500557e-07    -1.896684e-06    0.000000e+00
1.519408e-06    -2.025105e-06    0.000000e+00
2.326958e-06    -2.239053e-06    0.000000e+00
3.186876e-06    -2.535522e-06    0.000000e+00
4.100076e-06    -2.909172e-06    0.000000e+00
-5.051341e-06    -3.936654e-06    0.000000e+00
-3.956477e-06    -3.571725e-06    0.000000e+00
-2.911986e-06    -3.284208e-06    0.000000e+00
-1.912865e-06    -3.075889e-06    0.000000e+00
-9.475500e-07    -2.949778e-06    0.000000e+00
-2.049820e-19    -2.907564e-06    0.000000e+00
9.475500e-07    -2.949778e-06    0.000000e+00
1.912865e-06    -3.075889e-06    0.000000e+00
2.911986e-06    -3.284208e-06    0.000000e+00
3.956477e-06    -3.571725e-06    0.000000e+00
5.051341e-06    -3.936654e-06    0.000000e+00
-5.981873e-06    -5.149742e-06    0.000000e+00
-4.704513e-06    -4.794468e-06    0.000000e+00
-3.477740e-06    -4.516043e-06    0.000000e+00
-2.292922e-06    -4.315096e-06    0.000000e+00
-1.138484e-06    -4.193469e-06    0.000000e+00
-2.506556e-19    -4.152740e-06    0.000000e+00
1.138484e-06    -4.193469e-06    0.000000e+00
2.292922e-06    -4.315096e-06    0.000000e+00
3.477740e-06    -4.516043e-06    0.000000e+00
4.704513e-06    -4.794468e-06    0.000000e+00
5.981873e-06    -5.149742e-06    0.000000e+00
-6.888558e-06    -6.546376e-06    0.000000e+00
-5.431254e-06    -6.201154e-06    0.000000e+00
-4.025294e-06    -5.931590e-06    0.000000e+00
-2.659769e-06    -5.737829e-06    0.000000e+00
-1.322562e-06    -5.620886e-06    0.000000e+00
-2.940263e-19    -5.581769e-06    0.000000e+00
1.322562e-06    -5.620886e-06    0.000000e+00
2.659769e-06    -5.737829e-06    0.000000e+00
4.025294e-06    -5.931590e-06    0.000000e+00
5.431254e-06    -6.201154e-06    0.000000e+00
6.888558e-06    -6.546376e-06    0.000000e+00
-7.769676e-06    -8.122139e-06    0.000000e+00
-6.136609e-06    -7.787205e-06    0.000000e+00
-4.555509e-06    -7.526210e-06    0.000000e+00
-3.014226e-06    -7.339157e-06    0.000000e+00
-1.500173e-06    -7.226543e-06    0.000000e+00
-3.364838e-19    -7.188927e-06    0.000000e+00
1.500173e-06    -7.226543e-06    0.000000e+00
3.014226e-06    -7.339157e-06    0.000000e+00
4.555509e-06    -7.526210e-06    0.000000e+00
6.136609e-06    -7.787205e-06    0.000000e+00
7.769676e-06    -8.122139e-06    0.000000e+00
-8.624338e-06    -9.871838e-06    0.000000e+00
-6.820449e-06    -9.547301e-06    0.000000e+00
-5.068913e-06    -9.294676e-06    0.000000e+00
-3.356973e-06    -9.113935e-06    0.000000e+00
-1.671744e-06    -9.005300e-06    0.000000e+00
-3.809795e-19    -8.969049e-06    0.000000e+00
1.671744e-06    -9.005300e-06    0.000000e+00
3.356973e-06    -9.113935e-06    0.000000e+00
5.068913e-06    -9.294676e-06    0.000000e+00
6.820449e-06    -9.547301e-06    0.000000e+00
8.624338e-06    -9.871838e-06    0.000000e+00
-9.452128e-06    -1.179002e-05    0.000000e+00
-7.482678e-06    -1.147593e-05    0.000000e+00
-5.565791e-06    -1.123156e-05    0.000000e+00
-3.688437e-06    -1.105688e-05    0.000000e+00
-1.837569e-06    -1.095199e-05    0.000000e+00
-4.263223e-19    -1.091701e-05    0.000000e+00
1.837569e-06    -1.095199e-05    0.000000e+00
3.688437e-06    -1.105688e-05    0.000000e+00
5.565791e-06    -1.123156e-05    0.000000e+00
7.482678e-06    -1.147593e-05    0.000000e+00
9.452128e-06    -1.179002e-05    0.000000e+00
-1.025287e-05    -1.387120e-05    0.000000e+00
-8.123242e-06    -1.356758e-05    0.000000e+00
-6.046283e-06    -1.333140e-05    0.000000e+00
-4.008850e-06    -1.316265e-05    0.000000e+00
-1.997814e-06    -1.306137e-05    0.000000e+00
-4.644917e-19    -1.302760e-05    0.000000e+00
1.997814e-06    -1.306137e-05    0.000000e+00
4.008850e-06    -1.316265e-05    0.000000e+00
6.046283e-06    -1.333140e-05    0.000000e+00
8.123242e-06    -1.356758e-05    0.000000e+00
1.025287e-05    -1.387120e-05    0.000000e+00
-1.102648e-05    -1.610989e-05    0.000000e+00
-8.742113e-06    -1.581673e-05    0.000000e+00
-6.510452e-06    -1.558871e-05    0.000000e+00
-4.318325e-06    -1.542583e-05    0.000000e+00
-2.152566e-06    -1.532809e-05    0.000000e+00
-5.041434e-19    -1.529550e-05    0.000000e+00
2.152566e-06    -1.532809e-05    0.000000e+00
4.318325e-06    -1.542583e-05    0.000000e+00
6.510452e-06    -1.558871e-05    0.000000e+00
8.742113e-06    -1.581673e-05    0.000000e+00
1.102648e-05    -1.610989e-05    0.000000e+00
-1.177296e-05    -1.850062e-05    0.000000e+00
-9.339276e-06    -1.821793e-05    0.000000e+00
-6.958324e-06    -1.799806e-05    0.000000e+00
-4.616914e-06    -1.784101e-05    0.000000e+00
-2.301865e-06    -1.774678e-05    0.000000e+00
-5.488244e-19    -1.771537e-05    0.000000e+00
2.301865e-06    -1.774678e-05    0.000000e+00
4.616914e-06    -1.784101e-05    0.000000e+00
6.958324e-06    -1.799806e-05    0.000000e+00
9.339276e-06    -1.821793e-05    0.000000e+00
1.177296e-05    -1.850062e-05    0.000000e+00
-1.249228e-05    -2.103794e-05    0.000000e+00
-9.914727e-06    -2.076572e-05    0.000000e+00
-7.389909e-06    -2.055400e-05    0.000000e+00
-4.904637e-06    -2.040277e-05    0.000000e+00
-2.445728e-06    -2.031204e-05    0.000000e+00
-5.781000e-19    -2.028179e-05    0.000000e+00
2.445728e-06    -2.031204e-05    0.000000e+00
4.904637e-06    -2.040277e-05    0.000000e+00
7.389909e-06    -2.055400e-05    0.000000e+00
9.914727e-06    -2.076572e-05    0.000000e+00
1.249228e-05    -2.103794e-05    0.000000e+00
-1.318446e-05    -2.371642e-05    0.000000e+00
-1.046846e-05    -2.345467e-05    0.000000e+00
-7.805208e-06    -2.325109e-05    0.000000e+00
-5.181501e-06    -2.310568e-05    0.000000e+00
-2.584160e-06    -2.301844e-05    0.000000e+00
-6.055227e-19    -2.298935e-05    0.000000e+00
2.584160e-06    -2.301844e-05    0.000000e+00
5.181501e-06    -2.310568e-05    0.000000e+00
7.805208e-06    -2.325109e-05    0.000000e+00
1.046846e-05    -2.345467e-05    0.000000e+00
1.318446e-05    -2.371642e-05    0.000000e+00
-1.384949e-05    -2.653062e-05    0.000000e+00
-1.100049e-05    -2.627934e-05    0.000000e+00
-8.204222e-06    -2.608391e-05    0.000000e+00
-5.447509e-06    -2.594431e-05    0.000000e+00
-2.717163e-06    -2.586055e-05    0.000000e+00
-6.269103e-19    -2.583264e-05    0.000000e+00
2.717163e-06    -2.586055e-05    0.000000e+00
5.447509e-06    -2.594431e-05    0.000000e+00
8.204222e-06    -2.608391e-05    0.000000e+00
1.100049e-05    -2.627934e-05    0.000000e+00
1.384949e-05    -2.653062e-05    0.000000e+00
-1.448737e-05    -2.947511e-05    0.000000e+00
-1.151079e-05    -2.923430e-05    0.000000e+00
-8.586950e-06    -2.904701e-05    0.000000e+00
-5.702661e-06    -2.891323e-05    0.000000e+00
-2.844739e-06    -2.883296e-05    0.000000e+00
-6.342159e-19    -2.880621e-05    0.000000e+00
2.844739e-06    -2.883296e-05    0.000000e+00
5.702661e-06    -2.891323e-05    0.000000e+00
8.586950e-06    -2.904701e-05    0.000000e+00
1.151079e-05    -2.923430e-05    0.000000e+00
1.448737e-05    -2.947511e-05    0.000000e+00
-1.509811e-05    -3.254446e-05    0.000000e+00
-1.199938e-05    -3.231413e-05    0.000000e+00
-8.953392e-06    -3.213498e-05    0.000000e+00
-5.946955e-06    -3.200701e-05    0.000000e+00
-2.966886e-06    -3.193024e-05    0.000000e+00
-6.523212e-19    -3.190464e-05    0.000000e+00
2.966886e-06    -3.193024e-05    0.000000e+00
5.946955e-06    -3.200701e-05    0.000000e+00
8.953392e-06    -3.213498e-05    0.000000e+00
1.199938e-05    -3.231413e-05    0.000000e+00
1.509811e-05    -3.254446e-05    0.000000e+00
-1.568170e-05    -3.573325e-05    0.000000e+00
-1.246626e-05    -3.551338e-05    0.000000e+00
-9.303549e-06    -3.534238e-05    0.000000e+00
-6.180392e-06    -3.522023e-05    0.000000e+00
-3.083604e-06    -3.514694e-05    0.000000e+00
-6.809086e-19    -3.512251e-05    0.000000e+00
3.083604e-06    -3.514694e-05    0.000000e+00
6.180392e-06    -3.522023e-05    0.000000e+00
9.303549e-06    -3.534238e-05    0.000000e+00
1.246626e-05    -3.551338e-05    0.000000e+00
1.568170e-05    -3.573325e-05    0.000000e+00
-1.623815e-05    -3.903604e-05    0.000000e+00
-1.291142e-05    -3.882665e-05    0.000000e+00
-9.637419e-06    -3.866378e-05    0.000000e+00
-6.402972e-06    -3.854745e-05    0.000000e+00
-3.194894e-06    -3.847765e-05    0.000000e+00
-7.299306e-19    -3.845439e-05    0.000000e+00
3.194894e-06    -3.847765e-05    0.000000e+00
6.402972e-06    -3.854745e-05    0.000000e+00
9.637419e-06    -3.866378e-05    0.000000e+00
1.291142e-05    -3.882665e-05    0.000000e+00
1.623815e-05    -3.903604e-05    0.000000e+00
-1.676746e-05    -4.244741e-05    0.000000e+00
-1.333486e-05    -4.224848e-05    0.000000e+00
-9.955003e-06    -4.209376e-05    0.000000e+00
-6.614695e-06    -4.198325e-05    0.000000e+00
-3.300755e-06    -4.191694e-05    0.000000e+00
-7.947287e-19    -4.189484e-05    0.000000e+00
3.300755e-06    -4.191694e-05    0.000000e+00
6.614695e-06    -4.198325e-05    0.000000e+00
9.955003e-06    -4.209376e-05    0.000000e+00
1.333486e-05    -4.224848e-05    0.000000e+00
1.676746e-05    -4.244741e-05    0.000000e+00
-1.726962e-05    -4.596192e-05    0.000000e+00
-1.373659e-05    -4.577347e-05    0.000000e+00
-1.025630e-05    -4.562689e-05    0.000000e+00
-6.815560e-06    -4.552219e-05    0.000000e+00
-3.401188e-06    -4.545937e-05    0.000000e+00
-8.419507e-19    -4.543843e-05    0.000000e+00
3.401188e-06    -4.545937e-05    0.000000e+00
6.815560e-06    -4.552219e-05    0.000000e+00
1.025630e-05    -4.562689e-05    0.000000e+00
1.373659e-05    -4.577347e-05    0.000000e+00
1.726962e-05    -4.596192e-05    0.000000e+00
-1.774464e-05    -4.957415e-05    0.000000e+00
-1.411661e-05    -4.939617e-05    0.000000e+00
-1.054131e-05    -4.925773e-05    0.000000e+00
-7.005568e-06    -4.915885e-05    0.000000e+00
-3.496192e-06    -4.909952e-05    0.000000e+00
-8.758321e-19    -4.907975e-05    0.000000e+00
3.496192e-06    -4.909952e-05    0.000000e+00
7.005568e-06    -4.915885e-05    0.000000e+00
1.054131e-05    -4.925773e-05    0.000000e+00
1.411661e-05    -4.939617e-05    0.000000e+00
1.774464e-05    -4.957415e-05    0.000000e+00
-1.819252e-05    -5.327868e-05    0.000000e+00
-1.447491e-05    -5.311116e-05    0.000000e+00
-1.081004e-05    -5.298087e-05    0.000000e+00
-7.184718e-06    -5.288780e-05    0.000000e+00
-3.585767e-06    -5.283196e-05    0.000000e+00
-9.200895e-19    -5.281335e-05    0.000000e+00
3.585767e-06    -5.283196e-05    0.000000e+00
7.184718e-06    -5.288780e-05    0.000000e+00
1.081004e-05    -5.298087e-05    0.000000e+00
1.447491e-05    -5.311116e-05    0.000000e+00
1.819252e-05    -5.327868e-05    0.000000e+00
-1.861325e-05    -5.707006e-05    0.000000e+00
-1.481149e-05    -5.691301e-05    0.000000e+00
-1.106248e-05    -5.679086e-05    0.000000e+00
-7.353011e-06    -5.670361e-05    0.000000e+00
-3.669914e-06    -5.665126e-05    0.000000e+00
-9.366067e-19    -5.663381e-05    0.000000e+00
3.669914e-06    -5.665126e-05    0.000000e+00
7.353011e-06    -5.670361e-05    0.000000e+00
1.106248e-05    -5.679086e-05    0.000000e+00
1.481149e-05    -5.691301e-05    0.000000e+00
1.861325e-05    -5.707006e-05    0.000000e+00
-1.900683e-05    -6.094287e-05    0.000000e+00
-1.512636e-05    -6.079629e-05    0.000000e+00
-1.129863e-05    -6.068229e-05    0.000000e+00
-7.510448e-06    -6.060086e-05    0.000000e+00
-3.748633e-06    -6.055200e-05    0.000000e+00
-9.605354e-19    -6.053571e-05    0.000000e+00
3.748633e-06    -6.055200e-05    0.000000e+00
7.510448e-06    -6.060086e-05    0.000000e+00
1.129863e-05    -6.068229e-05    0.000000e+00
1.512636e-05    -6.079629e-05    0.000000e+00
1.900683e-05    -6.094287e-05    0.000000e+00
-1.937327e-05    -6.489169e-05    0.000000e+00
-1.541952e-05    -6.475558e-05    0.000000e+00
-1.151850e-05    -6.464972e-05    0.000000e+00
-7.657028e-06    -6.457410e-05    0.000000e+00
-3.821923e-06    -6.452873e-05    0.000000e+00
-9.753584e-19    -6.451361e-05    0.000000e+00
3.821923e-06    -6.452873e-05    0.000000e+00
7.657028e-06    -6.457410e-05    0.000000e+00
1.151850e-05    -6.464972e-05    0.000000e+00
1.541952e-05    -6.475558e-05    0.000000e+00
1.937327e-05    -6.489169e-05    0.000000e+00
-1.971256e-05    -6.891107e-05    0.000000e+00
-1.569095e-05    -6.878544e-05    0.000000e+00
-1.172208e-05    -6.868772e-05    0.000000e+00
-7.792750e-06    -6.861792e-05    0.000000e+00
-3.889784e-06    -6.857604e-05    0.000000e+00
-9.723938e-19    -6.856208e-05    0.000000e+00
3.889784e-06    -6.857604e-05    0.000000e+00
7.792750e-06    -6.861792e-05    0.000000e+00
1.172208e-05    -6.868772e-05    0.000000e+00
1.569095e-05    -6.878544e-05    0.000000e+00
1.971256e-05    -6.891107e-05    0.000000e+00
-2.002471e-05    -7.299559e-05    0.000000e+00
-1.594068e-05    -7.288043e-05    0.000000e+00
-1.190938e-05    -7.279086e-05    0.000000e+00
-7.917611e-06    -7.272688e-05    0.000000e+00
-3.952212e-06    -7.268851e-05    0.000000e+00
-9.658293e-19    -7.267572e-05    0.000000e+00
3.952212e-06    -7.268851e-05    0.000000e+00
7.917611e-06    -7.272688e-05    0.000000e+00
1.190938e-05    -7.279086e-05    0.000000e+00
1.594068e-05    -7.288043e-05    0.000000e+00
2.002471e-05    -7.299559e-05    0.000000e+00
-2.030971e-05    -7.713981e-05    0.000000e+00
-1.616869e-05    -7.703511e-05    0.000000e+00
-1.208038e-05    -7.695370e-05    0.000000e+00
-8.031599e-06    -7.689557e-05    0.000000e+00
-4.009198e-06    -7.686071e-05    0.000000e+00
-1.012204e-18    -7.684909e-05    0.000000e+00
4.009198e-06    -7.686071e-05    0.000000e+00
8.031599e-06    -7.689557e-05    0.000000e+00
1.208038e-05    -7.695370e-05    0.000000e+00
1.616869e-05    -7.703511e-05    0.000000e+00
2.030971e-05    -7.713981e-05    0.000000e+00
-2.056757e-05    -8.133827e-05    0.000000e+00
-1.637501e-05    -8.124404e-05    0.000000e+00
-1.223508e-05    -8.117079e-05    0.000000e+00
-8.134685e-06    -8.111855e-05    0.000000e+00
-4.060719e-06    -8.108725e-05    0.000000e+00
-1.064720e-18    -8.107682e-05    0.000000e+00
4.060719e-06    -8.108725e-05    0.000000e+00
8.134685e-06    -8.111855e-05    0.000000e+00
1.223508e-05    -8.117079e-05    0.000000e+00
1.637501e-05    -8.124404e-05    0.000000e+00
2.056757e-05    -8.133827e-05    0.000000e+00
-2.079833e-05    -8.558550e-05    0.000000e+00
-1.655963e-05    -8.550173e-05    0.000000e+00
-1.237344e-05    -8.543669e-05    0.000000e+00
-8.226802e-06    -8.539041e-05    0.000000e+00
-4.106724e-06    -8.536275e-05    0.000000e+00
-1.143071e-18    -8.535356e-05    0.000000e+00
4.106724e-06    -8.536275e-05    0.000000e+00
8.226802e-06    -8.539041e-05    0.000000e+00
1.237344e-05    -8.543669e-05    0.000000e+00
1.655963e-05    -8.550173e-05    0.000000e+00
2.079833e-05    -8.558550e-05    0.000000e+00
-2.100210e-05    -8.987603e-05    0.000000e+00
-1.672261e-05    -8.980269e-05    0.000000e+00
-1.249537e-05    -8.974594e-05    0.000000e+00
-8.307807e-06    -8.970578e-05    0.000000e+00
-4.147107e-06    -8.968192e-05    0.000000e+00
-1.207445e-18    -8.967401e-05    0.000000e+00
4.147107e-06    -8.968192e-05    0.000000e+00
8.307807e-06    -8.970578e-05    0.000000e+00
1.249537e-05    -8.974594e-05    0.000000e+00
1.672261e-05    -8.980269e-05    0.000000e+00
2.100210e-05    -8.987603e-05    0.000000e+00
-2.117912e-05    -9.420439e-05    0.000000e+00
-1.686399e-05    -9.414142e-05    0.000000e+00
-1.260070e-05    -9.409307e-05    0.000000e+00
-8.377428e-06    -9.405931e-05    0.000000e+00
-4.181679e-06    -9.403948e-05    0.000000e+00
-1.246832e-18    -9.403296e-05    0.000000e+00
4.181679e-06    -9.403948e-05    0.000000e+00
8.377428e-06    -9.405931e-05    0.000000e+00
1.260070e-05    -9.409307e-05    0.000000e+00
1.686399e-05    -9.414142e-05    0.000000e+00
2.117912e-05    -9.420439e-05    0.000000e+00
-2.132994e-05    -9.856523e-05    0.000000e+00
-1.698387e-05    -9.851248e-05    0.000000e+00
-1.268909e-05    -9.847276e-05    0.000000e+00
-8.435205e-06    -9.844575e-05    0.000000e+00
-4.210141e-06    -9.843026e-05    0.000000e+00
-1.310360e-18    -9.842523e-05    0.000000e+00
4.210141e-06    -9.843026e-05    0.000000e+00
8.435205e-06    -9.844575e-05    0.000000e+00
1.268909e-05    -9.847276e-05    0.000000e+00
1.698387e-05    -9.851248e-05    0.000000e+00
2.132994e-05    -9.856523e-05    0.000000e+00
-2.145562e-05    -1.029537e-04    0.000000e+00
-1.708235e-05    -1.029109e-04    0.000000e+00
-1.275997e-05    -1.028800e-04    0.000000e+00
-8.480517e-06    -1.028600e-04    0.000000e+00
-4.232143e-06    -1.028489e-04    0.000000e+00
-1.354406e-18    -1.028454e-04    0.000000e+00
4.232143e-06    -1.028489e-04    0.000000e+00
8.480517e-06    -1.028600e-04    0.000000e+00
1.275997e-05    -1.028800e-04    0.000000e+00
1.708235e-05    -1.029109e-04    0.000000e+00
2.145562e-05    -1.029537e-04    0.000000e+00
-2.155817e-05    -1.073660e-04    0.000000e+00
-1.715935e-05    -1.073327e-04    0.000000e+00
-1.281258e-05    -1.073105e-04    0.000000e+00
-8.512904e-06    -1.072970e-04    0.000000e+00
-4.247579e-06    -1.072895e-04    0.000000e+00
-1.306548e-18    -1.072870e-04    0.000000e+00
4.247579e-06    -1.072895e-04    0.000000e+00
8.512904e-06    -1.072970e-04    0.000000e+00
1.281258e-05    -1.073105e-04    0.000000e+00
1.715935e-05    -1.073327e-04    0.000000e+00
2.155817e-05    -1.073660e-04    0.000000e+00
-2.164067e-05    -1.118022e-04    0.000000e+00
-1.721429e-05    -1.117772e-04    0.000000e+00
-1.284670e-05    -1.117621e-04    0.000000e+00
-8.533270e-06    -1.117511e-04    0.000000e+00
-4.257281e-06    -1.117436e-04    0.000000e+00
-1.230739e-18    -1.117409e-04    0.000000e+00
4.257281e-06    -1.117436e-04    0.000000e+00
8.533270e-06    -1.117511e-04    0.000000e+00
1.284670e-05    -1.117621e-04    0.000000e+00
1.721429e-05    -1.117772e-04    0.000000e+00
2.164067e-05    -1.118022e-04    0.000000e+00
-2.170513e-05    -1.162704e-04    0.000000e+00
-1.724615e-05    -1.162523e-04    0.000000e+00
-1.286626e-05    -1.162338e-04    0.000000e+00
-8.546206e-06    -1.162132e-04    0.000000e+00
-4.263865e-06    -1.161978e-04    0.000000e+00
-1.224386e-18    -1.161922e-04    0.000000e+00
4.263865e-06    -1.161978e-04    0.000000e+00
8.546206e-06    -1.162132e-04    0.000000e+00
1.286626e-05    -1.162338e-04    0.000000e+00
1.724615e-05    -1.162523e-04    0.000000e+00
2.170513e-05    -1.162704e-04    0.000000e+00
-2.173924e-05    -1.208105e-04    0.000000e+00
-1.726634e-05    -1.207758e-04    0.000000e+00
-1.288608e-05    -1.207173e-04    0.000000e+00
-8.561321e-06    -1.206645e-04    0.000000e+00
-4.272039e-06    -1.206293e-04    0.000000e+00
-1.215281e-18    -1.206170e-04    0.000000e+00
4.272039e-06    -1.206293e-04    0.000000e+00
8.561321e-06    -1.206645e-04    0.000000e+00
1.288608e-05    -1.207173e-04    0.000000e+00
1.726634e-05    -1.207758e-04    0.000000e+00
2.173924e-05    -1.208105e-04    0.000000e+00

CELL_DATA      400
TENSORS Element_Stress7.200000e-01 double
1.820598e+06 2.551812e+05        0
2.551812e+05 4.163488e+05        0
       0        0        0

1.243720e+06 1.308538e+05        0
1.308538e+05 3.566178e+05        0
       0        0        0

8.651185e+05 4.301032e+04        0
4.301032e+04 2.749959e+05        0
       0        0        0

5.100063e+05 -3.578363e+03        0
-3.578363e+03 1.690094e+05        0
       0        0        0

1.688541e+05 -2.488323e+04        0
-2.488323e+04 5.694968e+04        0
       0        0        0

-1.688184e+05 -2.487711e+04        0
-2.487711e+04 -5.695775e+04        0
       0        0        0

-5.095306e+05 -3.579112e+03        0
-3.579112e+03 -1.688447e+05        0
       0        0        0

-8.637077e+05 4.293851e+04        0
4.293851e+04 -2.744671e+05        0
       0        0        0

-1.240734e+06 1.305652e+05        0
1.305652e+05 -3.554740e+05        0
       0        0        0

-1.814375e+06 2.543707e+05        0
2.543707e+05 -4.141970e+05        0
       0        0        0

1.642070e+06 4.159748e+04        0
4.159748e+04 4.234799e+03        0
       0        0        0

1.322354e+06 1.206454e+05        0
1.206454e+05 1.286843e+05        0
       0        0        0

9.082521e+05 9.900755e+04        0
9.900755e+04 1.315191e+05        0
       0        0        0

5.364025e+05 7.580678e+04        0
7.580678e+04 9.193311e+04        0
       0        0        0

1.768172e+05 6.321707e+04        0
6.321707e+04 3.207757e+04        0
       0        0        0

-1.778550e+05 6.319873e+04        0
6.319873e+04 -3.316896e+04        0
       0        0        0

-5.369363e+05 7.574133e+04        0
7.574133e+04 -9.284490e+04        0
       0        0        0

-9.077061e+05 9.886737e+04        0
9.886737e+04 -1.320379e+05        0
       0        0        0

-1.319830e+06 1.204079e+05        0
1.204079e+05 -1.284324e+05        0
       0        0        0

-1.637466e+06 4.151082e+04        0
4.151082e+04 -3.136555e+03        0
       0        0        0

1.584953e+06 1.541639e+04        0
1.541639e+04 6.615316e+03        0
       0        0        0

1.271591e+06 6.833109e+04        0
6.833109e+04 1.757728e+04        0
       0        0        0

9.146413e+05 1.015639e+05        0
1.015639e+05 4.237686e+04        0
       0        0        0

5.430826e+05 1.074765e+05        0
1.074765e+05 3.592346e+04        0
       0        0        0

1.791459e+05 1.074054e+05        0
1.074054e+05 1.272037e+04        0
       0        0        0

-1.824790e+05 1.073775e+05        0
1.073775e+05 -1.611190e+04        0
       0        0        0

-5.458838e+05 1.073933e+05        0
1.073933e+05 -3.912503e+04        0
       0        0        0

-9.163117e+05 1.014348e+05        0
1.014348e+05 -4.515293e+04        0
       0        0        0

-1.271565e+06 6.821622e+04        0
6.821622e+04 -1.966893e+04        0
       0        0        0

-1.582978e+06 1.538448e+04        0
1.538448e+04 -7.911807e+03        0
       0        0        0

1.546129e+06 1.427370e+04        0
1.427370e+04 -3.975752e+03        0
       0        0        0

1.226683e+06 5.548208e+04        0
5.548208e+04 -1.953361e+03        0
       0        0        0

8.865538e+05 9.245024e+04        0
9.245024e+04 2.933168e+03        0
       0        0        0

5.331314e+05 1.146030e+05        0
1.146030e+05 5.877770e+03        0
       0        0        0

1.753740e+05 1.233579e+05        0
1.233579e+05 6.880625e+02        0
       0        0        0

-1.820438e+05 1.233283e+05        0
1.233283e+05 -7.415933e+03        0
       0        0        0

-5.392752e+05 1.145213e+05        0
1.145213e+05 -1.241206e+04        0
       0        0        0

-8.916350e+05 9.234262e+04        0
9.234262e+04 -9.058365e+03        0
       0        0        0

-1.230189e+06 5.539388e+04        0
5.539388e+04 -3.528931e+03        0
       0        0        0

-1.547532e+06 1.424568e+04        0
1.424568e+04 -5.504384e+02        0
       0        0        0

1.509427e+06 1.713063e+04        0
1.713063e+04 -5.567249e+03        0
       0        0        0

1.185340e+06 5.448733e+04        0
5.448733e+04 -8.577651e+03        0
       0        0        0

8.541561e+05 8.905469e+04        0
8.905469e+04 -8.329305e+03        0
       0        0        0

5.137340e+05 1.136408e+05        0
1.136408e+05 -6.745280e+03        0
       0        0        0

1.681056e+05 1.258450e+05        0
1.258450e+05 -5.639044e+03        0
       0        0        0

-1.789903e+05 1.258166e+05        0
1.258166e+05 -5.300819e+03        0
       0        0        0

-5.241237e+05 1.135646e+05        0
1.135646e+05 -4.010288e+03        0
       0        0        0

-8.635542e+05 8.895612e+04        0
8.895612e+04 -2.042812e+03        0
       0        0        0

-1.193244e+06 5.440409e+04        0
5.440409e+04 -1.179541e+03        0
       0        0        0

-1.515273e+06 1.709766e+04        0
1.709766e+04 -3.264824e+03        0
       0        0        0

1.469671e+06 1.958963e+04        0
1.958963e+04 -7.911531e+03        0
       0        0        0

1.147077e+06 5.644559e+04        0
5.644559e+04 -1.054799e+04        0
       0        0        0

8.224151e+05 8.838594e+04        0
8.838594e+04 -1.192774e+04        0
       0        0        0

4.928620e+05 1.117722e+05        0
1.117722e+05 -1.113898e+04        0
       0        0        0

1.594065e+05 1.239614e+05        0
1.239614e+05 -9.157848e+03        0
       0        0        0

-1.752704e+05 1.239347e+05        0
1.239347e+05 -6.757342e+03        0
       0        0        0

-5.082716e+05 1.117003e+05        0
1.117003e+05 -4.611022e+03        0
       0        0        0

-8.369138e+05 8.829171e+04        0
8.829171e+04 -3.479956e+03        0
       0        0        0

-1.160194e+06 5.636191e+04        0
5.636191e+04 -4.312364e+03        0
       0        0        0

-1.480879e+06 1.955284e+04        0
1.955284e+04 -6.139554e+03        0
       0        0        0

1.427069e+06 2.114429e+04        0
2.114429e+04 -1.052964e+04        0
       0        0        0

1.109854e+06 5.834958e+04        0
5.834958e+04 -1.236661e+04        0
       0        0        0

7.924051e+05 8.864128e+04        0
8.864128e+04 -1.362108e+04        0
       0        0        0

4.726277e+05 1.103428e+05        0
1.103428e+05 -1.337050e+04        0
       0        0        0

1.506199e+05 1.216735e+05        0
1.216735e+05 -1.181697e+04        0
       0        0        0

-1.721469e+05 1.216483e+05        0
1.216483e+05 -9.757740e+03        0
       0        0        0

-4.937482e+05 1.102742e+05        0
1.102742e+05 -8.067258e+03        0
       0        0        0

-8.127094e+05 8.854973e+04        0
8.854973e+04 -7.533908e+03        0
       0        0        0

-1.128918e+06 5.826553e+04        0
5.826553e+04 -8.339735e+03        0
       0        0        0

-1.444434e+06 2.110561e+04        0
2.110561e+04 -9.528609e+03        0
       0        0        0

1.382471e+06 2.200181e+04        0
2.200181e+04 -1.363722e+04        0
       0        0        0

1.072891e+06 5.961398e+04        0
5.961398e+04 -1.472183e+04        0
       0        0        0

7.635785e+05 8.901007e+04        0
8.901007e+04 -1.557414e+04        0
       0        0        0

4.533125e+05 1.094858e+05        0
1.094858e+05 -1.552412e+04        0
       0        0        0

1.419522e+05 1.200358e+05        0
1.200358e+05 -1.458784e+04        0
       0        0        0

-1.697603e+05 1.200117e+05        0
1.200117e+05 -1.326479e+04        0
       0        0        0

-4.807667e+05 1.094198e+05        0
1.094198e+05 -1.222641e+04        0
       0        0        0

-7.903212e+05 8.892090e+04        0
8.892090e+04 -1.196593e+04        0
       0        0        0

-1.098554e+06 5.953060e+04        0
5.953060e+04 -1.248635e+04        0
       0        0        0

-1.406666e+06 2.196271e+04        0
2.196271e+04 -1.309846e+04        0
       0        0        0

1.336650e+06 2.243103e+04        0
2.243103e+04 -1.712975e+04        0
       0        0        0

1.035846e+06 6.032508e+04        0
6.032508e+04 -1.770734e+04        0
       0        0        0

7.353690e+05 8.928001e+04        0
8.928001e+04 -1.819357e+04        0
       0        0        0

4.345842e+05 1.090314e+05        0
1.090314e+05 -1.820574e+04        0
       0        0        0

1.333510e+05 1.190751e+05        0
1.190751e+05 -1.770719e+04        0
       0        0        0

-1.679948e+05 1.190519e+05        0
1.190519e+05 -1.697818e+04        0
       0        0        0

-4.689286e+05 1.089678e+05        0
1.089678e+05 -1.641605e+04        0
       0        0        0

-7.691116e+05 8.919329e+04        0
8.919329e+04 -1.629667e+04        0
       0        0        0

-1.068676e+06 6.024325e+04        0
6.024325e+04 -1.657480e+04        0
       0        0        0

-1.368246e+06 2.239236e+04        0
2.239236e+04 -1.685617e+04        0
       0        0        0

1.290108e+06 2.262769e+04        0
2.262769e+04 -2.093370e+04        0
       0        0        0

9.986145e+05 6.068320e+04        0
6.068320e+04 -2.119241e+04        0
       0        0        0

7.073840e+05 8.943847e+04        0
8.943847e+04 -2.142407e+04        0
       0        0        0

4.161153e+05 1.088122e+05        0
1.088122e+05 -2.143279e+04        0
       0        0        0

1.247137e+05 1.185759e+05        0
1.185759e+05 -2.118594e+04        0
       0        0        0

-1.666835e+05 1.185536e+05        0
1.185536e+05 -2.082274e+04        0
       0        0        0

-4.578408e+05 1.087507e+05        0
1.087507e+05 -2.055219e+04        0
       0        0        0

-7.486181e+05 8.935433e+04        0
8.935433e+04 -2.051028e+04        0
       0        0        0

-1.039104e+06 6.060345e+04        0
6.060345e+04 -2.065826e+04        0
       0        0        0

-1.329592e+06 2.258991e+04        0
2.258991e+04 -2.079207e+04        0
       0        0        0

1.243138e+06 2.270943e+04        0
2.270943e+04 -2.498210e+04        0
       0        0        0

9.611829e+05 6.084707e+04        0
6.084707e+04 -2.504187e+04        0
       0        0        0

6.794119e+05 8.952007e+04        0
8.952007e+04 -2.510676e+04        0
       0        0        0

3.976942e+05 1.087151e+05        0
1.087151e+05 -2.508705e+04        0
       0        0        0

1.159751e+05 1.183403e+05        0
1.183403e+05 -2.496213e+04        0
       0        0        0

-1.656966e+05 1.183187e+05        0
1.183187e+05 -2.479576e+04        0
       0        0        0

-4.472257e+05 1.086557e+05        0
1.086557e+05 -2.468699e+04        0
       0        0        0

-7.285608e+05 8.943859e+04        0
8.943859e+04 -2.469694e+04        0
       0        0        0

-1.009752e+06 6.076971e+04        0
6.076971e+04 -2.480000e+04        0
       0        0        0

-1.290922e+06 2.267274e+04        0
2.267274e+04 -2.489961e+04        0
       0        0        0

1.195902e+06 2.273919e+04        0
2.273919e+04 -2.922324e+04        0
       0        0        0

9.235708e+05 6.091458e+04        0
6.091458e+04 -2.915047e+04        0
       0        0        0

6.513590e+05 8.955767e+04        0
8.955767e+04 -2.910387e+04        0
       0        0        0

3.792147e+05 1.086759e+05        0
1.086759e+05 -2.904718e+04        0
       0        0        0

1.071092e+05 1.182389e+05        0
1.182389e+05 -2.896999e+04        0
       0        0        0

-1.649443e+05 1.182180e+05        0
1.182180e+05 -2.889900e+04        0
       0        0        0

-4.369126e+05 1.086185e+05        0
1.086185e+05 -2.887696e+04        0
       0        0        0

-7.087800e+05 8.947891e+04        0
8.947891e+04 -2.892824e+04        0
       0        0        0

-9.805709e+05 6.083975e+04        0
6.083975e+04 -2.903784e+04        0
       0        0        0

-1.252330e+06 2.270369e+04        0
2.270369e+04 -2.916302e+04        0
       0        0        0

1.148491e+06 2.274763e+04        0
2.274763e+04 -3.361527e+04        0
       0        0        0

8.858087e+05 6.093851e+04        0
6.093851e+04 -3.344415e+04        0
       0        0        0

6.231974e+05 8.957284e+04        0
8.957284e+04 -3.331675e+04        0
       0        0        0

3.606384e+05 1.086618e+05        0
1.086618e+05 -3.322145e+04        0
       0        0        0

9.811734e+04 1.181997e+05        0
1.181997e+05 -3.315416e+04        0
       0        0        0

-1.643651e+05 1.181796e+05        0
1.181796e+05 -3.312513e+04        0
       0        0        0

-4.268000e+05 1.086064e+05        0
1.086064e+05 -3.315081e+04        0
       0        0        0

-6.891844e+05 8.949683e+04        0
8.949683e+04 -3.323922e+04        0
       0        0        0

-9.515284e+05 6.086627e+04        0
6.086627e+04 -3.338182e+04        0
       0        0        0

-1.213844e+06 2.271337e+04        0
2.271337e+04 -3.356049e+04        0
       0        0        0

1.100960e+06 2.274841e+04        0
2.274841e+04 -3.812278e+04        0
       0        0        0

8.479289e+05 6.094459e+04        0
6.094459e+04 -3.787019e+04        0
       0        0        0

5.949322e+05 8.957762e+04        0
8.957762e+04 -3.767803e+04        0
       0        0        0

3.419635e+05 1.086573e+05        0
1.086573e+05 -3.754494e+04        0
       0        0        0

8.901558e+04 1.181867e+05        0
1.181867e+05 -3.747027e+04        0
       0        0        0

-1.639142e+05 1.181674e+05        0
1.181674e+05 -3.745768e+04        0
       0        0        0

-4.168253e+05 1.086039e+05        0
1.086039e+05 -3.751247e+04        0
       0        0        0

-6.697180e+05 8.950436e+04        0
8.950436e+04 -3.763608e+04        0
       0        0        0

-9.225952e+05 6.087498e+04        0
6.087498e+04 -3.782343e+04        0
       0        0        0

-1.175457e+06 2.271539e+04        0
2.271539e+04 -3.806658e+04        0
       0        0        0

1.053347e+06 2.274703e+04        0
2.274703e+04 -4.271420e+04        0
       0        0        0

8.099626e+05 6.094429e+04        0
6.094429e+04 -4.238866e+04        0
       0        0        0

5.665832e+05 8.957803e+04        0
8.957803e+04 -4.214000e+04        0
       0        0        0

3.232060e+05 1.086559e+05        0
1.086559e+05 -4.197068e+04        0
       0        0        0

7.982720e+04 1.181835e+05        0
1.181835e+05 -4.188171e+04        0
       0        0        0

-1.635563e+05 1.181649e+05        0
1.181649e+05 -4.187447e+04        0
       0        0        0

-4.069457e+05 1.086046e+05        0
1.086046e+05 -4.195008e+04        0
       0        0        0

-6.503417e+05 8.950753e+04        0
8.950753e+04 -4.210767e+04        0
       0        0        0

-8.937438e+05 6.087730e+04        0
6.087730e+04 -4.234382e+04        0
       0        0        0

-1.137148e+06 2.271526e+04        0
2.271526e+04 -4.265429e+04        0
       0        0        0

1.005683e+06 2.274539e+04        0
2.274539e+04 -4.736038e+04        0
       0        0        0

7.719394e+05 6.094219e+04        0
6.094219e+04 -4.696667e+04        0
       0        0        0

5.381756e+05 8.957681e+04        0
8.957681e+04 -4.666608e+04        0
       0        0        0

3.043894e+05 1.086553e+05        0
1.086553e+05 -4.646218e+04        0
       0        0        0

7.057816e+04 1.181832e+05        0
1.181832e+05 -4.635676e+04        0
       0        0        0

-1.632605e+05 1.181653e+05        0
1.181653e+05 -4.635058e+04        0
       0        0        0

-3.971278e+05 1.086060e+05        0
1.086060e+05 -4.644347e+04        0
       0        0        0

-6.310240e+05 8.950907e+04        0
8.950907e+04 -4.663394e+04        0
       0        0        0

-8.649473e+05 6.087783e+04        0
6.087783e+04 -4.691929e+04        0
       0        0        0

-1.098893e+06 2.271487e+04        0
2.271487e+04 -4.729637e+04        0
       0        0        0

9.579955e+05 2.274400e+04        0
2.274400e+04 -5.203381e+04        0
       0        0        0

7.338873e+05 6.093989e+04        0
6.093989e+04 -5.157525e+04        0
       0        0        0

5.097360e+05 8.957508e+04        0
8.957508e+04 -5.122566e+04        0
       0        0        0

2.855393e+05 1.086546e+05        0
1.086546e+05 -5.098880e+04        0
       0        0        0

6.129495e+04 1.181835e+05        0
1.181835e+05 -5.086675e+04        0
       0        0        0

-1.629989e+05 1.181663e+05        0
1.181663e+05 -5.086025e+04        0
       0        0        0

-3.873432e+05 1.086073e+05        0
1.086073e+05 -5.096887e+04        0
       0        0        0

-6.117373e+05 8.951011e+04        0
8.951011e+04 -5.119108e+04        0
       0        0        0

-8.361791e+05 6.087815e+04        0
6.087815e+04 -5.152449e+04        0
       0        0        0

-1.060664e+06 2.271473e+04        0
2.271473e+04 -5.196605e+04        0
       0        0        0

9.103102e+05 2.274290e+04        0
2.274290e+04 -5.670829e+04        0
       0        0        0

6.958326e+05 6.093780e+04        0
6.093780e+04 -5.618768e+04        0
       0        0        0

4.812907e+05 8.957328e+04        0
8.957328e+04 -5.579141e+04        0
       0        0        0

2.666817e+05 1.086537e+05        0
1.086537e+05 -5.552312e+04        0
       0        0        0

5.200354e+04 1.181835e+05        0
1.181835e+05 -5.538500e+04        0
       0        0        0

-1.627453e+05 1.181671e+05        0
1.181671e+05 -5.537790e+04        0
       0        0        0

-3.775653e+05 1.086084e+05        0
1.086084e+05 -5.550144e+04        0
       0        0        0

-5.924555e+05 8.951107e+04        0
8.951107e+04 -5.575422e+04        0
       0        0        0

-8.074137e+05 6.087870e+04        0
6.087870e+04 -5.613390e+04        0
       0        0        0

-1.022436e+06 2.271486e+04        0
2.271486e+04 -5.663735e+04        0
       0        0        0

8.626520e+05 2.274198e+04        0
2.274198e+04 -6.135878e+04        0
       0        0        0

6.578008e+05 6.093596e+04        0
6.093596e+04 -6.077882e+04        0
       0        0        0

4.528650e+05 8.957150e+04        0
8.957150e+04 -6.033795e+04        0
       0        0        0

2.478418e+05 1.086526e+05        0
1.086526e+05 -6.003971e+04        0
       0        0        0

4.272898e+04 1.181833e+05        0
1.181833e+05 -5.988630e+04        0
       0        0        0

-1.624747e+05 1.181676e+05        0
1.181676e+05 -5.987867e+04        0
       0        0        0

-3.677693e+05 1.086093e+05        0
1.086093e+05 -6.001656e+04        0
       0        0        0

-5.731539e+05 8.951206e+04        0
8.951206e+04 -6.029866e+04        0
       0        0        0

-7.786261e+05 6.087948e+04        0
6.087948e+04 -6.072266e+04        0
       0        0        0

-9.841819e+05 2.271520e+04        0
2.271520e+04 -6.128530e+04        0
       0        0        0

8.150447e+05 2.274119e+04        0
2.274119e+04 -6.596136e+04        0
       0        0        0

6.198157e+05 6.093429e+04        0
6.093429e+04 -6.532473e+04        0
       0        0        0

4.244830e+05 8.956978e+04        0
8.956978e+04 -6.484132e+04        0
       0        0        0

2.290436e+05 1.086514e+05        0
1.086514e+05 -6.451456e+04        0
       0        0        0

3.349528e+04 1.181828e+05        0
1.181828e+05 -6.434667e+04        0
       0        0        0

-1.621631e+05 1.181678e+05        0
1.181678e+05 -6.433865e+04        0
       0        0        0

-3.579315e+05 1.086101e+05        0
1.086101e+05 -6.449035e+04        0
       0        0        0

-5.538087e+05 8.951311e+04        0
8.951311e+04 -6.480052e+04        0
       0        0        0

-7.497925e+05 6.088043e+04        0
6.088043e+04 -6.526685e+04        0
       0        0        0

-9.458791e+05 2.271565e+04        0
2.271565e+04 -6.588596e+04        0
       0        0        0

7.675109e+05 2.274046e+04        0
2.274046e+04 -7.049318e+04        0
       0        0        0

5.819002e+05 6.093273e+04        0
6.093273e+04 -6.980260e+04        0
       0        0        0

3.961677e+05 8.956811e+04        0
8.956811e+04 -6.927870e+04        0
       0        0        0

2.103102e+05 1.086501e+05        0
1.086501e+05 -6.892486e+04        0
       0        0        0

2.432535e+04 1.181822e+05        0
1.181822e+05 -6.874327e+04        0
       0        0        0

-1.617877e+05 1.181679e+05        0
1.181679e+05 -6.873499e+04        0
       0        0        0

-3.480290e+05 1.086108e+05        0
1.086108e+05 -6.889993e+04        0
       0        0        0

-5.343973e+05 8.951420e+04        0
8.951420e+04 -6.923690e+04        0
       0        0        0

-7.208901e+05 6.088150e+04        0
6.088150e+04 -6.974356e+04        0
       0        0        0

-9.075041e+05 2.271617e+04        0
2.271617e+04 -7.041649e+04        0
       0        0        0

7.200723e+05 2.273978e+04        0
2.273978e+04 -7.493249e+04        0
       0        0        0

5.440762e+05 6.093125e+04        0
6.093125e+04 -7.419071e+04        0
       0        0        0

3.679410e+05 8.956648e+04        0
8.956648e+04 -7.362841e+04        0
       0        0        0

1.916633e+05 1.086488e+05        0
1.086488e+05 -7.324889e+04        0
       0        0        0

1.524098e+04 1.181815e+05        0
1.181815e+05 -7.305436e+04        0
       0        0        0

-1.613270e+05 1.181679e+05        0
1.181679e+05 -7.304590e+04        0
       0        0        0

-3.380404e+05 1.086115e+05        0
1.086115e+05 -7.322349e+04        0
       0        0        0

-5.148979e+05 8.951533e+04        0
8.951533e+04 -7.358598e+04        0
       0        0        0

-6.918973e+05 6.088265e+04        0
6.088265e+04 -7.413101e+04        0
       0        0        0

-8.690350e+05 2.271673e+04        0
2.271673e+04 -7.485511e+04        0
       0        0        0

6.727496e+05 2.273915e+04        0
2.273915e+04 -7.925863e+04        0
       0        0        0

5.063643e+05 6.092987e+04        0
6.092987e+04 -7.846843e+04        0
       0        0        0

3.398235e+05 8.956489e+04        0
8.956489e+04 -7.786983e+04        0
       0        0        0

1.731238e+05 1.086474e+05        0
1.086474e+05 -7.746605e+04        0
       0        0        0

6.262879e+03 1.181806e+05        0
1.181806e+05 -7.725929e+04        0
       0        0        0

-1.607601e+05 1.181679e+05        0
1.181679e+05 -7.725069e+04        0
       0        0        0

-3.279448e+05 1.086121e+05        0
1.086121e+05 -7.744030e+04        0
       0        0        0

-4.952900e+05 8.951651e+04        0
8.951651e+04 -7.782701e+04        0
       0        0        0

-6.627933e+05 6.088389e+04        0
6.088389e+04 -7.840849e+04        0
       0        0        0

-8.304513e+05 2.271735e+04        0
2.271735e+04 -7.918115e+04        0
       0        0        0

6.255623e+05 2.273859e+04        0
2.273859e+04 -8.345202e+04        0
       0        0        0

4.687842e+05 6.092860e+04        0
6.092860e+04 -8.261621e+04        0
       0        0        0

3.118350e+05 8.956335e+04        0
8.956335e+04 -8.198342e+04        0
       0        0        0

1.547113e+05 1.086460e+05        0
1.086460e+05 -8.155678e+04        0
       0        0        0

-2.589332e+03 1.181797e+05        0
1.181797e+05 -8.133849e+04        0
       0        0        0

-1.600676e+05 1.181676e+05        0
1.181676e+05 -8.132976e+04        0
       0        0        0

-3.177230e+05 1.086127e+05        0
1.086127e+05 -8.153073e+04        0
       0        0        0

-4.755540e+05 8.951773e+04        0
8.951773e+04 -8.194037e+04        0
       0        0        0

-6.335585e+05 6.088526e+04        0
6.088526e+04 -8.255636e+04        0
       0        0        0

-7.917331e+05 2.271804e+04        0
2.271804e+04 -8.337502e+04        0
       0        0        0

5.785286e+05 2.273817e+04        0
2.273817e+04 -8.749418e+04        0
       0        0        0

4.313542e+05 6.092752e+04        0
6.092752e+04 -8.661559e+04        0
       0        0        0

2.839942e+05 8.956185e+04        0
8.956185e+04 -8.595072e+04        0
       0        0        0

1.364444e+05 1.086444e+05        0
1.086444e+05 -8.550260e+04        0
       0        0        0

-1.129712e+04 1.181785e+05        0
1.181785e+05 -8.527347e+04        0
       0        0        0

-1.592310e+05 1.181672e+05        0
1.181672e+05 -8.526462e+04        0
       0        0        0

-3.073564e+05 1.086132e+05        0
1.086132e+05 -8.547630e+04        0
       0        0        0

-4.556717e+05 8.951900e+04        0
8.951900e+04 -8.590754e+04        0
       0        0        0

-6.041745e+05 6.088680e+04        0
6.088680e+04 -8.655609e+04        0
       0        0        0

-7.528619e+05 2.271886e+04        0
2.271886e+04 -8.741819e+04        0
       0        0        0

5.316658e+05 2.273795e+04        0
2.273795e+04 -9.136769e+04        0
       0        0        0

3.940921e+05 6.092663e+04        0
6.092663e+04 -9.044910e+04        0
       0        0        0

2.563184e+05 8.956035e+04        0
8.956035e+04 -8.975416e+04        0
       0        0        0

1.183407e+05 1.086427e+05        0
1.086427e+05 -8.928591e+04        0
       0        0        0

-1.984304e+04 1.181771e+05        0
1.181771e+05 -8.904673e+04        0
       0        0        0

-1.582329e+05 1.181665e+05        0
1.181665e+05 -8.903797e+04        0
       0        0        0

-2.968278e+05 1.086135e+05        0
1.086135e+05 -8.925978e+04        0
       0        0        0

-4.356257e+05 8.952026e+04        0
8.952026e+04 -8.971126e+04        0
       0        0        0

-5.746240e+05 6.088854e+04        0
6.088854e+04 -9.039032e+04        0
       0        0        0

-7.138200e+05 2.271989e+04        0
2.271989e+04 -9.129325e+04        0
       0        0        0

4.849900e+05 2.273796e+04        0
2.273796e+04 -9.505616e+04        0
       0        0        0

3.570143e+05 6.092577e+04        0
6.092577e+04 -9.410011e+04        0
       0        0        0

2.288244e+05 8.955862e+04        0
8.955862e+04 -9.337680e+04        0
       0        0        0

1.004164e+05 1.086409e+05        0
1.086409e+05 -9.288973e+04        0
       0        0        0

-2.821084e+04 1.181759e+05        0
1.181759e+05 -9.264170e+04        0
       0        0        0

-1.570570e+05 1.181660e+05        0
1.181660e+05 -9.263378e+04        0
       0        0        0

-2.861209e+05 1.086137e+05        0
1.086137e+05 -9.286554e+04        0
       0        0        0

-4.153999e+05 8.952130e+04        0
8.952130e+04 -9.333582e+04        0
       0        0        0

-5.448908e+05 6.089031e+04        0
6.089031e+04 -9.404299e+04        0
       0        0        0

-6.745908e+05 2.272114e+04        0
2.272114e+04 -9.498387e+04        0
       0        0        0

4.385165e+05 2.273798e+04        0
2.273798e+04 -9.854412e+04        0
       0        0        0

3.201365e+05 6.092413e+04        0
6.092413e+04 -9.755241e+04        0
       0        0        0

2.015270e+05 8.955604e+04        0
8.955604e+04 -9.680154e+04        0
       0        0        0

8.268605e+04 1.086393e+05        0
1.086393e+05 -9.629692e+04        0
       0        0        0

-3.638570e+04 1.181760e+05        0
1.181760e+05 -9.604233e+04        0
       0        0        0

-1.556878e+05 1.181669e+05        0
1.181669e+05 -9.603768e+04        0
       0        0        0

-2.752197e+05 1.086142e+05        0
1.086142e+05 -9.628030e+04        0
       0        0        0

-3.949789e+05 8.952148e+04        0
8.952148e+04 -9.676788e+04        0
       0        0        0

-5.149601e+05 6.089129e+04        0
6.089129e+04 -9.749979e+04        0
       0        0        0

-6.351590e+05 2.272241e+04        0
2.272241e+04 -9.847493e+04        0
       0        0        0

3.922608e+05 2.273705e+04        0
2.273705e+04 -1.018168e+05        0
       0        0        0

2.834737e+05 6.091918e+04        0
6.091918e+04 -1.007892e+05        0
       0        0        0

1.744389e+05 8.955103e+04        0
8.955103e+04 -1.000095e+05        0
       0        0        0

6.516112e+04 1.086394e+05        0
1.086394e+05 -9.948864e+04        0
       0        0        0

-4.435479e+04 1.181814e+05        0
1.181814e+05 -9.923256e+04        0
       0        0        0

-1.541098e+05 1.181730e+05        0
1.181730e+05 -9.923756e+04        0
       0        0        0

-2.641076e+05 1.086162e+05        0
1.086162e+05 -9.949471e+04        0
       0        0        0

-3.743470e+05 8.951924e+04        0
8.951924e+04 -9.999807e+04        0
       0        0        0

-4.848186e+05 6.088897e+04        0
6.088897e+04 -1.007491e+05        0
       0        0        0

-5.955116e+05 2.272272e+04        0
2.272272e+04 -1.017526e+05        0
       0        0        0

3.462408e+05 2.273213e+04        0
2.273213e+04 -1.048596e+05        0
       0        0        0

2.470402e+05 6.090435e+04        0
6.090435e+04 -1.037913e+05        0
       0        0        0

1.475679e+05 8.953998e+04        0
8.953998e+04 -1.029768e+05        0
       0        0        0

4.784706e+04 1.086446e+05        0
1.086446e+05 -1.024414e+05        0
       0        0        0

-5.210859e+04 1.182015e+05        0
1.182015e+05 -1.021950e+05        0
       0        0        0

-1.523066e+05 1.181938e+05        0
1.181938e+05 -1.022248e+05        0
       0        0        0

-2.527641e+05 1.086235e+05        0
1.086235e+05 -1.025064e+05        0
       0        0        0

-3.534861e+05 8.951095e+04        0
8.951095e+04 -1.030243e+05        0
       0        0        0

-4.544544e+05 6.087677e+04        0
6.087677e+04 -1.037842e+05        0
       0        0        0

-5.556397e+05 2.271905e+04        0
2.271905e+04 -1.048050e+05        0
       0        0        0

3.004822e+05 2.271539e+04        0
2.271539e+04 -1.076574e+05        0
       0        0        0

2.108493e+05 6.086437e+04        0
6.086437e+04 -1.065333e+05        0
       0        0        0

1.209111e+05 8.951546e+04        0
8.951546e+04 -1.056691e+05        0
       0        0        0

3.073692e+04 1.086641e+05        0
1.086641e+05 -1.051219e+05        0
       0        0        0

-5.964355e+04 1.182578e+05        0
1.182578e+05 -1.049091e+05        0
       0        0        0

-1.502580e+05 1.182508e+05        0
1.182508e+05 -1.049962e+05        0
       0        0        0

-2.411586e+05 1.086450e+05        0
1.086450e+05 -1.053249e+05        0
       0        0        0

-3.323700e+05 8.948920e+04        0
8.948920e+04 -1.058577e+05        0
       0        0        0

-4.238570e+05 6.083943e+04        0
6.083943e+04 -1.066065e+05        0
       0        0        0

-5.155448e+05 2.270357e+04        0
2.270357e+04 -1.076228e+05        0
       0        0        0

2.550302e+05 2.266861e+04        0
2.266861e+04 -1.101928e+05        0
       0        0        0

1.749112e+05 6.076689e+04        0
6.076689e+04 -1.089786e+05        0
       0        0        0

9.444394e+04 8.946363e+04        0
8.946363e+04 -1.080332e+05        0
       0        0        0

1.379929e+04 1.087177e+05        0
1.087177e+05 -1.074804e+05        0
       0        0        0

-6.696699e+04 1.183950e+05        0
1.183950e+05 -1.073481e+05        0
       0        0        0

-1.479345e+05 1.183887e+05        0
1.183887e+05 -1.075565e+05        0
       0        0        0

-2.292386e+05 1.087005e+05        0
1.087005e+05 -1.079789e+05        0
       0        0        0

-3.109536e+05 8.944014e+04        0
8.944014e+04 -1.085307e+05        0
       0        0        0

-3.930164e+05 6.074460e+04        0
6.074460e+04 -1.092323e+05        0
       0        0        0

-4.752498e+05 2.265805e+04        0
2.265805e+04 -1.102010e+05        0
       0        0        0

2.099707e+05 2.255312e+04        0
2.255312e+04 -1.124452e+05        0
       0        0        0

1.392276e+05 6.054966e+04        0
6.054966e+04 -1.110720e+05        0
       0        0        0

6.809783e+04 8.936201e+04        0
8.936201e+04 -1.099896e+05        0
       0        0        0

-3.042201e+03 1.088455e+05        0
1.088455e+05 -1.094456e+05        0
       0        0        0

-7.410476e+04 1.186961e+05        0
1.186961e+05 -1.094775e+05        0
       0        0        0

-1.452897e+05 1.186906e+05        0
1.186906e+05 -1.099193e+05        0
       0        0        0

-2.169085e+05 1.088304e+05        0
1.088304e+05 -1.105207e+05        0
       0        0        0

-2.891518e+05 8.934130e+04        0
8.934130e+04 -1.111065e+05        0
       0        0        0

-3.619182e+05 6.053005e+04        0
6.053005e+04 -1.117009e+05        0
       0        0        0

-4.348222e+05 2.254384e+04        0
2.254384e+04 -1.125421e+05        0
       0        0        0

1.654676e+05 2.229389e+04        0
2.229389e+04 -1.143894e+05        0
       0        0        0

1.037757e+05 6.010633e+04        0
6.010633e+04 -1.127378e+05        0
       0        0        0

4.172434e+04 8.918285e+04        0
8.918285e+04 -1.114369e+05        0
       0        0        0

-1.993674e+04 1.091211e+05        0
1.091211e+05 -1.109352e+05        0
       0        0        0

-8.111029e+04 1.192969e+05        0
1.192969e+05 -1.112604e+05        0
       0        0        0

-1.422485e+05 1.192922e+05        0
1.192922e+05 -1.121001e+05        0
       0        0        0

-2.040019e+05 1.091080e+05        0
1.091080e+05 -1.130150e+05        0
       0        0        0

-2.668047e+05 8.916493e+04        0
8.916493e+04 -1.136749e+05        0
       0        0        0

-3.305323e+05 6.008944e+04        0
6.008944e+04 -1.140806e+05        0
       0        0        0

-3.944153e+05 2.228592e+04        0
2.228592e+04 -1.146607e+05        0
       0        0        0

1.218143e+05 2.175987e+04        0
2.175987e+04 -1.160001e+05        0
       0        0        0

6.846991e+04 5.928775e+04        0
5.928775e+04 -1.139016e+05        0
       0        0        0

1.504776e+04 8.891653e+04        0
8.891653e+04 -1.123083e+05        0
       0        0        0

-3.712658e+04 1.096611e+05        0
1.096611e+05 -1.119237e+05        0
       0        0        0

-8.806576e+04 1.203706e+05        0
1.203706e+05 -1.126850e+05        0
       0        0        0

-1.387020e+05 1.203666e+05        0
1.203666e+05 -1.140839e+05        0
       0        0        0

-1.902583e+05 1.096500e+05        0
1.096500e+05 -1.154691e+05        0
       0        0        0

-2.436324e+05 8.890144e+04        0
8.890144e+04 -1.162985e+05        0
       0        0        0

-2.987810e+05 5.927361e+04        0
5.927361e+04 -1.164537e+05        0
       0        0        0

-3.543298e+05 2.175326e+04        0
2.175326e+04 -1.165894e+05        0
       0        0        0

7.947515e+04 2.075678e+04        0
2.075678e+04 -1.172821e+05        0
       0        0        0

3.307865e+04 5.797447e+04        0
5.797447e+04 -1.145899e+05        0
       0        0        0

-1.236393e+04 8.865059e+04        0
8.865059e+04 -1.127886e+05        0
       0        0        0

-5.490063e+04 1.106013e+05        0
1.106013e+05 -1.126577e+05        0
       0        0        0

-9.504947e+04 1.220074e+05        0
1.220074e+05 -1.138552e+05        0
       0        0        0

-1.345317e+05 1.220041e+05        0
1.220041e+05 -1.157267e+05        0
       0        0        0

-1.753639e+05 1.105923e+05        0
1.105923e+05 -1.176118e+05        0
       0        0        0

-2.192067e+05 8.863840e+04        0
8.863840e+04 -1.187962e+05        0
       0        0        0

-2.664683e+05 5.796312e+04        0
5.796312e+04 -1.188293e+05        0
       0        0        0

-3.150782e+05 2.075156e+04        0
2.075156e+04 -1.183719e+05        0
       0        0        0

3.901604e+04 1.910250e+04        0
1.910250e+04 -1.183311e+05        0
       0        0        0

-2.945801e+03 5.638064e+04        0
5.638064e+04 -1.153385e+05        0
       0        0        0

-4.097162e+04 8.874194e+04        0
8.874194e+04 -1.139163e+05        0
       0        0        0

-7.334316e+04 1.119428e+05        0
1.119428e+05 -1.141993e+05        0
       0        0        0

-1.020044e+05 1.238170e+05        0
1.238170e+05 -1.151847e+05        0
       0        0        0

-1.297257e+05 1.238146e+05        0
1.238146e+05 -1.165458e+05        0
       0        0        0

-1.591896e+05 1.119363e+05        0
1.119363e+05 -1.183359e+05        0
       0        0        0

-1.930733e+05 8.873286e+04        0
8.873286e+04 -1.201362e+05        0
       0        0        0

-2.331278e+05 5.637209e+04        0
5.637209e+04 -1.207525e+05        0
       0        0        0

-2.773664e+05 1.909865e+04        0
1.909865e+04 -1.200521e+05        0
       0        0        0

5.231885e+02 1.710271e+04        0
1.710271e+04 -1.199683e+05        0
       0        0        0

-4.055900e+04 5.592265e+04        0
5.592265e+04 -1.183223e+05        0
       0        0        0

-7.064224e+04 9.001307e+04        0
9.001307e+04 -1.192608e+05        0
       0        0        0

-9.160225e+04 1.128998e+05        0
1.128998e+05 -1.193451e+05        0
       0        0        0

-1.084793e+05 1.240404e+05        0
1.240404e+05 -1.176209e+05        0
       0        0        0

-1.246149e+05 1.240392e+05        0
1.240392e+05 -1.154734e+05        0
       0        0        0

-1.424954e+05 1.128964e+05        0
1.128964e+05 -1.147534e+05        0
       0        0        0

-1.653497e+05 9.000769e+04        0
9.000769e+04 -1.167341e+05        0
       0        0        0

-1.979384e+05 5.591692e+04        0
5.591692e+04 -1.201833e+05        0
       0        0        0

-2.416132e+05 1.710010e+04        0
1.710010e+04 -1.211410e+05        0
       0        0        0

-3.838756e+04 1.780089e+04        0
1.780089e+04 -1.241547e+05        0
       0        0        0

-8.056431e+04 6.133461e+04        0
6.133461e+04 -1.329179e+05        0
       0        0        0

-9.823377e+04 9.241439e+04        0
9.241439e+04 -1.376493e+05        0
       0        0        0

-1.069299e+05 1.101518e+05        0
1.101518e+05 -1.330247e+05        0
       0        0        0

-1.134903e+05 1.182691e+05        0
1.182691e+05 -1.226657e+05        0
       0        0        0

-1.199857e+05 1.182695e+05        0
1.182695e+05 -1.108102e+05        0
       0        0        0

-1.278480e+05 1.101525e+05        0
1.101525e+05 -1.017531e+05        0
       0        0        0

-1.390687e+05 9.241419e+04        0
9.241419e+04 -9.965328e+04        0
       0        0        0

-1.602170e+05 6.133242e+04        0
6.133242e+04 -1.078653e+05        0
       0        0        0

-2.060740e+05 1.779909e+04        0
1.779909e+04 -1.203165e+05        0
       0        0        0

-9.041227e+04 4.054631e+04        0
4.054631e+04 -1.562833e+05        0
       0        0        0

-1.138421e+05 7.593486e+04        0
7.593486e+04 -1.858539e+05        0
       0        0        0

-1.150718e+05 8.920336e+04        0
8.920336e+04 -1.817339e+05        0
       0        0        0

-1.153875e+05 9.571255e+04        0
9.571255e+04 -1.608397e+05        0
       0        0        0

-1.157489e+05 9.856239e+04        0
9.856239e+04 -1.317915e+05        0
       0        0        0

-1.168366e+05 9.856429e+04        0
9.856429e+04 -1.007937e+05        0
       0        0        0

-1.188659e+05 9.571771e+04        0
9.571771e+04 -7.341100e+04        0
       0        0        0

-1.225609e+05 8.921016e+04        0
8.921016e+04 -5.589328e+04        0
       0        0        0

-1.289065e+05 7.594047e+04        0
7.594047e+04 -5.688864e+04        0
       0        0        0

-1.586523e+05 4.054609e+04        0
4.054609e+04 -9.278138e+04        0
       0        0        0

POINT_DATA     451
VECTORS DISPLACEMENT_7.400000e-01 double
0.000000e+00    0.000000e+00    0.000000e+00
0.000000e+00    0.000000e+00    0.000000e+00
0.000000e+00    0.000000e+00    0.000000e+00
0.000000e+00    0.000000e+00    0.000000e+00
0.000000e+00    0.000000e+00    0.000000e+00
0.000000e+00    0.000000e+00    0.000000e+00
0.000000e+00    0.000000e+00    0.000000e+00
0.000000e+00    0.000000e+00    0.000000e+00
0.000000e+00    0.000000e+00    0.000000e+00
0.000000e+00    0.000000e+00    0.000000e+00
0.000000e+00    0.000000e+00    0.000000e+00
-1.141595e-06    -8.299605e-07    0.000000e+00
-7.233448e-07    -4.163094e-07    0.000000e+00
-5.161144e-07    -2.157261e-07    0.000000e+00
-3.332233e-07    -1.068318e-07    0.000000e+00
-1.642863e-07    -5.047426e-08    0.000000e+00
-3.546815e-20    -3.295145e-08    0.000000e+00
1.642863e-07    -5.047426e-08    0.000000e+00
3.332233e-07    -1.068318e-07    0.000000e+00
5.161144e-07    -2.157261e-07    0.000000e+00
7.233448e-07    -4.163094e-07    0.000000e+00
1.141595e-06    -8.299605e-07    0.000000e+00
-2.153941e-06    -1.380309e-06    0.000000e+00
-1.574436e-06    -9.987668e-07    0.000000e+00
-1.105093e-06    -7.015532e-07    0.000000e+00
-7.128292e-07    -5.177059e-07    0.000000e+00
-3.501023e-07    -4.175298e-07    0.000000e+00
-7.499385e-20    -3.857102e-07    0.000000e+00
3.501023e-07    -4.175298e-07    0.000000e+00
7.128292e-07    -5.177059e-07    0.000000e+00
1.105093e-06    -7.015532e-07    0.000000e+00
1.574436e-06    -9.987668e-07    0.000000e+00
2.153941e-06    -1.380309e-06    0.000000e+00
-3.132427e-06    -2.064634e-06    0.000000e+00
-2.394168e-06    -1.682257e-06    0.000000e+00
-1.722702e-06    -1.380761e-06    0.000000e+00
-1.115240e-06    -1.168096e-06    0.000000e+00
-5.487489e-07    -1.045521e-06    0.000000e+00
-1.182306e-19    -1.005593e-06    0.000000e+00
5.487489e-07    -1.045521e-06    0.000000e+00
1.115240e-06    -1.168096e-06    0.000000e+00
1.722702e-06    -1.380761e-06    0.000000e+00
2.394168e-06    -1.682257e-06    0.000000e+00
3.132427e-06    -2.064634e-06    0.000000e+00
-4.100076e-06    -2.909172e-06    0.000000e+00
-3.186876e-06    -2.535522e-06    0.000000e+00
-2.326958e-06    -2.239053e-06    0.000000e+00
-1.519408e-06    -2.025105e-06    0.000000e+00
-7.500557e-07    -1.896684e-06    0.000000e+00
-1.632325e-19    -1.854101e-06    0.000000e+00
7.500557e-07    -1.896684e-06    0.000000e+00
1.519408e-06    -2.025105e-06    0.000000e+00
2.326958e-06    -2.239053e-06    0.000000e+00
3.186876e-06    -2.535522e-06    0.000000e+00
4.100076e-06    -2.909172e-06    0.000000e+00
-5.051341e-06    -3.936654e-06    0.000000e+00
-3.956477e-06    -3.571725e-06    0.000000e+00
-2.911986e-06    -3.284208e-06    0.000000e+00
-1.912865e-06    -3.075889e-06    0.000000e+00
-9.475500e-07    -2.949778e-06    0.000000e+00
-2.097862e-19    -2.907564e-06    0.000000e+00
9.475500e-07    -2.949778e-06    0.000000e+00
1.912865e-06    -3.075889e-06    0.000000e+00
2.911986e-06    -3.284208e-06    0.000000e+00
3.956477e-06    -3.571725e-06    0.000000e+00
5.051341e-06    -3.936654e-06    0.000000e+00
-5.981873e-06    -5.149742e-06    0.000000e+00
-4.704513e-06    -4.794468e-06    0.000000e+00
-3.477740e-06    -4.516043e-06    0.000000e+00
-2.292922e-06    -4.315096e-06    0.000000e+00
-1.138484e-06    -4.193469e-06    0.000000e+00
-2.570877e-19    -4.152740e-06    0.000000e+00
1.138484e-06    -4.193469e-06    0.000000e+00
2.292922e-06    -4.315096e-06    0.000000e+00
3.477740e-06    -4.516043e-06    0.000000e+00
4.704513e-06    -4.794468e-06    0.000000e+00
5.981873e-06    -5.149742e-06    0.000000e+00
-6.888558e-06    -6.546376e-06    0.000000e+00
-5.431254e-06    -6.201154e-06    0.000000e+00
-4.025294e-06    -5.931590e-06    0.000000e+00
-2.659769e-06    -5.737829e-06    0.000000e+00
-1.322562e-06    -5.620886e-06    0.000000e+00
-3.020996e-19    -5.581769e-06    0.000000e+00
1.322562e-06    -5.620886e-06    0.000000e+00
2.659769e-06    -5.737829e-06    0.000000e+00
4.025294e-06    -5.931590e-06    0.000000e+00
5.431254e-06    -6.201154e-06    0.000000e+00
6.888558e-06    -6.546376e-06    0.000000e+00
-7.769676e-06    -8.122139e-06    0.000000e+00
-6.136609e-06    -7.787205e-06    0.000000e+00
-4.555509e-06    -7.526210e-06    0.000000e+00
-3.014226e-06    -7.339157e-06    0.000000e+00
-1.500173e-06    -7.226543e-06    0.000000e+00
-3.459865e-19    -7.188927e-06    0.000000e+00
1.500173e-06    -7.226543e-06    0.000000e+00
3.014226e-06    -7.339157e-06    0.000000e+00
4.555509e-06    -7.526210e-06    0.000000e+00
6.136609e-06    -7.787205e-06    0.000000e+00
7.769676e-06    -8.122139e-06    0.000000e+00
-8.624338e-06    -9.871838e-06    0.000000e+00
-6.820449e-06    -9.547301e-06    0.000000e+00
-5.068913e-06    -9.294676e-06    0.000000e+00
-3.356973e-06    -9.113935e-06    0.000000e+00
-1.671744e-06    -9.005300e-06    0.000000e+00
-3.907998e-19    -8.969049e-06    0.000000e+00
1.671744e-06    -9.005300e-06    0.000000e+00
3.356973e-06    -9.113935e-06    0.000000e+00
5.068913e-06    -9.294676e-06    0.000000e+00
6.820449e-06    -9.547301e-06    0.000000e+00
8.624338e-06    -9.871838e-06    0.000000e+00
-9.452128e-06    -1.179002e-05    0.000000e+00
-7.482678e-06    -1.147593e-05    0.000000e+00
-5.565791e-06    -1.123156e-05    0.000000e+00
-3.688437e-06    -1.105688e-05    0.000000e+00
-1.837569e-06    -1.095199e-05    0.000000e+00
-4.377572e-19    -1.091701e-05    0.000000e+00
1.837569e-06    -1.095199e-05    0.000000e+00
3.688437e-06    -1.105688e-05    0.000000e+00
5.565791e-06    -1.123156e-05    0.000000e+00
7.482678e-06    -1.147593e-05    0.000000e+00
9.452128e-06    -1.179002e-05    0.000000e+00
-1.025287e-05    -1.387120e-05    0.000000e+00
-8.123242e-06    -1.356758e-05    0.000000e+00
-6.046283e-06    -1.333140e-05    0.000000e+00
-4.008850e-06    -1.316265e-05    0.000000e+00
-1.997814e-06    -1.306137e-05    0.000000e+00
-4.788913e-19    -1.302760e-05    0.000000e+00
1.997814e-06    -1.306137e-05    0.000000e+00
4.008850e-06    -1.316265e-05    0.000000e+00
6.046283e-06    -1.333140e-05    0.000000e+00
8.123242e-06    -1.356758e-05    0.000000e+00
1.025287e-05    -1.387120e-05    0.000000e+00
-1.102648e-05    -1.610989e-05    0.000000e+00
-8.742113e-06    -1.581673e-05    0.000000e+00
-6.510452e-06    -1.558871e-05    0.000000e+00
-4.318325e-06    -1.542583e-05    0.000000e+00
-2.152566e-06    -1.532809e-05    0.000000e+00
-5.207135e-19    -1.529550e-05    0.000000e+00
2.152566e-06    -1.532809e-05    0.000000e+00
4.318325e-06    -1.542583e-05    0.000000e+00
6.510452e-06    -1.558871e-05    0.000000e+00
8.742113e-06    -1.581673e-05    0.000000e+00
1.102648e-05    -1.610989e-05    0.000000e+00
-1.177296e-05    -1.850062e-05    0.000000e+00
-9.339276e-06    -1.821793e-05    0.000000e+00
-6.958324e-06    -1.799806e-05    0.000000e+00
-4.616914e-06    -1.784101e-05    0.000000e+00
-2.301865e-06    -1.774678e-05    0.000000e+00
-5.661886e-19    -1.771537e-05    0.000000e+00
2.301865e-06    -1.774678e-05    0.000000e+00
4.616914e-06    -1.784101e-05    0.000000e+00
6.958324e-06    -1.799806e-05    0.000000e+00
9.339276e-06    -1.821793e-05    0.000000e+00
1.177296e-05    -1.850062e-05    0.000000e+00
-1.249228e-05    -2.103794e-05    0.000000e+00
-9.914727e-06    -2.076572e-05    0.000000e+00
-7.389909e-06    -2.055400e-05    0.000000e+00
-4.904637e-06    -2.040277e-05    0.000000e+00
-2.445728e-06    -2.031204e-05    0.000000e+00
-5.962053e-19    -2.028179e-05    0.000000e+00
2.445728e-06    -2.031204e-05    0.000000e+00
4.904637e-06    -2.040277e-05    0.000000e+00
7.389909e-06    -2.055400e-05    0.000000e+00
9.914727e-06    -2.076572e-05    0.000000e+00
1.249228e-05    -2.103794e-05    0.000000e+00
-1.318446e-05    -2.371642e-05    0.000000e+00
-1.046846e-05    -2.345467e-05    0.000000e+00
-7.805208e-06    -2.325109e-05    0.000000e+00
-5.181501e-06    -2.310568e-05    0.000000e+00
-2.584160e-06    -2.301844e-05    0.000000e+00
-6.258515e-19    -2.298935e-05    0.000000e+00
2.584160e-06    -2.301844e-05    0.000000e+00
5.181501e-06    -2.310568e-05    0.000000e+00
7.805208e-06    -2.325109e-05    0.000000e+00
1.046846e-05    -2.345467e-05    0.000000e+00
1.318446e-05    -2.371642e-05    0.000000e+00
-1.384949e-05    -2.653062e-05    0.000000e+00
-1.100049e-05    -2.627934e-05    0.000000e+00
-8.204222e-06    -2.608391e-05    0.000000e+00
-5.447509e-06    -2.594431e-05    0.000000e+00
-2.717163e-06    -2.586055e-05    0.000000e+00
-6.475567e-19    -2.583264e-05    0.000000e+00
2.717163e-06    -2.586055e-05    0.000000e+00
5.447509e-06    -2.594431e-05    0.000000e+00
8.204222e-06    -2.608391e-05    0.000000e+00
1.100049e-05    -2.627934e-05    0.000000e+00
1.384949e-05    -2.653062e-05    0.000000e+00
-1.448737e-05    -2.947511e-05    0.000000e+00
-1.151079e-05    -2.923430e-05    0.000000e+00
-8.586950e-06    -2.904701e-05    0.000000e+00
-5.702661e-06    -2.891323e-05    0.000000e+00
-2.844739e-06    -2.883296e-05    0.000000e+00
-6.516860e-19    -2.880621e-05    0.000000e+00
2.844739e-06    -2.883296e-05    0.000000e+00
5.702661e-06    -2.891323e-05    0.000000e+00
8.586950e-06    -2.904701e-05    0.000000e+00
1.151079e-05    -2.923430e-05    0.000000e+00
1.448737e-05    -2.947511e-05    0.000000e+00
-1.509811e-05    -3.254446e-05    0.000000e+00
-1.199938e-05    -3.231413e-05    0.000000e+00
-8.953392e-06    -3.213498e-05    0.000000e+00
-5.946955e-06    -3.200701e-05    0.000000e+00
-2.966886e-06    -3.193024e-05    0.000000e+00
-6.679914e-19    -3.190464e-05    0.000000e+00
2.966886e-06    -3.193024e-05    0.000000e+00
5.946955e-06    -3.200701e-05    0.000000e+00
8.953392e-06    -3.213498e-05    0.000000e+00
1.199938e-05    -3.231413e-05    0.000000e+00
1.509811e-05    -3.254446e-05    0.000000e+00
-1.568170e-05    -3.573325e-05    0.000000e+00
-1.246626e-05    -3.551338e-05    0.000000e+00
-9.303549e-06    -3.534238e-05    0.000000e+00
-6.180392e-06    -3.522023e-05    0.000000e+00
-3.083604e-06    -3.514694e-05    0.000000e+00
-6.962611e-19    -3.512251e-05    0.000000e+00
3.083604e-06    -3.514694e-05    0.000000e+00
6.180392e-06    -3.522023e-05    0.000000e+00
9.303549e-06    -3.534238e-05    0.000000e+00
1.246626e-05    -3.551338e-05    0.000000e+00
1.568170e-05    -3.573325e-05    0.000000e+00
-1.623815e-05    -3.903604e-05    0.000000e+00
-1.291142e-05    -3.882665e-05    0.000000e+00
-9.637419e-06    -3.866378e-05    0.000000e+00
-6.402972e-06    -3.854745e-05    0.000000e+00
-3.194894e-06    -3.847765e-05    0.000000e+00
-7.462360e-19    -3.845439e-05    0.000000e+00
3.194894e-06    -3.847765e-05    0.000000e+00
6.402972e-06    -3.854745e-05    0.000000e+00
9.637419e-06    -3.866378e-05    0.000000e+00
1.291142e-05    -3.882665e-05    0.000000e+00
1.623815e-05    -3.903604e-05    0.000000e+00
-1.676746e-05    -4.244741e-05    0.000000e+00
-1.333486e-05    -4.224848e-05    0.000000e+00
-9.955003e-06    -4.209376e-05    0.000000e+00
-6.614695e-06    -4.198325e-05    0.000000e+00
-3.300755e-06    -4.191694e-05    0.000000e+00
-8.152692e-19    -4.189484e-05    0.000000e+00
3.300755e-06    -4.191694e-05    0.000000e+00
6.614695e-06    -4.198325e-05    0.000000e+00
9.955003e-06    -4.209376e-05    0.000000e+00
1.333486e-05    -4.224848e-05    0.000000e+00
1.676746e-05    -4.244741e-05    0.000000e+00
-1.726962e-05    -4.596192e-05    0.000000e+00
-1.373659e-05    -4.577347e-05    0.000000e+00
-1.025630e-05    -4.562689e-05    0.000000e+00
-6.815560e-06    -4.552219e-05    0.000000e+00
-3.401188e-06    -4.545937e-05    0.000000e+00
-8.684205e-19    -4.543843e-05    0.000000e+00
3.401188e-06    -4.545937e-05    0.000000e+00
6.815560e-06    -4.552219e-05    0.000000e+00
1.025630e-05    -4.562689e-05    0.000000e+00
1.373659e-05    -4.577347e-05    0.000000e+00
1.726962e-05    -4.596192e-05    0.000000e+00
-1.774464e-05    -4.957415e-05    0.000000e+00
-1.411661e-05    -4.939617e-05    0.000000e+00
-1.054131e-05    -4.925773e-05    0.000000e+00
-7.005568e-06    -4.915885e-05    0.000000e+00
-3.496192e-06    -4.909952e-05    0.000000e+00
-9.008195e-19    -4.907975e-05    0.000000e+00
3.496192e-06    -4.909952e-05    0.000000e+00
7.005568e-06    -4.915885e-05    0.000000e+00
1.054131e-05    -4.925773e-05    0.000000e+00
1.411661e-05    -4.939617e-05    0.000000e+00
1.774464e-05    -4.957415e-05    0.000000e+00
-1.819252e-05    -5.327868e-05    0.000000e+00
-1.447491e-05    -5.311116e-05    0.000000e+00
-1.081004e-05    -5.298087e-05    0.000000e+00
-7.184718e-06    -5.288780e-05    0.000000e+00
-3.585767e-06    -5.283196e-05    0.000000e+00
-9.463476e-19    -5.281335e-05    0.000000e+00
3.585767e-06    -5.283196e-05    0.000000e+00
7.184718e-06    -5.288780e-05    0.000000e+00
1.081004e-05    -5.298087e-05    0.000000e+00
1.447491e-05    -5.311116e-05    0.000000e+00
1.819252e-05    -5.327868e-05    0.000000e+00
-1.861325e-05    -5.707006e-05    0.000000e+00
-1.481149e-05    -5.691301e-05    0.000000e+00
-1.106248e-05    -5.679086e-05    0.000000e+00
-7.353011e-06    -5.670361e-05    0.000000e+00
-3.669914e-06    -5.665126e-05    0.000000e+00
-9.632882e-19    -5.663381e-05    0.000000e+00
3.669914e-06    -5.665126e-05    0.000000e+00
7.353011e-06    -5.670361e-05    0.000000e+00
1.106248e-05    -5.679086e-05    0.000000e+00
1.481149e-05    -5.691301e-05    0.000000e+00
1.861325e-05    -5.707006e-05    0.000000e+00
-1.900683e-05    -6.094287e-05    0.000000e+00
-1.512636e-05    -6.079629e-05    0.000000e+00
-1.129863e-05    -6.068229e-05    0.000000e+00
-7.510448e-06    -6.060086e-05    0.000000e+00
-3.748633e-06    -6.055200e-05    0.000000e+00
-9.795936e-19    -6.053571e-05    0.000000e+00
3.748633e-06    -6.055200e-05    0.000000e+00
7.510448e-06    -6.060086e-05    0.000000e+00
1.129863e-05    -6.068229e-05    0.000000e+00
1.512636e-05    -6.079629e-05    0.000000e+00
1.900683e-05    -6.094287e-05    0.000000e+00
-1.937327e-05    -6.489169e-05    0.000000e+00
-1.541952e-05    -6.475558e-05    0.000000e+00
-1.151850e-05    -6.464972e-05    0.000000e+00
-7.657028e-06    -6.457410e-05    0.000000e+00
-3.821923e-06    -6.452873e-05    0.000000e+00
-9.814994e-19    -6.451361e-05    0.000000e+00
3.821923e-06    -6.452873e-05    0.000000e+00
7.657028e-06    -6.457410e-05    0.000000e+00
1.151850e-05    -6.464972e-05    0.000000e+00
1.541952e-05    -6.475558e-05    0.000000e+00
1.937327e-05    -6.489169e-05    0.000000e+00
-1.971256e-05    -6.891107e-05    0.000000e+00
-1.569095e-05    -6.878544e-05    0.000000e+00
-1.172208e-05    -6.868772e-05    0.000000e+00
-7.792750e-06    -6.861792e-05    0.000000e+00
-3.889784e-06    -6.857604e-05    0.000000e+00
-9.666764e-19    -6.856208e-05    0.000000e+00
3.889784e-06    -6.857604e-05    0.000000e+00
7.792750e-06    -6.861792e-05    0.000000e+00
1.172208e-05    -6.868772e-05    0.000000e+00
1.569095e-05    -6.878544e-05    0.000000e+00
1.971256e-05    -6.891107e-05    0.000000e+00
-2.002471e-05    -7.299559e-05    0.000000e+00
-1.594068e-05    -7.288043e-05    0.000000e+00
-1.190938e-05    -7.279086e-05    0.000000e+00
-7.917611e-06    -7.272688e-05    0.000000e+00
-3.952212e-06    -7.268851e-05    0.000000e+00
-9.713350e-19    -7.267572e-05    0.000000e+00
3.952212e-06    -7.268851e-05    0.000000e+00
7.917611e-06    -7.272688e-05    0.000000e+00
1.190938e-05    -7.279086e-05    0.000000e+00
1.594068e-05    -7.288043e-05    0.000000e+00
2.002471e-05    -7.299559e-05    0.000000e+00
-2.030971e-05    -7.713981e-05    0.000000e+00
-1.616869e-05    -7.703511e-05    0.000000e+00
-1.208038e-05    -7.695370e-05    0.000000e+00
-8.031599e-06    -7.689557e-05    0.000000e+00
-4.009198e-06    -7.686071e-05    0.000000e+00
-1.005852e-18    -7.684909e-05    0.000000e+00
4.009198e-06    -7.686071e-05    0.000000e+00
8.031599e-06    -7.689557e-05    0.000000e+00
1.208038e-05    -7.695370e-05    0.000000e+00
1.616869e-05    -7.703511e-05    0.000000e+00
2.030971e-05    -7.713981e-05    0.000000e+00
-2.056757e-05    -8.133827e-05    0.000000e+00
-1.637501e-05    -8.124404e-05    0.000000e+00
-1.223508e-05    -8.117079e-05    0.000000e+00
-8.134685e-06    -8.111855e-05    0.000000e+00
-4.060719e-06    -8.108725e-05    0.000000e+00
-1.058368e-18    -8.107682e-05    0.000000e+00
4.060719e-06    -8.108725e-05    0.000000e+00
8.134685e-06    -8.111855e-05    0.000000e+00
1.223508e-05    -8.117079e-05    0.000000e+00
1.637501e-05    -8.124404e-05    0.000000e+00
2.056757e-05    -8.133827e-05    0.000000e+00
-2.079833e-05    -8.558550e-05    0.000000e+00
-1.655963e-05    -8.550173e-05    0.000000e+00
-1.237344e-05    -8.543669e-05    0.000000e+00
-8.226802e-06    -8.539041e-05    0.000000e+00
-4.106724e-06    -8.536275e-05    0.000000e+00
-1.136295e-18    -8.535356e-05    0.000000e+00
4.106724e-06    -8.536275e-05    0.000000e+00
8.226802e-06    -8.539041e-05    0.000000e+00
1.237344e-05    -8.543669e-05    0.000000e+00
1.655963e-05    -8.550173e-05    0.000000e+00
2.079833e-05    -8.558550e-05    0.000000e+00
-2.100210e-05    -8.987603e-05    0.000000e+00
-1.672261e-05    -8.980269e-05    0.000000e+00
-1.249537e-05    -8.974594e-05    0.000000e+00
-8.307807e-06    -8.970578e-05    0.000000e+00
-4.147107e-06    -8.968192e-05    0.000000e+00
-1.206175e-18    -8.967401e-05    0.000000e+00
4.147107e-06    -8.968192e-05    0.000000e+00
8.307807e-06    -8.970578e-05    0.000000e+00
1.249537e-05    -8.974594e-05    0.000000e+00
1.672261e-05    -8.980269e-05    0.000000e+00
2.100210e-05    -8.987603e-05    0.000000e+00
-2.117912e-05    -9.420439e-05    0.000000e+00
-1.686399e-05    -9.414142e-05    0.000000e+00
-1.260070e-05    -9.409307e-05    0.000000e+00
-8.377428e-06    -9.405931e-05    0.000000e+00
-4.181679e-06    -9.403948e-05    0.000000e+00
-1.245138e-18    -9.403296e-05    0.000000e+00
4.181679e-06    -9.403948e-05    0.000000e+00
8.377428e-06    -9.405931e-05    0.000000e+00
1.260070e-05    -9.409307e-05    0.000000e+00
1.686399e-05    -9.414142e-05    0.000000e+00
2.117912e-05    -9.420439e-05    0.000000e+00
-2.132994e-05    -9.856523e-05    0.000000e+00
-1.698387e-05    -9.851248e-05    0.000000e+00
-1.268909e-05    -9.847276e-05    0.000000e+00
-8.435205e-06    -9.844575e-05    0.000000e+00
-4.210141e-06    -9.843026e-05    0.000000e+00
-1.306548e-18    -9.842523e-05    0.000000e+00
4.210141e-06    -9.843026e-05    0.000000e+00
8.435205e-06    -9.844575e-05    0.000000e+00
1.268909e-05    -9.847276e-05    0.000000e+00
1.698387e-05    -9.851248e-05    0.000000e+00
2.132994e-05    -9.856523e-05    0.000000e+00
-2.145562e-05    -1.029537e-04    0.000000e+00
-1.708235e-05    -1.029109e-04    0.000000e+00
-1.275997e-05    -1.028800e-04    0.000000e+00
-8.480517e-06    -1.028600e-04    0.000000e+00
-4.232143e-06    -1.028489e-04    0.000000e+00
-1.353135e-18    -1.028454e-04    0.000000e+00
4.232143e-06    -1.028489e-04    0.000000e+00
8.480517e-06    -1.028600e-04    0.000000e+00
1.275997e-05    -1.028800e-04    0.000000e+00
1.708235e-05    -1.029109e-04    0.000000e+00
2.145562e-05    -1.029537e-04    0.000000e+00
-2.155817e-05    -1.073660e-04    0.000000e+00
-1.715935e-05    -1.073327e-04    0.000000e+00
-1.281258e-05    -1.073105e-04    0.000000e+00
-8.512904e-06    -1.072970e-04    0.000000e+00
-4.247579e-06    -1.072895e-04    0.000000e+00
-1.299349e-18    -1.072870e-04    0.000000e+00
4.247579e-06    -1.072895e-04    0.000000e+00
8.512904e-06    -1.072970e-04    0.000000e+00
1.281258e-05    -1.073105e-04    0.000000e+00
1.715935e-05    -1.073327e-04    0.000000e+00
2.155817e-05    -1.073660e-04    0.000000e+00
-2.164067e-05    -1.118022e-04    0.000000e+00
-1.721429e-05    -1.117772e-04    0.000000e+00
-1.284670e-05    -1.117621e-04    0.000000e+00
-8.533270e-06    -1.117511e-04    0.000000e+00
-4.257281e-06    -1.117436e-04    0.000000e+00
-1.221422e-18    -1.117409e-04    0.000000e+00
4.257281e-06    -1.117436e-04    0.000000e+00
8.533270e-06    -1.117511e-04    0.000000e+00
1.284670e-05    -1.117621e-04    0.000000e+00
1.721429e-05    -1.117772e-04    0.000000e+00
2.164067e-05    -1.118022e-04    0.000000e+00
-2.170513e-05    -1.162704e-04    0.000000e+00
-1.724615e-05    -1.162523e-04    0.000000e+00
-1.286626e-05    -1.162338e-04    0.000000e+00
-8.546206e-06    -1.162132e-04    0.000000e+00
-4.263865e-06    -1.161978e-04    0.000000e+00
-1.206598e-18    -1.161922e-04    0.000000e+00
4.263865e-06    -1.161978e-04    0.000000e+00
8.546206e-06    -1.162132e-04    0.000000e+00
1.286626e-05    -1.162338e-04    0.000000e+00
1.724615e-05    -1.162523e-04    0.000000e+00
2.170513e-05    -1.162704e-04    0.000000e+00
-2.173924e-05    -1.208105e-04    0.000000e+00
-1.726634e-05    -1.207758e-04    0.000000e+00
-1.288608e-05    -1.207173e-04    0.000000e+00
-8.561321e-06    -1.206645e-04    0.000000e+00
-4.272039e-06    -1.206293e-04    0.000000e+00
-1.206598e-18    -1.206170e-04    0.000000e+00
4.272039e-06    -1.206293e-04    0.000000e+00
8.561321e-06    -1.206645e-04    0.000000e+00
1.288608e-05    -1.207173e-04    0.000000e+00
1.726634e-05    -1.207758e-04    0.000000e+00
2.173924e-05    -1.208105e-04    0.000000e+00

CELL_DATA      400
TENSORS Element_Stress7.400000e-01 double
1.820598e+06 2.551812e+05        0
2.551812e+05 4.163488e+05        0
       0        0        0

1.243720e+06 1.308538e+05        0
1.308538e+05 3.566178e+05        0
       0        0        0

8.651185e+05 4.301032e+04        0
4.301032e+04 2.749959e+05        0
       0        0        0

5.100063e+05 -3.578363e+03        0
-3.578363e+03 1.690094e+05        0
       0        0        0

1.688541e+05 -2.488323e+04        0
-2.488323e+04 5.694968e+04        0
       0        0        0

-1.688184e+05 -2.487711e+04        0
-2.487711e+04 -5.695775e+04        0
       0        0        0

-5.095306e+05 -3.579112e+03        0
-3.579112e+03 -1.688447e+05        0
       0        0        0

-8.637077e+05 4.293851e+04        0
4.293851e+04 -2.744671e+05        0
       0        0        0

-1.240734e+06 1.305652e+05        0
1.305652e+05 -3.554740e+05        0
       0        0        0

-1.814375e+06 2.543707e+05        0
2.543707e+05 -4.141970e+05        0
       0        0        0

1.642070e+06 4.159748e+04        0
4.159748e+04 4.234799e+03        0
       0        0        0

1.322354e+06 1.206454e+05        0
1.206454e+05 1.286843e+05        0
       0        0        0

9.082521e+05 9.900755e+04        0
9.900755e+04 1.315191e+05        0
       0        0        0

5.364025e+05 7.580678e+04        0
7.580678e+04 9.193311e+04        0
       0        0        0

1.768172e+05 6.321707e+04        0
6.321707e+04 3.207757e+04        0
       0        0        0

-1.778550e+05 6.319873e+04        0
6.319873e+04 -3.316896e+04        0
       0        0        0

-5.369363e+05 7.574133e+04        0
7.574133e+04 -9.284490e+04        0
       0        0        0

-9.077061e+05 9.886737e+04        0
9.886737e+04 -1.320379e+05        0
       0        0        0

-1.319830e+06 1.204079e+05        0
1.204079e+05 -1.284324e+05        0
       0        0        0

-1.637466e+06 4.151082e+04        0
4.151082e+04 -3.136555e+03        0
       0        0        0

1.584953e+06 1.541639e+04        0
1.541639e+04 6.615316e+03        0
       0        0        0

1.271591e+06 6.833109e+04        0
6.833109e+04 1.757728e+04        0
       0        0        0

9.146413e+05 1.015639e+05        0
1.015639e+05 4.237686e+04        0
       0        0        0

5.430826e+05 1.074765e+05        0
1.074765e+05 3.592346e+04        0
       0        0        0

1.791459e+05 1.074054e+05        0
1.074054e+05 1.272037e+04        0
       0        0        0

-1.824790e+05 1.073775e+05        0
1.073775e+05 -1.611190e+04        0
       0        0        0

-5.458838e+05 1.073933e+05        0
1.073933e+05 -3.912503e+04        0
       0        0        0

-9.163117e+05 1.014348e+05        0
1.014348e+05 -4.515293e+04        0
       0        0        0

-1.271565e+06 6.821622e+04        0
6.821622e+04 -1.966893e+04        0
       0        0        0

-1.582978e+06 1.538448e+04        0
1.538448e+04 -7.911807e+03        0
       0        0        0

1.546129e+06 1.427370e+04        0
1.427370e+04 -3.975752e+03        0
       0        0        0

1.226683e+06 5.548208e+04        0
5.548208e+04 -1.953361e+03        0
       0        0        0

8.865538e+05 9.245024e+04        0
9.245024e+04 2.933168e+03        0
       0        0        0

5.331314e+05 1.146030e+05        0
1.146030e+05 5.877770e+03        0
       0        0        0

1.753740e+05 1.233579e+05        0
1.233579e+05 6.880625e+02        0
       0        0        0

-1.820438e+05 1.233283e+05        0
1.233283e+05 -7.415933e+03        0
       0        0        0

-5.392752e+05 1.145213e+05        0
1.145213e+05 -1.241206e+04        0
       0        0        0

-8.916350e+05 9.234262e+04        0
9.234262e+04 -9.058365e+03        0
       0        0        0

-1.230189e+06 5.539388e+04        0
5.539388e+04 -3.528931e+03        0
       0        0        0

-1.547532e+06 1.424568e+04        0
1.424568e+04 -5.504384e+02        0
       0        0        0

1.509427e+06 1.713063e+04        0
1.713063e+04 -5.567249e+03        0
       0        0        0

1.185340e+06 5.448733e+04        0
5.448733e+04 -8.577651e+03        0
       0        0        0

8.541561e+05 8.905469e+04        0
8.905469e+04 -8.329305e+03        0
       0        0        0

5.137340e+05 1.136408e+05        0
1.136408e+05 -6.745280e+03        0
       0        0        0

1.681056e+05 1.258450e+05        0
1.258450e+05 -5.639044e+03        0
       0        0        0

-1.789903e+05 1.258166e+05        0
1.258166e+05 -5.300819e+03        0
       0        0        0

-5.241237e+05 1.135646e+05        0
1.135646e+05 -4.010288e+03        0
       0        0        0

-8.635542e+05 8.895612e+04        0
8.895612e+04 -2.042812e+03        0
       0        0        0

-1.193244e+06 5.440409e+04        0
5.440409e+04 -1.179541e+03        0
       0        0        0

-1.515273e+06 1.709766e+04        0
1.709766e+04 -3.264824e+03        0
       0        0        0

1.469671e+06 1.958963e+04        0
1.958963e+04 -7.911531e+03        0
       0        0        0

1.147077e+06 5.644559e+04        0
5.644559e+04 -1.054799e+04        0
       0        0        0

8.224151e+05 8.838594e+04        0
8.838594e+04 -1.192774e+04        0
       0        0        0

4.928620e+05 1.117722e+05        0
1.117722e+05 -1.113898e+04        0
       0        0        0

1.594065e+05 1.239614e+05        0
1.239614e+05 -9.157848e+03        0
       0        0        0

-1.752704e+05 1.239347e+05        0
1.239347e+05 -6.757342e+03        0
       0        0        0

-5.082716e+05 1.117003e+05        0
1.117003e+05 -4.611022e+03        0
       0        0        0

-8.369138e+05 8.829171e+04        0
8.829171e+04 -3.479956e+03        0
       0        0        0

-1.160194e+06 5.636191e+04        0
5.636191e+04 -4.312364e+03        0
       0        0        0

-1.480879e+06 1.955284e+04        0
1.955284e+04 -6.139554e+03        0
       0        0        0

1.427069e+06 2.114429e+04        0
2.114429e+04 -1.052964e+04        0
       0        0        0

1.109854e+06 5.834958e+04        0
5.834958e+04 -1.236661e+04        0
       0        0        0

7.924051e+05 8.864128e+04        0
8.864128e+04 -1.362108e+04        0
       0        0        0

4.726277e+05 1.103428e+05        0
1.103428e+05 -1.337050e+04        0
       0        0        0

1.506199e+05 1.216735e+05        0
1.216735e+05 -1.181697e+04        0
       0        0        0

-1.721469e+05 1.216483e+05        0
1.216483e+05 -9.757740e+03        0
       0        0        0

-4.937482e+05 1.102742e+05        0
1.102742e+05 -8.067258e+03        0
       0        0        0

-8.127094e+05 8.854973e+04        0
8.854973e+04 -7.533908e+03        0
       0        0        0

-1.128918e+06 5.826553e+04        0
5.826553e+04 -8.339735e+03        0
       0        0        0

-1.444434e+06 2.110561e+04        0
2.110561e+04 -9.528609e+03        0
       0        0        0

1.382471e+06 2.200181e+04        0
2.200181e+04 -1.363722e+04        0
       0        0        0

1.072891e+06 5.961398e+04        0
5.961398e+04 -1.472183e+04        0
       0        0        0

7.635785e+05 8.901007e+04        0
8.901007e+04 -1.557414e+04        0
       0        0        0

4.533125e+05 1.094858e+05        0
1.094858e+05 -1.552412e+04        0
       0        0        0

1.419522e+05 1.200358e+05        0
1.200358e+05 -1.458784e+04        0
       0        0        0

-1.697603e+05 1.200117e+05        0
1.200117e+05 -1.326479e+04        0
       0        0        0

-4.807667e+05 1.094198e+05        0
1.094198e+05 -1.222641e+04        0
       0        0        0

-7.903212e+05 8.892090e+04        0
8.892090e+04 -1.196593e+04        0
       0        0        0

-1.098554e+06 5.953060e+04        0
5.953060e+04 -1.248635e+04        0
       0        0        0

-1.406666e+06 2.196271e+04        0
2.196271e+04 -1.309846e+04        0
       0        0        0

1.336650e+06 2.243103e+04        0
2.243103e+04 -1.712975e+04        0
       0        0        0

1.035846e+06 6.032508e+04        0
6.032508e+04 -1.770734e+04        0
       0        0        0

7.353690e+05 8.928001e+04        0
8.928001e+04 -1.819357e+04        0
       0        0        0

4.345842e+05 1.090314e+05        0
1.090314e+05 -1.820574e+04        0
       0        0        0

1.333510e+05 1.190751e+05        0
1.190751e+05 -1.770719e+04        0
       0        0        0

-1.679948e+05 1.190519e+05        0
1.190519e+05 -1.697818e+04        0
       0        0        0

-4.689286e+05 1.089678e+05        0
1.089678e+05 -1.641605e+04        0
       0        0        0

-7.691116e+05 8.919329e+04        0
8.919329e+04 -1.629667e+04        0
       0        0        0

-1.068676e+06 6.024325e+04        0
6.024325e+04 -1.657480e+04        0
       0        0        0

-1.368246e+06 2.239236e+04        0
2.239236e+04 -1.685617e+04        0
       0        0        0

1.290108e+06 2.262769e+04        0
2.262769e+04 -2.093370e+04        0
       0        0        0

9.986145e+05 6.068320e+04        0
6.068320e+04 -2.119241e+04        0
       0        0        0

7.073840e+05 8.943847e+04        0
8.943847e+04 -2.142407e+04        0
       0        0        0

4.161153e+05 1.088122e+05        0
1.088122e+05 -2.143279e+04        0
       0        0        0

1.247137e+05 1.185759e+05        0
1.185759e+05 -2.118594e+04        0
       0        0        0

-1.666835e+05 1.185536e+05        0
1.185536e+05 -2.082274e+04        0
       0        0        0

-4.578408e+05 1.087507e+05        0
1.087507e+05 -2.055219e+04        0
       0        0        0

-7.486181e+05 8.935433e+04        0
8.935433e+04 -2.051028e+04        0
       0        0        0

-1.039104e+06 6.060345e+04        0
6.060345e+04 -2.065826e+04        0
       0        0        0

-1.329592e+06 2.258991e+04        0
2.258991e+04 -2.079207e+04        0
       0        0        0

1.243138e+06 2.270943e+04        0
2.270943e+04 -2.498210e+04        0
       0        0        0

9.611829e+05 6.084707e+04        0
6.084707e+04 -2.504187e+04        0
       0        0        0

6.794119e+05 8.952007e+04        0
8.952007e+04 -2.510676e+04        0
       0        0        0

3.976942e+05 1.087151e+05        0
1.087151e+05 -2.508705e+04        0
       0        0        0

1.159751e+05 1.183403e+05        0
1.183403e+05 -2.496213e+04        0
       0        0        0

-1.656966e+05 1.183187e+05        0
1.183187e+05 -2.479576e+04        0
       0        0        0

-4.472257e+05 1.086557e+05        0
1.086557e+05 -2.468699e+04        0
       0        0        0

-7.285608e+05 8.943859e+04        0
8.943859e+04 -2.469694e+04        0
       0        0        0

-1.009752e+06 6.076971e+04        0
6.076971e+04 -2.480000e+04        0
       0        0        0

-1.290922e+06 2.267274e+04        0
2.267274e+04 -2.489961e+04        0
       0        0        0

1.195902e+06 2.273919e+04        0
2.273919e+04 -2.922324e+04        0
       0        0        0

9.235708e+05 6.091458e+04        0
6.091458e+04 -2.915047e+04        0
       0        0        0

6.513590e+05 8.955767e+04        0
8.955767e+04 -2.910387e+04        0
       0        0        0

3.792147e+05 1.086759e+05        0
1.086759e+05 -2.904718e+04        0
       0        0        0

1.071092e+05 1.182389e+05        0
1.182389e+05 -2.896999e+04        0
       0        0        0

-1.649443e+05 1.182180e+05        0
1.182180e+05 -2.889900e+04        0
       0        0        0

-4.369126e+05 1.086185e+05        0
1.086185e+05 -2.887696e+04        0
       0        0        0

-7.087800e+05 8.947891e+04        0
8.947891e+04 -2.892824e+04        0
       0        0        0

-9.805709e+05 6.083975e+04        0
6.083975e+04 -2.903784e+04        0
       0        0        0

-1.252330e+06 2.270369e+04        0
2.270369e+04 -2.916302e+04        0
       0        0        0

1.148491e+06 2.274763e+04        0
2.274763e+04 -3.361527e+04        0
       0        0        0

8.858087e+05 6.093851e+04        0
6.093851e+04 -3.344415e+04        0
       0        0        0

6.231974e+05 8.957284e+04        0
8.957284e+04 -3.331675e+04        0
       0        0        0

3.606384e+05 1.086618e+05        0
1.086618e+05 -3.322145e+04        0
       0        0        0

9.811734e+04 1.181997e+05        0
1.181997e+05 -3.315416e+04        0
       0        0        0

-1.643651e+05 1.181796e+05        0
1.181796e+05 -3.312513e+04        0
       0        0        0

-4.268000e+05 1.086064e+05        0
1.086064e+05 -3.315081e+04        0
       0        0        0

-6.891844e+05 8.949683e+04        0
8.949683e+04 -3.323922e+04        0
       0        0        0

-9.515284e+05 6.086627e+04        0
6.086627e+04 -3.338182e+04        0
       0        0        0

-1.213844e+06 2.271337e+04        0
2.271337e+04 -3.356049e+04        0
       0        0        0

1.100960e+06 2.274841e+04        0
2.274841e+04 -3.812278e+04        0
       0        0        0

8.479289e+05 6.094459e+04        0
6.094459e+04 -3.787019e+04        0
       0        0        0

5.949322e+05 8.957762e+04        0
8.957762e+04 -3.767803e+04        0
       0        0        0

3.419635e+05 1.086573e+05        0
1.086573e+05 -3.754494e+04        0
       0        0        0

8.901558e+04 1.181867e+05        0
1.181867e+05 -3.747027e+04        0
       0        0        0

-1.639142e+05 1.181674e+05        0
1.181674e+05 -3.745768e+04        0
       0        0        0

-4.168253e+05 1.086039e+05        0
1.086039e+05 -3.751247e+04        0
       0        0        0

-6.697180e+05 8.950436e+04        0
8.950436e+04 -3.763608e+04        0
       0        0        0

-9.225952e+05 6.087498e+04        0
6.087498e+04 -3.782343e+04        0
       0        0        0

-1.175457e+06 2.271539e+04        0
2.271539e+04 -3.806658e+04        0
       0        0        0

1.053347e+06 2.274703e+04        0
2.274703e+04 -4.271420e+04        0
       0        0        0

8.099626e+05 6.094429e+04        0
6.094429e+04 -4.238866e+04        0
       0        0        0

5.665832e+05 8.957803e+04        0
8.957803e+04 -4.214000e+04        0
       0        0        0

3.232060e+05 1.086559e+05        0
1.086559e+05 -4.197068e+04        0
       0        0        0

7.982720e+04 1.181835e+05        0
1.181835e+05 -4.188171e+04        0
       0        0        0

-1.635563e+05 1.181649e+05        0
1.181649e+05 -4.187447e+04        0
       0        0        0

-4.069457e+05 1.086046e+05        0
1.086046e+05 -4.195008e+04        0
       0        0        0

-6.503417e+05 8.950753e+04        0
8.950753e+04 -4.210767e+04        0
       0        0        0

-8.937438e+05 6.087730e+04        0
6.087730e+04 -4.234382e+04        0
       0        0        0

-1.137148e+06 2.271526e+04        0
2.271526e+04 -4.265429e+04        0
       0        0        0

1.005683e+06 2.274539e+04        0
2.274539e+04 -4.736038e+04        0
       0        0        0

7.719394e+05 6.094219e+04        0
6.094219e+04 -4.696667e+04        0
       0        0        0

5.381756e+05 8.957681e+04        0
8.957681e+04 -4.666608e+04        0
       0        0        0

3.043894e+05 1.086553e+05        0
1.086553e+05 -4.646218e+04        0
       0        0        0

7.057816e+04 1.181832e+05        0
1.181832e+05 -4.635676e+04        0
       0        0        0

-1.632605e+05 1.181653e+05        0
1.181653e+05 -4.635058e+04        0
       0        0        0

-3.971278e+05 1.086060e+05        0
1.086060e+05 -4.644347e+04        0
       0        0        0

-6.310240e+05 8.950907e+04        0
8.950907e+04 -4.663394e+04        0
       0        0        0

-8.649473e+05 6.087783e+04        0
6.087783e+04 -4.691929e+04        0
       0        0        0

-1.098893e+06 2.271487e+04        0
2.271487e+04 -4.729637e+04        0
       0        0        0

9.579955e+05 2.274400e+04        0
2.274400e+04 -5.203381e+04        0
       0        0        0

7.338873e+05 6.093989e+04        0
6.093989e+04 -5.157525e+04        0
       0        0        0

5.097360e+05 8.957508e+04        0
8.957508e+04 -5.122566e+04        0
       0        0        0

2.855393e+05 1.086546e+05        0
1.086546e+05 -5.098880e+04        0
       0        0        0

6.129495e+04 1.181835e+05        0
1.181835e+05 -5.086675e+04        0
       0        0        0

-1.629989e+05 1.181663e+05        0
1.181663e+05 -5.086025e+04        0
       0        0        0

-3.873432e+05 1.086073e+05        0
1.086073e+05 -5.096887e+04        0
       0        0        0

-6.117373e+05 8.951011e+04        0
8.951011e+04 -5.119108e+04        0
       0        0        0

-8.361791e+05 6.087815e+04        0
6.087815e+04 -5.152449e+04        0
       0        0        0

-1.060664e+06 2.271473e+04        0
2.271473e+04 -5.196605e+04        0
       0        0        0

9.103102e+05 2.274290e+04        0
2.274290e+04 -5.670829e+04        0
       0        0        0

6.958326e+05 6.093780e+04        0
6.093780e+04 -5.618768e+04        0
       0        0        0

4.812907e+05 8.957328e+04        0
8.957328e+04 -5.579141e+04        0
       0        0        0

2.666817e+05 1.086537e+05        0
1.086537e+05 -5.552312e+04        0
       0        0        0

5.200354e+04 1.181835e+05        0
1.181835e+05 -5.538500e+04        0
       0        0        0

-1.627453e+05 1.181671e+05        0
1.181671e+05 -5.537790e+04        0
       0        0        0

-3.775653e+05 1.086084e+05        0
1.086084e+05 -5.550144e+04        0
       0        0        0

-5.924555e+05 8.951107e+04        0
8.951107e+04 -5.575422e+04        0
       0        0        0

-8.074137e+05 6.087870e+04        0
6.087870e+04 -5.613390e+04        0
       0        0        0

-1.022436e+06 2.271486e+04        0
2.271486e+04 -5.663735e+04        0
       0        0        0

8.626520e+05 2.274198e+04        0
2.274198e+04 -6.135878e+04        0
       0        0        0

6.578008e+05 6.093596e+04        0
6.093596e+04 -6.077882e+04        0
       0        0        0

4.528650e+05 8.957150e+04        0
8.957150e+04 -6.033795e+04        0
       0        0        0

2.478418e+05 1.086526e+05        0
1.086526e+05 -6.003971e+04        0
       0        0        0

4.272898e+04 1.181833e+05        0
1.181833e+05 -5.988630e+04        0
       0        0        0

-1.624747e+05 1.181676e+05        0
1.181676e+05 -5.987867e+04        0
       0        0        0

-3.677693e+05 1.086093e+05        0
1.086093e+05 -6.001656e+04        0
       0        0        0

-5.731539e+05 8.951206e+04        0
8.951206e+04 -6.029866e+04        0
       0        0        0

-7.786261e+05 6.087948e+04        0
6.087948e+04 -6.072266e+04        0
       0        0        0

-9.841819e+05 2.271520e+04        0
2.271520e+04 -6.128530e+04        0
       0        0        0

8.150447e+05 2.274119e+04        0
2.274119e+04 -6.596136e+04        0
       0        0        0

6.198157e+05 6.093429e+04        0
6.093429e+04 -6.532473e+04        0
       0        0        0

4.244830e+05 8.956978e+04        0
8.956978e+04 -6.484132e+04        0
       0        0        0

2.290436e+05 1.086514e+05        0
1.086514e+05 -6.451456e+04        0
       0        0        0

3.349528e+04 1.181828e+05        0
1.181828e+05 -6.434667e+04        0
       0        0        0

-1.621631e+05 1.181678e+05        0
1.181678e+05 -6.433865e+04        0
       0        0        0

-3.579315e+05 1.086101e+05        0
1.086101e+05 -6.449035e+04        0
       0        0        0

-5.538087e+05 8.951311e+04        0
8.951311e+04 -6.480052e+04        0
       0        0        0

-7.497925e+05 6.088043e+04        0
6.088043e+04 -6.526685e+04        0
       0        0        0

-9.458791e+05 2.271565e+04        0
2.271565e+04 -6.588596e+04        0
       0        0        0

7.675109e+05 2.274046e+04        0
2.274046e+04 -7.049318e+04        0
       0        0        0

5.819002e+05 6.093273e+04        0
6.093273e+04 -6.980260e+04        0
       0        0        0

3.961677e+05 8.956811e+04        0
8.956811e+04 -6.927870e+04        0
       0        0        0

2.103102e+05 1.086501e+05        0
1.086501e+05 -6.892486e+04        0
       0        0        0

2.432535e+04 1.181822e+05        0
1.181822e+05 -6.874327e+04        0
       0        0        0

-1.617877e+05 1.181679e+05        0
1.181679e+05 -6.873499e+04        0
       0        0        0

-3.480290e+05 1.086108e+05        0
1.086108e+05 -6.889993e+04        0
       0        0        0

-5.343973e+05 8.951420e+04        0
8.951420e+04 -6.923690e+04        0
       0        0        0

-7.208901e+05 6.088150e+04        0
6.088150e+04 -6.974356e+04        0
       0        0        0

-9.075041e+05 2.271617e+04        0
2.271617e+04 -7.041649e+04        0
       0        0        0

7.200723e+05 2.273978e+04        0
2.273978e+04 -7.493249e+04        0
       0        0        0

5.440762e+05 6.093125e+04        0
6.093125e+04 -7.419071e+04        0
       0        0        0

3.679410e+05 8.956648e+04        0
8.956648e+04 -7.362841e+04        0
       0        0        0

1.916633e+05 1.086488e+05        0
1.086488e+05 -7.324889e+04        0
       0        0        0

1.524098e+04 1.181815e+05        0
1.181815e+05 -7.305436e+04        0
       0        0        0

-1.613270e+05 1.181679e+05        0
1.181679e+05 -7.304590e+04        0
       0        0        0

-3.380404e+05 1.086115e+05        0
1.086115e+05 -7.322349e+04        0
       0        0        0

-5.148979e+05 8.951533e+04        0
8.951533e+04 -7.358598e+04        0
       0        0        0

-6.918973e+05 6.088265e+04        0
6.088265e+04 -7.413101e+04        0
       0        0        0

-8.690350e+05 2.271673e+04        0
2.271673e+04 -7.485511e+04        0
       0        0        0

6.727496e+05 2.273915e+04        0
2.273915e+04 -7.925863e+04        0
       0        0        0

5.063643e+05 6.092987e+04        0
6.092987e+04 -7.846843e+04        0
       0        0        0

3.398235e+05 8.956489e+04        0
8.956489e+04 -7.786983e+04        0
       0        0        0

1.731238e+05 1.086474e+05        0
1.086474e+05 -7.746605e+04        0
       0        0        0

6.262879e+03 1.181806e+05        0
1.181806e+05 -7.725929e+04        0
       0        0        0

-1.607601e+05 1.181679e+05        0
1.181679e+05 -7.725069e+04        0
       0        0        0

-3.279448e+05 1.086121e+05        0
1.086121e+05 -7.744030e+04        0
       0        0        0

-4.952900e+05 8.951651e+04        0
8.951651e+04 -7.782701e+04        0
       0        0        0

-6.627933e+05 6.088389e+04        0
6.088389e+04 -7.840849e+04        0
       0        0        0

-8.304513e+05 2.271735e+04        0
2.271735e+04 -7.918115e+04        0
       0        0        0

6.255623e+05 2.273859e+04        0
2.273859e+04 -8.345202e+04        0
       0        0        0

4.687842e+05 6.092860e+04        0
6.092860e+04 -8.261621e+04        0
       0        0        0

3.118350e+05 8.956335e+04        0
8.956335e+04 -8.198342e+04        0
       0        0        0

1.547113e+05 1.086460e+05        0
1.086460e+05 -8.155678e+04        0
       0        0        0

-2.589332e+03 1.181797e+05        0
1.181797e+05 -8.133849e+04        0
       0        0        0

-1.600676e+05 1.181676e+05        0
1.181676e+05 -8.132976e+04        0
       0        0        0

-3.177230e+05 1.086127e+05        0
1.086127e+05 -8.153073e+04        0
       0        0        0

-4.755540e+05 8.951773e+04        0
8.951773e+04 -8.194037e+04        0
       0        0        0

-6.335585e+05 6.088526e+04        0
6.088526e+04 -8.255636e+04        0
       0        0        0

-7.917331e+05 2.271804e+04        0
2.271804e+04 -8.337502e+04        0
       0        0        0

5.785286e+05 2.273817e+04        0
2.273817e+04 -8.749418e+04        0
       0        0        0

4.313542e+05 6.092752e+04        0
6.092752e+04 -8.661559e+04        0
       0        0        0

2.839942e+05 8.956185e+04        0
8.956185e+04 -8.595072e+04        0
       0        0        0

1.364444e+05 1.086444e+05        0
1.086444e+05 -8.550260e+04        0
       0        0        0

-1.129712e+04 1.181785e+05        0
1.181785e+05 -8.527347e+04        0
       0        0        0

-1.592310e+05 1.181672e+05        0
1.181672e+05 -8.526462e+04        0
       0        0        0

-3.073564e+05 1.086132e+05        0
1.086132e+05 -8.547630e+04        0
       0        0        0

-4.556717e+05 8.951900e+04        0
8.951900e+04 -8.590754e+04        0
       0        0        0

-6.041745e+05 6.088680e+04        0
6.088680e+04 -8.655609e+04        0
       0        0        0

-7.528619e+05 2.271886e+04        0
2.271886e+04 -8.741819e+04        0
       0        0        0

5.316658e+05 2.273795e+04        0
2.273795e+04 -9.136769e+04        0
       0        0        0

3.940921e+05 6.092663e+04        0
6.092663e+04 -9.044910e+04        0
       0        0        0

2.563184e+05 8.956035e+04        0
8.956035e+04 -8.975416e+04        0
       0        0        0

1.183407e+05 1.086427e+05        0
1.086427e+05 -8.928591e+04        0
       0        0        0

-1.984304e+04 1.181771e+05        0
1.181771e+05 -8.904673e+04        0
       0        0        0

-1.582329e+05 1.181665e+05        0
1.181665e+05 -8.903797e+04        0
       0        0        0

-2.968278e+05 1.086135e+05        0
1.086135e+05 -8.925978e+04        0
       0        0        0

-4.356257e+05 8.952026e+04        0
8.952026e+04 -8.971126e+04        0
       0        0        0

-5.746240e+05 6.088854e+04        0
6.088854e+04 -9.039032e+04        0
       0        0        0

-7.138200e+05 2.271989e+04        0
2.271989e+04 -9.129325e+04        0
       0        0        0

4.849900e+05 2.273796e+04        0
2.273796e+04 -9.505616e+04        0
       0        0        0

3.570143e+05 6.092577e+04        0
6.092577e+04 -9.410011e+04        0
       0        0        0

2.288244e+05 8.955862e+04        0
8.955862e+04 -9.337680e+04        0
       0        0        0

1.004164e+05 1.086409e+05        0
1.086409e+05 -9.288973e+04        0
       0        0        0

-2.821084e+04 1.181759e+05        0
1.181759e+05 -9.264170e+04        0
       0        0        0

-1.570570e+05 1.181660e+05        0
1.181660e+05 -9.263378e+04        0
       0        0        0

-2.861209e+05 1.086137e+05        0
1.086137e+05 -9.286554e+04        0
       0        0        0

-4.153999e+05 8.952130e+04        0
8.952130e+04 -9.333582e+04        0
       0        0        0

-5.448908e+05 6.089031e+04        0
6.089031e+04 -9.404299e+04        0
       0        0        0

-6.745908e+05 2.272114e+04        0
2.272114e+04 -9.498387e+04        0
       0        0        0

4.385165e+05 2.273798e+04        0
2.273798e+04 -9.854412e+04        0
       0        0        0

3.201365e+05 6.092413e+04        0
6.092413e+04 -9.755241e+04        0
       0        0        0

2.015270e+05 8.955604e+04        0
8.955604e+04 -9.680154e+04        0
       0        0        0

8.268605e+04 1.086393e+05        0
1.086393e+05 -9.629692e+04        0
       0        0        0

-3.638570e+04 1.181760e+05        0
1.181760e+05 -9.604233e+04        0
       0        0        0

-1.556878e+05 1.181669e+05        0
1.181669e+05 -9.603768e+04        0
       0        0        0

-2.752197e+05 1.086142e+05        0
1.086142e+05 -9.628030e+04        0
       0        0        0

-3.949789e+05 8.952148e+04        0
8.952148e+04 -9.676788e+04        0
       0        0        0

-5.149601e+05 6.089129e+04        0
6.089129e+04 -9.749979e+04        0
       0        0        0

-6.351590e+05 2.272241e+04        0
2.272241e+04 -9.847493e+04        0
       0        0        0

3.922608e+05 2.273705e+04        0
2.273705e+04 -1.018168e+05        0
       0        0        0

2.834737e+05 6.091918e+04        0
6.091918e+04 -1.007892e+05        0
       0        0        0

1.744389e+05 8.955103e+04        0
8.955103e+04 -1.000095e+05        0
       0        0        0

6.516112e+04 1.086394e+05        0
1.086394e+05 -9.948864e+04        0
       0        0        0

-4.435479e+04 1.181814e+05        0
1.181814e+05 -9.923256e+04        0
       0        0        0

-1.541098e+05 1.181730e+05        0
1.181730e+05 -9.923756e+04        0
       0        0        0

-2.641076e+05 1.086162e+05        0
1.086162e+05 -9.949471e+04        0
       0        0        0

-3.743470e+05 8.951924e+04        0
8.951924e+04 -9.999807e+04        0
       0        0        0

-4.848186e+05 6.088897e+04        0
6.088897e+04 -1.007491e+05        0
       0        0        0

-5.955116e+05 2.272272e+04        0
2.272272e+04 -1.017526e+05        0
       0        0        0

3.462408e+05 2.273213e+04        0
2.273213e+04 -1.048596e+05        0
       0        0        0

2.470402e+05 6.090435e+04        0
6.090435e+04 -1.037913e+05        0
       0        0        0

1.475679e+05 8.953998e+04        0
8.953998e+04 -1.029768e+05        0
       0        0        0

4.784706e+04 1.086446e+05        0
1.086446e+05 -1.024414e+05        0
       0        0        0

-5.210859e+04 1.182015e+05        0
1.182015e+05 -1.021950e+05        0
       0        0        0

-1.523066e+05 1.181938e+05        0
1.181938e+05 -1.022248e+05        0
       0        0        0

-2.527641e+05 1.086235e+05        0
1.086235e+05 -1.025064e+05        0
       0        0        0

-3.534861e+05 8.951095e+04        0
8.951095e+04 -1.030243e+05        0
       0        0        0

-4.544544e+05 6.087677e+04        0
6.087677e+04 -1.037842e+05        0
       0        0        0

-5.556397e+05 2.271905e+04        0
2.271905e+04 -1.048050e+05        0
       0        0        0

3.004822e+05 2.271539e+04        0
2.271539e+04 -1.076574e+05        0
       0        0        0

2.108493e+05 6.086437e+04        0
6.086437e+04 -1.065333e+05        0
       0        0        0

1.209111e+05 8.951546e+04        0
8.951546e+04 -1.056691e+05        0
       0        0        0

3.073692e+04 1.086641e+05        0
1.086641e+05 -1.051219e+05        0
       0        0        0

-5.964355e+04 1.182578e+05        0
1.182578e+05 -1.049091e+05        0
       0        0        0

-1.502580e+05 1.182508e+05        0
1.182508e+05 -1.049962e+05        0
       0        0        0

-2.411586e+05 1.086450e+05        0
1.086450e+05 -1.053249e+05        0
       0        0        0

-3.323700e+05 8.948920e+04        0
8.948920e+04 -1.058577e+05        0
       0        0        0

-4.238570e+05 6.083943e+04        0
6.083943e+04 -1.066065e+05        0
       0        0        0

-5.155448e+05 2.270357e+04        0
2.270357e+04 -1.076228e+05        0
       0        0        0

2.550302e+05 2.266861e+04        0
2.266861e+04 -1.101928e+05        0
       0        0        0

1.749112e+05 6.076689e+04        0
6.076689e+04 -1.089786e+05        0
       0        0        0

9.444394e+04 8.946363e+04        0
8.946363e+04 -1.080332e+05        0
       0        0        0

1.379929e+04 1.087177e+05        0
1.087177e+05 -1.074804e+05        0
       0        0        0

-6.696699e+04 1.183950e+05        0
1.183950e+05 -1.073481e+05        0
       0        0        0

-1.479345e+05 1.183887e+05        0
1.183887e+05 -1.075565e+05        0
       0        0        0

-2.292386e+05 1.087005e+05        0
1.087005e+05 -1.079789e+05        0
       0        0        0

-3.109536e+05 8.944014e+04        0
8.944014e+04 -1.085307e+05        0
       0        0        0

-3.930164e+05 6.074460e+04        0
6.074460e+04 -1.092323e+05        0
       0        0        0

-4.752498e+05 2.265805e+04        0
2.265805e+04 -1.102010e+05        0
       0        0        0

2.099707e+05 2.255312e+04        0
2.255312e+04 -1.124452e+05        0
       0        0        0

1.392276e+05 6.054966e+04        0
6.054966e+04 -1.110720e+05        0
       0        0        0

6.809783e+04 8.936201e+04        0
8.936201e+04 -1.099896e+05        0
       0        0        0

-3.042201e+03 1.088455e+05        0
1.088455e+05 -1.094456e+05        0
       0        0        0

-7.410476e+04 1.186961e+05        0
1.186961e+05 -1.094775e+05        0
       0        0        0

-1.452897e+05 1.186906e+05        0
1.186906e+05 -1.099193e+05        0
       0        0        0

-2.169085e+05 1.088304e+05        0
1.088304e+05 -1.105207e+05        0
       0        0        0

-2.891518e+05 8.934130e+04        0
8.934130e+04 -1.111065e+05        0
       0        0        0

-3.619182e+05 6.053005e+04        0
6.053005e+04 -1.117009e+05        0
       0        0        0

-4.348222e+05 2.254384e+04        0
2.254384e+04 -1.125421e+05        0
       0        0        0

1.654676e+05 2.229389e+04        0
2.229389e+04 -1.143894e+05        0
       0        0        0

1.037757e+05 6.010633e+04        0
6.010633e+04 -1.127378e+05        0
       0        0        0

4.172434e+04 8.918285e+04        0
8.918285e+04 -1.114369e+05        0
       0        0        0

-1.993674e+04 1.091211e+05        0
1.091211e+05 -1.109352e+05        0
       0        0        0

-8.111029e+04 1.192969e+05        0
1.192969e+05 -1.112604e+05        0
       0        0        0

-1.422485e+05 1.192922e+05        0
1.192922e+05 -1.121001e+05        0
       0        0        0

-2.040019e+05 1.091080e+05        0
1.091080e+05 -1.130150e+05        0
       0        0        0

-2.668047e+05 8.916493e+04        0
8.916493e+04 -1.136749e+05        0
       0        0        0

-3.305323e+05 6.008944e+04        0
6.008944e+04 -1.140806e+05        0
       0        0        0

-3.944153e+05 2.228592e+04        0
2.228592e+04 -1.146607e+05        0
       0        0        0

1.218143e+05 2.175987e+04        0
2.175987e+04 -1.160001e+05        0
       0        0        0

6.846991e+04 5.928775e+04        0
5.928775e+04 -1.139016e+05        0
       0        0        0

1.504776e+04 8.891653e+04        0
8.891653e+04 -1.123083e+05        0
       0        0        0

-3.712658e+04 1.096611e+05        0
1.096611e+05 -1.119237e+05        0
       0        0        0

-8.806576e+04 1.203706e+05        0
1.203706e+05 -1.126850e+05        0
       0        0        0

-1.387020e+05 1.203666e+05        0
1.203666e+05 -1.140839e+05        0
       0        0        0

-1.902583e+05 1.096500e+05        0
1.096500e+05 -1.154691e+05        0
       0        0        0

-2.436324e+05 8.890144e+04        0
8.890144e+04 -1.162985e+05        0
       0        0        0

-2.987810e+05 5.927361e+04        0
5.927361e+04 -1.164537e+05        0
       0        0        0

-3.543298e+05 2.175326e+04        0
2.175326e+04 -1.165894e+05        0
       0        0        0

7.947515e+04 2.075678e+04        0
2.075678e+04 -1.172821e+05        0
       0        0        0

3.307865e+04 5.797447e+04        0
5.797447e+04 -1.145899e+05        0
       0        0        0

-1.236393e+04 8.865059e+04        0
8.865059e+04 -1.127886e+05        0
       0        0        0

-5.490063e+04 1.106013e+05        0
1.106013e+05 -1.126577e+05        0
       0        0        0

-9.504947e+04 1.220074e+05        0
1.220074e+05 -1.138552e+05        0
       0        0        0

-1.345317e+05 1.220041e+05        0
1.220041e+05 -1.157267e+05        0
       0        0        0

-1.753639e+05 1.105923e+05        0
1.105923e+05 -1.176118e+05        0
       0        0        0

-2.192067e+05 8.863840e+04        0
8.863840e+04 -1.187962e+05        0
       0        0        0

-2.664683e+05 5.796312e+04        0
5.796312e+04 -1.188293e+05        0
       0        0        0

-3.150782e+05 2.075156e+04        0
2.075156e+04 -1.183719e+05        0
       0        0        0

3.901604e+04 1.910250e+04        0
1.910250e+04 -1.183311e+05        0
       0        0        0

-2.945801e+03 5.638064e+04        0
5.638064e+04 -1.153385e+05        0
       0        0        0

-4.097162e+04 8.874194e+04        0
8.874194e+04 -1.139163e+05        0
       0        0        0

-7.334316e+04 1.119428e+05        0
1.119428e+05 -1.141993e+05        0
       0        0        0

-1.020044e+05 1.238170e+05        0
1.238170e+05 -1.151847e+05        0
       0        0        0

-1.297257e+05 1.238146e+05        0
1.238146e+05 -1.165458e+05        0
       0        0        0

-1.591896e+05 1.119363e+05        0
1.119363e+05 -1.183359e+05        0
       0        0        0

-1.930733e+05 8.873286e+04        0
8.873286e+04 -1.201362e+05        0
       0        0        0

-2.331278e+05 5.637209e+04        0
5.637209e+04 -1.207525e+05        0
       0        0        0

-2.773664e+05 1.909865e+04        0
1.909865e+04 -1.200521e+05        0
       0        0        0

5.231885e+02 1.710271e+04        0
1.710271e+04 -1.199683e+05        0
       0        0        0

-4.055900e+04 5.592265e+04        0
5.592265e+04 -1.183223e+05        0
       0        0        0

-7.064224e+04 9.001307e+04        0
9.001307e+04 -1.192608e+05        0
       0        0        0

-9.160225e+04 1.128998e+05        0
1.128998e+05 -1.193451e+05        0
       0        0        0

-1.084793e+05 1.240404e+05        0
1.240404e+05 -1.176209e+05        0
       0        0        0

-1.246149e+05 1.240392e+05        0
1.240392e+05 -1.154734e+05        0
       0        0        0

-1.424954e+05 1.128964e+05        0
1.128964e+05 -1.147534e+05        0
       0        0        0

-1.653497e+05 9.000769e+04        0
9.000769e+04 -1.167341e+05        0
       0        0        0

-1.979384e+05 5.591692e+04        0
5.591692e+04 -1.201833e+05        0
       0        0        0

-2.416132e+05 1.710010e+04        0
1.710010e+04 -1.211410e+05        0
       0        0        0

-3.838756e+04 1.780089e+04        0
1.780089e+04 -1.241547e+05        0
       0        0        0

-8.056431e+04 6.133461e+04        0
6.133461e+04 -1.329179e+05        0
       0        0        0

-9.823377e+04 9.241439e+04        0
9.241439e+04 -1.376493e+05        0
       0        0        0

-1.069299e+05 1.101518e+05        0
1.101518e+05 -1.330247e+05        0
       0        0        0

-1.134903e+05 1.182691e+05        0
1.182691e+05 -1.226657e+05        0
       0        0        0

-1.199857e+05 1.182695e+05        0
1.182695e+05 -1.108102e+05        0
       0        0        0

-1.278480e+05 1.101525e+05        0
1.101525e+05 -1.017531e+05        0
       0        0        0

-1.390687e+05 9.241419e+04        0
9.241419e+04 -9.965328e+04        0
       0        0        0

-1.602170e+05 6.133242e+04        0
6.133242e+04 -1.078653e+05        0
       0        0        0

-2.060740e+05 1.779909e+04        0
1.779909e+04 -1.203165e+05        0
       0        0        0

-9.041227e+04 4.054631e+04        0
4.054631e+04 -1.562833e+05        0
       0        0        0

-1.138421e+05 7.593486e+04        0
7.593486e+04 -1.858539e+05        0
       0        0        0

-1.150718e+05 8.920336e+04        0
8.920336e+04 -1.817339e+05        0
       0        0        0

-1.153875e+05 9.571255e+04        0
9.571255e+04 -1.608397e+05        0
       0        0        0

-1.157489e+05 9.856239e+04        0
9.856239e+04 -1.317915e+05        0
       0        0        0

-1.168366e+05 9.856429e+04        0
9.856429e+04 -1.007937e+05        0
       0        0        0

-1.188659e+05 9.571771e+04        0
9.571771e+04 -7.341100e+04        0
       0        0        0

-1.225609e+05 8.921016e+04        0
8.921016e+04 -5.589328e+04        0
       0        0        0

-1.289065e+05 7.594047e+04        0
7.594047e+04 -5.688864e+04        0
       0        0        0

-1.586523e+05 4.054609e+04        0
4.054609e+04 -9.278138e+04        0
       0        0        0

POINT_DATA     451
VECTORS DISPLACEMENT_7.600000e-01 double
0.000000e+00    0.000000e+00    0.000000e+00
0.000000e+00    0.000000e+00    0.000000e+00
0.000000e+00    0.000000e+00    0.000000e+00
0.000000e+00    0.000000e+00    0.000000e+00
0.000000e+00    0.000000e+00    0.000000e+00
0.000000e+00    0.000000e+00    0.000000e+00
0.000000e+00    0.000000e+00    0.000000e+00
0.000000e+00    0.000000e+00    0.000000e+00
0.000000e+00    0.000000e+00    0.000000e+00
0.000000e+00    0.000000e+00    0.000000e+00
0.000000e+00    0.000000e+00    0.000000e+00
-1.141595e-06    -8.299605e-07    0.000000e+00
-7.233448e-07    -4.163094e-07    0.000000e+00
-5.161144e-07    -2.157261e-07    0.000000e+00
-3.332233e-07    -1.068318e-07    0.000000e+00
-1.642863e-07    -5.047426e-08    0.000000e+00
-3.560877e-20    -3.295145e-08    0.000000e+00
1.642863e-07    -5.047426e-08    0.000000e+00
3.332233e-07    -1.068318e-07    0.000000e+00
5.161144e-07    -2.157261e-07    0.000000e+00
7.233448e-07    -4.163094e-07    0.000000e+00
1.141595e-06    -8.299605e-07    0.000000e+00
-2.153941e-06    -1.380309e-06    0.000000e+00
-1.574436e-06    -9.987668e-07    0.000000e+00
-1.105093e-06    -7.015532e-07    0.000000e+00
-7.128292e-07    -5.177059e-07    0.000000e+00
-3.501023e-07    -4.175298e-07    0.000000e+00
-7.517335e-20    -3.857102e-07    0.000000e+00
3.501023e-07    -4.175298e-07    0.000000e+00
7.128292e-07    -5.177059e-07    0.000000e+00
1.105093e-06    -7.015532e-07    0.000000e+00
1.574436e-06    -9.987668e-07    0.000000e+00
2.153941e-06    -1.380309e-06    0.000000e+00
-3.132427e-06    -2.064634e-06    0.000000e+00
-2.394168e-06    -1.682257e-06    0.000000e+00
-1.722702e-06    -1.380761e-06    0.000000e+00
-1.115240e-06    -1.168096e-06    0.000000e+00
-5.487489e-07    -1.045521e-06    0.000000e+00
-1.181479e-19    -1.005593e-06    0.000000e+00
5.487489e-07    -1.045521e-06    0.000000e+00
1.115240e-06    -1.168096e-06    0.000000e+00
1.722702e-06    -1.380761e-06    0.000000e+00
2.394168e-06    -1.682257e-06    0.000000e+00
3.132427e-06    -2.064634e-06    0.000000e+00
-4.100076e-06    -2.909172e-06    0.000000e+00
-3.186876e-06    -2.535522e-06    0.000000e+00
-2.326958e-06    -2.239053e-06    0.000000e+00
-1.519408e-06    -2.025105e-06    0.000000e+00
-7.500557e-07    -1.896684e-06    0.000000e+00
-1.626105e-19    -1.854101e-06    0.000000e+00
7.500557e-07    -1.896684e-06    0.000000e+00
1.519408e-06    -2.025105e-06    0.000000e+00
2.326958e-06    -2.239053e-06    0.000000e+00
3.186876e-06    -2.535522e-06    0.000000e+00
4.100076e-06    -2.909172e-06    0.000000e+00
-5.051341e-06    -3.936654e-06    0.000000e+00
-3.956477e-06    -3.571725e-06    0.000000e+00
-2.911986e-06    -3.284208e-06    0.000000e+00
-1.912865e-06    -3.075889e-06    0.000000e+00
-9.475500e-07    -2.949778e-06    0.000000e+00
-2.081186e-19    -2.907564e-06    0.000000e+00
9.475500e-07    -2.949778e-06    0.000000e+00
1.912865e-06    -3.075889e-06    0.000000e+00
2.911986e-06    -3.284208e-06    0.000000e+00
3.956477e-06    -3.571725e-06    0.000000e+00
5.051341e-06    -3.936654e-06    0.000000e+00
-5.981873e-06    -5.149742e-06    0.000000e+00
-4.704513e-06    -4.794468e-06    0.000000e+00
-3.477740e-06    -4.516043e-06    0.000000e+00
-2.292922e-06    -4.315096e-06    0.000000e+00
-1.138484e-06    -4.193469e-06    0.000000e+00
-2.548246e-19    -4.152740e-06    0.000000e+00
1.138484e-06    -4.193469e-06    0.000000e+00
2.292922e-06    -4.315096e-06    0.000000e+00
3.477740e-06    -4.516043e-06    0.000000e+00
4.704513e-06    -4.794468e-06    0.000000e+00
5.981873e-06    -5.149742e-06    0.000000e+00
-6.888558e-06    -6.546376e-06    0.000000e+00
-5.431254e-06    -6.201154e-06    0.000000e+00
-4.025294e-06    -5.931590e-06    0.000000e+00
-2.659769e-06    -5.737829e-06    0.000000e+00
-1.322562e-06    -5.620886e-06    0.000000e+00
-2.989497e-19    -5.581769e-06    0.000000e+00
1.322562e-06    -5.620886e-06    0.000000e+00
2.659769e-06    -5.737829e-06    0.000000e+00
4.025294e-06    -5.931590e-06    0.000000e+00
5.431254e-06    -6.201154e-06    0.000000e+00
6.888558e-06    -6.546376e-06    0.000000e+00
-7.769676e-06    -8.122139e-06    0.000000e+00
-6.136609e-06    -7.787205e-06    0.000000e+00
-4.555509e-06    -7.526210e-06    0.000000e+00
-3.014226e-06    -7.339157e-06    0.000000e+00
-1.500173e-06    -7.226543e-06    0.000000e+00
-3.417249e-19    -7.188927e-06    0.000000e+00
1.500173e-06    -7.226543e-06    0.000000e+00
3.014226e-06    -7.339157e-06    0.000000e+00
4.555509e-06    -7.526210e-06    0.000000e+00
6.136609e-06    -7.787205e-06    0.000000e+00
7.769676e-06    -8.122139e-06    0.000000e+00
-8.624338e-06    -9.871838e-06    0.000000e+00
-6.820449e-06    -9.547301e-06    0.000000e+00
-5.068913e-06    -9.294676e-06    0.000000e+00
-3.356973e-06    -9.113935e-06    0.000000e+00
-1.671744e-06    -9.005300e-06    0.000000e+00
-3.865647e-19    -8.969049e-06    0.000000e+00
1.671744e-06    -9.005300e-06    0.000000e+00
3.356973e-06    -9.113935e-06    0.000000e+00
5.068913e-06    -9.294676e-06    0.000000e+00
6.820449e-06    -9.547301e-06    0.000000e+00
8.624338e-06    -9.871838e-06    0.000000e+00
-9.452128e-06    -1.179002e-05    0.000000e+00
-7.482678e-06    -1.147593e-05    0.000000e+00
-5.565791e-06    -1.123156e-05    0.000000e+00
-3.688437e-06    -1.105688e-05    0.000000e+00
-1.837569e-06    -1.095199e-05    0.000000e+00
-4.326221e-19    -1.091701e-05    0.000000e+00
1.837569e-06    -1.095199e-05    0.000000e+00
3.688437e-06    -1.105688e-05    0.000000e+00
5.565791e-06    -1.123156e-05    0.000000e+00
7.482678e-06    -1.147593e-05    0.000000e+00
9.452128e-06    -1.179002e-05    0.000000e+00
-1.025287e-05    -1.387120e-05    0.000000e+00
-8.123242e-06    -1.356758e-05    0.000000e+00
-6.046283e-06    -1.333140e-05    0.000000e+00
-4.008850e-06    -1.316265e-05    0.000000e+00
-1.997814e-06    -1.306137e-05    0.000000e+00
-4.726973e-19    -1.302760e-05    0.000000e+00
1.997814e-06    -1.306137e-05    0.000000e+00
4.008850e-06    -1.316265e-05    0.000000e+00
6.046283e-06    -1.333140e-05    0.000000e+00
8.123242e-06    -1.356758e-05    0.000000e+00
1.025287e-05    -1.387120e-05    0.000000e+00
-1.102648e-05    -1.610989e-05    0.000000e+00
-8.742113e-06    -1.581673e-05    0.000000e+00
-6.510452e-06    -1.558871e-05    0.000000e+00
-4.318325e-06    -1.542583e-05    0.000000e+00
-2.152566e-06    -1.532809e-05    0.000000e+00
-5.128784e-19    -1.529550e-05    0.000000e+00
2.152566e-06    -1.532809e-05    0.000000e+00
4.318325e-06    -1.542583e-05    0.000000e+00
6.510452e-06    -1.558871e-05    0.000000e+00
8.742113e-06    -1.581673e-05    0.000000e+00
1.102648e-05    -1.610989e-05    0.000000e+00
-1.177296e-05    -1.850062e-05    0.000000e+00
-9.339276e-06    -1.821793e-05    0.000000e+00
-6.958324e-06    -1.799806e-05    0.000000e+00
-4.616914e-06    -1.784101e-05    0.000000e+00
-2.301865e-06    -1.774678e-05    0.000000e+00
-5.615299e-19    -1.771537e-05    0.000000e+00
2.301865e-06    -1.774678e-05    0.000000e+00
4.616914e-06    -1.784101e-05    0.000000e+00
6.958324e-06    -1.799806e-05    0.000000e+00
9.339276e-06    -1.821793e-05    0.000000e+00
1.177296e-05    -1.850062e-05    0.000000e+00
-1.249228e-05    -2.103794e-05    0.000000e+00
-9.914727e-06    -2.076572e-05    0.000000e+00
-7.389909e-06    -2.055400e-05    0.000000e+00
-4.904637e-06    -2.040277e-05    0.000000e+00
-2.445728e-06    -2.031204e-05    0.000000e+00
-5.895349e-19    -2.028179e-05    0.000000e+00
2.445728e-06    -2.031204e-05    0.000000e+00
4.904637e-06    -2.040277e-05    0.000000e+00
7.389909e-06    -2.055400e-05    0.000000e+00
9.914727e-06    -2.076572e-05    0.000000e+00
1.249228e-05    -2.103794e-05    0.000000e+00
-1.318446e-05    -2.371642e-05    0.000000e+00
-1.046846e-05    -2.345467e-05    0.000000e+00
-7.805208e-06    -2.325109e-05    0.000000e+00
-5.181501e-06    -2.310568e-05    0.000000e+00
-2.584160e-06    -2.301844e-05    0.000000e+00
-6.152636e-19    -2.298935e-05    0.000000e+00
2.584160e-06    -2.301844e-05    0.000000e+00
5.181501e-06    -2.310568e-05    0.000000e+00
7.805208e-06    -2.325109e-05    0.000000e+00
1.046846e-05    -2.345467e-05    0.000000e+00
1.318446e-05    -2.371642e-05    0.000000e+00
-1.384949e-05    -2.653062e-05    0.000000e+00
-1.100049e-05    -2.627934e-05    0.000000e+00
-8.204222e-06    -2.608391e-05    0.000000e+00
-5.447509e-06    -2.594431e-05    0.000000e+00
-2.717163e-06    -2.586055e-05    0.000000e+00
-6.354865e-19    -2.583264e-05    0.000000e+00
2.717163e-06    -2.586055e-05    0.000000e+00
5.447509e-06    -2.594431e-05    0.000000e+00
8.204222e-06    -2.608391e-05    0.000000e+00
1.100049e-05    -2.627934e-05    0.000000e+00
1.384949e-05    -2.653062e-05    0.000000e+00
-1.448737e-05    -2.947511e-05    0.000000e+00
-1.151079e-05    -2.923430e-05    0.000000e+00
-8.586950e-06    -2.904701e-05    0.000000e+00
-5.702661e-06    -2.891323e-05    0.000000e+00
-2.844739e-06    -2.883296e-05    0.000000e+00
-6.414157e-19    -2.880621e-05    0.000000e+00
2.844739e-06    -2.883296e-05    0.000000e+00
5.702661e-06    -2.891323e-05    0.000000e+00
8.586950e-06    -2.904701e-05    0.000000e+00
1.151079e-05    -2.923430e-05    0.000000e+00
1.448737e-05    -2.947511e-05    0.000000e+00
-1.509811e-05    -3.254446e-05    0.000000e+00
-1.199938e-05    -3.231413e-05    0.000000e+00
-8.953392e-06    -3.213498e-05    0.000000e+00
-5.946955e-06    -3.200701e-05    0.000000e+00
-2.966886e-06    -3.193024e-05    0.000000e+00
-6.567682e-19    -3.190464e-05    0.000000e+00
2.966886e-06    -3.193024e-05    0.000000e+00
5.946955e-06    -3.200701e-05    0.000000e+00
8.953392e-06    -3.213498e-05    0.000000e+00
1.199938e-05    -3.231413e-05    0.000000e+00
1.509811e-05    -3.254446e-05    0.000000e+00
-1.568170e-05    -3.573325e-05    0.000000e+00
-1.246626e-05    -3.551338e-05    0.000000e+00
-9.303549e-06    -3.534238e-05    0.000000e+00
-6.180392e-06    -3.522023e-05    0.000000e+00
-3.083604e-06    -3.514694e-05    0.000000e+00
-6.907554e-19    -3.512251e-05    0.000000e+00
3.083604e-06    -3.514694e-05    0.000000e+00
6.180392e-06    -3.522023e-05    0.000000e+00
9.303549e-06    -3.534238e-05    0.000000e+00
1.246626e-05    -3.551338e-05    0.000000e+00
1.568170e-05    -3.573325e-05    0.000000e+00
-1.623815e-05    -3.903604e-05    0.000000e+00
-1.291142e-05    -3.882665e-05    0.000000e+00
-9.637419e-06    -3.866378e-05    0.000000e+00
-6.402972e-06    -3.854745e-05    0.000000e+00
-3.194894e-06    -3.847765e-05    0.000000e+00
-7.411538e-19    -3.845439e-05    0.000000e+00
3.194894e-06    -3.847765e-05    0.000000e+00
6.402972e-06    -3.854745e-05    0.000000e+00
9.637419e-06    -3.866378e-05    0.000000e+00
1.291142e-05    -3.882665e-05    0.000000e+00
1.623815e-05    -3.903604e-05    0.000000e+00
-1.676746e-05    -4.244741e-05    0.000000e+00
-1.333486e-05    -4.224848e-05    0.000000e+00
-9.955003e-06    -4.209376e-05    0.000000e+00
-6.614695e-06    -4.198325e-05    0.000000e+00
-3.300755e-06    -4.191694e-05    0.000000e+00
-8.067989e-19    -4.189484e-05    0.000000e+00
3.300755e-06    -4.191694e-05    0.000000e+00
6.614695e-06    -4.198325e-05    0.000000e+00
9.955003e-06    -4.209376e-05    0.000000e+00
1.333486e-05    -4.224848e-05    0.000000e+00
1.676746e-05    -4.244741e-05    0.000000e+00
-1.726962e-05    -4.596192e-05    0.000000e+00
-1.373659e-05    -4.577347e-05    0.000000e+00
-1.025630e-05    -4.562689e-05    0.000000e+00
-6.815560e-06    -4.552219e-05    0.000000e+00
-3.401188e-06    -4.545937e-05    0.000000e+00
-8.593149e-19    -4.543843e-05    0.000000e+00
3.401188e-06    -4.545937e-05    0.000000e+00
6.815560e-06    -4.552219e-05    0.000000e+00
1.025630e-05    -4.562689e-05    0.000000e+00
1.373659e-05    -4.577347e-05    0.000000e+00
1.726962e-05    -4.596192e-05    0.000000e+00
-1.774464e-05    -4.957415e-05    0.000000e+00
-1.411661e-05    -4.939617e-05    0.000000e+00
-1.054131e-05    -4.925773e-05    0.000000e+00
-7.005568e-06    -4.915885e-05    0.000000e+00
-3.496192e-06    -4.909952e-05    0.000000e+00
-8.946786e-19    -4.907975e-05    0.000000e+00
3.496192e-06    -4.909952e-05    0.000000e+00
7.005568e-06    -4.915885e-05    0.000000e+00
1.054131e-05    -4.925773e-05    0.000000e+00
1.411661e-05    -4.939617e-05    0.000000e+00
1.774464e-05    -4.957415e-05    0.000000e+00
-1.819252e-05    -5.327868e-05    0.000000e+00
-1.447491e-05    -5.311116e-05    0.000000e+00
-1.081004e-05    -5.298087e-05    0.000000e+00
-7.184718e-06    -5.288780e-05    0.000000e+00
-3.585767e-06    -5.283196e-05    0.000000e+00
-9.395713e-19    -5.281335e-05    0.000000e+00
3.585767e-06    -5.283196e-05    0.000000e+00
7.184718e-06    -5.288780e-05    0.000000e+00
1.081004e-05    -5.298087e-05    0.000000e+00
1.447491e-05    -5.311116e-05    0.000000e+00
1.819252e-05    -5.327868e-05    0.000000e+00
-1.861325e-05    -5.707006e-05    0.000000e+00
-1.481149e-05    -5.691301e-05    0.000000e+00
-1.106248e-05    -5.679086e-05    0.000000e+00
-7.353011e-06    -5.670361e-05    0.000000e+00
-3.669914e-06    -5.665126e-05    0.000000e+00
-9.543944e-19    -5.663381e-05    0.000000e+00
3.669914e-06    -5.665126e-05    0.000000e+00
7.353011e-06    -5.670361e-05    0.000000e+00
1.106248e-05    -5.679086e-05    0.000000e+00
1.481149e-05    -5.691301e-05    0.000000e+00
1.861325e-05    -5.707006e-05    0.000000e+00
-1.900683e-05    -6.094287e-05    0.000000e+00
-1.512636e-05    -6.079629e-05    0.000000e+00
-1.129863e-05    -6.068229e-05    0.000000e+00
-7.510448e-06    -6.060086e-05    0.000000e+00
-3.748633e-06    -6.055200e-05    0.000000e+00
-9.696410e-19    -6.053571e-05    0.000000e+00
3.748633e-06    -6.055200e-05    0.000000e+00
7.510448e-06    -6.060086e-05    0.000000e+00
1.129863e-05    -6.068229e-05    0.000000e+00
1.512636e-05    -6.079629e-05    0.000000e+00
1.900683e-05    -6.094287e-05    0.000000e+00
-1.937327e-05    -6.489169e-05    0.000000e+00
-1.541952e-05    -6.475558e-05    0.000000e+00
-1.151850e-05    -6.464972e-05    0.000000e+00
-7.657028e-06    -6.457410e-05    0.000000e+00
-3.821923e-06    -6.452873e-05    0.000000e+00
-9.747232e-19    -6.451361e-05    0.000000e+00
3.821923e-06    -6.452873e-05    0.000000e+00
7.657028e-06    -6.457410e-05    0.000000e+00
1.151850e-05    -6.464972e-05    0.000000e+00
1.541952e-05    -6.475558e-05    0.000000e+00
1.937327e-05    -6.489169e-05    0.000000e+00
-1.971256e-05    -6.891107e-05    0.000000e+00
-1.569095e-05    -6.878544e-05    0.000000e+00
-1.172208e-05    -6.868772e-05    0.000000e+00
-7.792750e-06    -6.861792e-05    0.000000e+00
-3.889784e-06    -6.857604e-05    0.000000e+00
-9.647705e-19    -6.856208e-05    0.000000e+00
3.889784e-06    -6.857604e-05    0.000000e+00
7.792750e-06    -6.861792e-05    0.000000e+00
1.172208e-05    -6.868772e-05    0.000000e+00
1.569095e-05    -6.878544e-05    0.000000e+00
1.971256e-05    -6.891107e-05    0.000000e+00
-2.002471e-05    -7.299559e-05    0.000000e+00
-1.594068e-05    -7.288043e-05    0.000000e+00
-1.190938e-05    -7.279086e-05    0.000000e+00
-7.917611e-06    -7.272688e-05    0.000000e+00
-3.952212e-06    -7.268851e-05    0.000000e+00
-9.645588e-19    -7.267572e-05    0.000000e+00
3.952212e-06    -7.268851e-05    0.000000e+00
7.917611e-06    -7.272688e-05    0.000000e+00
1.190938e-05    -7.279086e-05    0.000000e+00
1.594068e-05    -7.288043e-05    0.000000e+00
2.002471e-05    -7.299559e-05    0.000000e+00
-2.030971e-05    -7.713981e-05    0.000000e+00
-1.616869e-05    -7.703511e-05    0.000000e+00
-1.208038e-05    -7.695370e-05    0.000000e+00
-8.031599e-06    -7.689557e-05    0.000000e+00
-4.009198e-06    -7.686071e-05    0.000000e+00
-9.829817e-19    -7.684909e-05    0.000000e+00
4.009198e-06    -7.686071e-05    0.000000e+00
8.031599e-06    -7.689557e-05    0.000000e+00
1.208038e-05    -7.695370e-05    0.000000e+00
1.616869e-05    -7.703511e-05    0.000000e+00
2.030971e-05    -7.713981e-05    0.000000e+00
-2.056757e-05    -8.133827e-05    0.000000e+00
-1.637501e-05    -8.124404e-05    0.000000e+00
-1.223508e-05    -8.117079e-05    0.000000e+00
-8.134685e-06    -8.111855e-05    0.000000e+00
-4.060719e-06    -8.108725e-05    0.000000e+00
-1.016863e-18    -8.107682e-05    0.000000e+00
4.060719e-06    -8.108725e-05    0.000000e+00
8.134685e-06    -8.111855e-05    0.000000e+00
1.223508e-05    -8.117079e-05    0.000000e+00
1.637501e-05    -8.124404e-05    0.000000e+00
2.056757e-05    -8.133827e-05    0.000000e+00
-2.079833e-05    -8.558550e-05    0.000000e+00
-1.655963e-05    -8.550173e-05    0.000000e+00
-1.237344e-05    -8.543669e-05    0.000000e+00
-8.226802e-06    -8.539041e-05    0.000000e+00
-4.106724e-06    -8.536275e-05    0.000000e+00
-1.089708e-18    -8.535356e-05    0.000000e+00
4.106724e-06    -8.536275e-05    0.000000e+00
8.226802e-06    -8.539041e-05    0.000000e+00
1.237344e-05    -8.543669e-05    0.000000e+00
1.655963e-05    -8.550173e-05    0.000000e+00
2.079833e-05    -8.558550e-05    0.000000e+00
-2.100210e-05    -8.987603e-05    0.000000e+00
-1.672261e-05    -8.980269e-05    0.000000e+00
-1.249537e-05    -8.974594e-05    0.000000e+00
-8.307807e-06    -8.970578e-05    0.000000e+00
-4.147107e-06    -8.968192e-05    0.000000e+00
-1.162129e-18    -8.967401e-05    0.000000e+00
4.147107e-06    -8.968192e-05    0.000000e+00
8.307807e-06    -8.970578e-05    0.000000e+00
1.249537e-05    -8.974594e-05    0.000000e+00
1.672261e-05    -8.980269e-05    0.000000e+00
2.100210e-05    -8.987603e-05    0.000000e+00
-2.117912e-05    -9.420439e-05    0.000000e+00
-1.686399e-05    -9.414142e-05    0.000000e+00
-1.260070e-05    -9.409307e-05    0.000000e+00
-8.377428e-06    -9.405931e-05    0.000000e+00
-4.181679e-06    -9.403948e-05    0.000000e+00
-1.203210e-18    -9.403296e-05    0.000000e+00
4.181679e-06    -9.403948e-05    0.000000e+00
8.377428e-06    -9.405931e-05    0.000000e+00
1.260070e-05    -9.409307e-05    0.000000e+00
1.686399e-05    -9.414142e-05    0.000000e+00
2.117912e-05    -9.420439e-05    0.000000e+00
-2.132994e-05    -9.856523e-05    0.000000e+00
-1.698387e-05    -9.851248e-05    0.000000e+00
-1.268909e-05    -9.847276e-05    0.000000e+00
-8.435205e-06    -9.844575e-05    0.000000e+00
-4.210141e-06    -9.843026e-05    0.000000e+00
-1.255303e-18    -9.842523e-05    0.000000e+00
4.210141e-06    -9.843026e-05    0.000000e+00
8.435205e-06    -9.844575e-05    0.000000e+00
1.268909e-05    -9.847276e-05    0.000000e+00
1.698387e-05    -9.851248e-05    0.000000e+00
2.132994e-05    -9.856523e-05    0.000000e+00
-2.145562e-05    -1.029537e-04    0.000000e+00
-1.708235e-05    -1.029109e-04    0.000000e+00
-1.275997e-05    -1.028800e-04    0.000000e+00
-8.480517e-06    -1.028600e-04    0.000000e+00
-4.232143e-06    -1.028489e-04    0.000000e+00
-1.309936e-18    -1.028454e-04    0.000000e+00
4.232143e-06    -1.028489e-04    0.000000e+00
8.480517e-06    -1.028600e-04    0.000000e+00
1.275997e-05    -1.028800e-04    0.000000e+00
1.708235e-05    -1.029109e-04    0.000000e+00
2.145562e-05    -1.029537e-04    0.000000e+00
-2.155817e-05    -1.073660e-04    0.000000e+00
-1.715935e-05    -1.073327e-04    0.000000e+00
-1.281258e-05    -1.073105e-04    0.000000e+00
-8.512904e-06    -1.072970e-04    0.000000e+00
-4.247579e-06    -1.072895e-04    0.000000e+00
-1.256573e-18    -1.072870e-04    0.000000e+00
4.247579e-06    -1.072895e-04    0.000000e+00
8.512904e-06    -1.072970e-04    0.000000e+00
1.281258e-05    -1.073105e-04    0.000000e+00
1.715935e-05    -1.073327e-04    0.000000e+00
2.155817e-05    -1.073660e-04    0.000000e+00
-2.164067e-05    -1.118022e-04    0.000000e+00
-1.721429e-05    -1.117772e-04    0.000000e+00
-1.284670e-05    -1.117621e-04    0.000000e+00
-8.533270e-06    -1.117511e-04    0.000000e+00
-4.257281e-06    -1.117436e-04    0.000000e+00
-1.184152e-18    -1.117409e-04    0.000000e+00
4.257281e-06    -1.117436e-04    0.000000e+00
8.533270e-06    -1.117511e-04    0.000000e+00
1.284670e-05    -1.117621e-04    0.000000e+00
1.721429e-05    -1.117772e-04    0.000000e+00
2.164067e-05    -1.118022e-04    0.000000e+00
-2.170513e-05    -1.162704e-04    0.000000e+00
-1.724615e-05    -1.162523e-04    0.000000e+00
-1.286626e-05    -1.162338e-04    0.000000e+00
-8.546206e-06    -1.162132e-04    0.000000e+00
-4.263865e-06    -1.161978e-04    0.000000e+00
-1.179070e-18    -1.161922e-04    0.000000e+00
4.263865e-06    -1.161978e-04    0.000000e+00
8.546206e-06    -1.162132e-04    0.000000e+00
1.286626e-05    -1.162338e-04    0.000000e+00
1.724615e-05    -1.162523e-04    0.000000e+00
2.170513e-05    -1.162704e-04    0.000000e+00
-2.173924e-05    -1.208105e-04    0.000000e+00
-1.726634e-05    -1.207758e-04    0.000000e+00
-1.288608e-05    -1.207173e-04    0.000000e+00
-8.561321e-06    -1.206645e-04    0.000000e+00
-4.272039e-06    -1.206293e-04    0.000000e+00
-1.178435e-18    -1.206170e-04    0.000000e+00
4.272039e-06    -1.206293e-04    0.000000e+00
8.561321e-06    -1.206645e-04    0.000000e+00
1.288608e-05    -1.207173e-04    0.000000e+00
1.726634e-05    -1.207758e-04    0.000000e+00
2.173924e-05    -1.208105e-04    0.000000e+00

CELL_DATA      400
TENSORS Element_Stress7.600000e-01 double
1.820598e+06 2.551812e+05        0
2.551812e+05 4.163488e+05        0
       0        0        0

1.243720e+06 1.308538e+05        0
1.308538e+05 3.566178e+05        0
       0        0        0

8.651185e+05 4.301032e+04        0
4.301032e+04 2.749959e+05        0
       0        0        0

5.100063e+05 -3.578363e+03        0
-3.578363e+03 1.690094e+05        0
       0        0        0

1.688541e+05 -2.488323e+04        0
-2.488323e+04 5.694968e+04        0
       0        0        0

-1.688184e+05 -2.487711e+04        0
-2.487711e+04 -5.695775e+04        0
       0        0        0

-5.095306e+05 -3.579112e+03        0
-3.579112e+03 -1.688447e+05        0
       0        0        0

-8.637077e+05 4.293851e+04        0
4.293851e+04 -2.744671e+05        0
       0        0        0

-1.240734e+06 1.305652e+05        0
1.305652e+05 -3.554740e+05        0
       0        0        0

-1.814375e+06 2.543707e+05        0
2.543707e+05 -4.141970e+05        0
       0        0        0

1.642070e+06 4.159748e+04        0
4.159748e+04 4.234799e+03        0
       0        0        0

1.322354e+06 1.206454e+05        0
1.206454e+05 1.286843e+05        0
       0        0        0

9.082521e+05 9.900755e+04        0
9.900755e+04 1.315191e+05        0
       0        0        0

5.364025e+05 7.580678e+04        0
7.580678e+04 9.193311e+04        0
       0        0        0

1.768172e+05 6.321707e+04        0
6.321707e+04 3.207757e+04        0
       0        0        0

-1.778550e+05 6.319873e+04        0
6.319873e+04 -3.316896e+04        0
       0        0        0

-5.369363e+05 7.574133e+04        0
7.574133e+04 -9.284490e+04        0
       0        0        0

-9.077061e+05 9.886737e+04        0
9.886737e+04 -1.320379e+05        0
       0        0        0

-1.319830e+06 1.204079e+05        0
1.204079e+05 -1.284324e+05        0
       0        0        0

-1.637466e+06 4.151082e+04        0
4.151082e+04 -3.136555e+03        0
       0        0        0

1.584953e+06 1.541639e+04        0
1.541639e+04 6.615316e+03        0
       0        0        0

1.271591e+06 6.833109e+04        0
6.833109e+04 1.757728e+04        0
       0        0        0

9.146413e+05 1.015639e+05        0
1.015639e+05 4.237686e+04        0
       0        0        0

5.430826e+05 1.074765e+05        0
1.074765e+05 3.592346e+04        0
       0        0        0

1.791459e+05 1.074054e+05        0
1.074054e+05 1.272037e+04        0
       0        0        0

-1.824790e+05 1.073775e+05        0
1.073775e+05 -1.611190e+04        0
       0        0        0

-5.458838e+05 1.073933e+05        0
1.073933e+05 -3.912503e+04        0
       0        0        0

-9.163117e+05 1.014348e+05        0
1.014348e+05 -4.515293e+04        0
       0        0        0

-1.271565e+06 6.821622e+04        0
6.821622e+04 -1.966893e+04        0
       0        0        0

-1.582978e+06 1.538448e+04        0
1.538448e+04 -7.911807e+03        0
       0        0        0

1.546129e+06 1.427370e+04        0
1.427370e+04 -3.975752e+03        0
       0        0        0

1.226683e+06 5.548208e+04        0
5.548208e+04 -1.953361e+03        0
       0        0        0

8.865538e+05 9.245024e+04        0
9.245024e+04 2.933168e+03        0
       0        0        0

5.331314e+05 1.146030e+05        0
1.146030e+05 5.877770e+03        0
       0        0        0

1.753740e+05 1.233579e+05        0
1.233579e+05 6.880625e+02        0
       0        0        0

-1.820438e+05 1.233283e+05        0
1.233283e+05 -7.415933e+03        0
       0        0        0

-5.392752e+05 1.145213e+05        0
1.145213e+05 -1.241206e+04        0
       0        0        0

-8.916350e+05 9.234262e+04        0
9.234262e+04 -9.058365e+03        0
       0        0        0

-1.230189e+06 5.539388e+04        0
5.539388e+04 -3.528931e+03        0
       0        0        0

-1.547532e+06 1.424568e+04        0
1.424568e+04 -5.504384e+02        0
       0        0        0

1.509427e+06 1.713063e+04        0
1.713063e+04 -5.567249e+03        0
       0        0        0

1.185340e+06 5.448733e+04        0
5.448733e+04 -8.577651e+03        0
       0        0        0

8.541561e+05 8.905469e+04        0
8.905469e+04 -8.329305e+03        0
       0        0        0

5.137340e+05 1.136408e+05        0
1.136408e+05 -6.745280e+03        0
       0        0        0

1.681056e+05 1.258450e+05        0
1.258450e+05 -5.639044e+03        0
       0        0        0

-1.789903e+05 1.258166e+05        0
1.258166e+05 -5.300819e+03        0
       0        0        0

-5.241237e+05 1.135646e+05        0
1.135646e+05 -4.010288e+03        0
       0        0        0

-8.635542e+05 8.895612e+04        0
8.895612e+04 -2.042812e+03        0
       0        0        0

-1.193244e+06 5.440409e+04        0
5.440409e+04 -1.179541e+03        0
       0        0        0

-1.515273e+06 1.709766e+04        0
1.709766e+04 -3.264824e+03        0
       0        0        0

1.469671e+06 1.958963e+04        0
1.958963e+04 -7.911531e+03        0
       0        0        0

1.147077e+06 5.644559e+04        0
5.644559e+04 -1.054799e+04        0
       0        0        0

8.224151e+05 8.838594e+04        0
8.838594e+04 -1.192774e+04        0
       0        0        0

4.928620e+05 1.117722e+05        0
1.117722e+05 -1.113898e+04        0
       0        0        0

1.594065e+05 1.239614e+05        0
1.239614e+05 -9.157848e+03        0
       0        0        0

-1.752704e+05 1.239347e+05        0
1.239347e+05 -6.757342e+03        0
       0        0        0

-5.082716e+05 1.117003e+05        0
1.117003e+05 -4.611022e+03        0
       0        0        0

-8.369138e+05 8.829171e+04        0
8.829171e+04 -3.479956e+03        0
       0        0        0

-1.160194e+06 5.636191e+04        0
5.636191e+04 -4.312364e+03        0
       0        0        0

-1.480879e+06 1.955284e+04        0
1.955284e+04 -6.139554e+03        0
       0        0        0

1.427069e+06 2.114429e+04        0
2.114429e+04 -1.052964e+04        0
       0        0        0

1.109854e+06 5.834958e+04        0
5.834958e+04 -1.236661e+04        0
       0        0        0

7.924051e+05 8.864128e+04        0
8.864128e+04 -1.362108e+04        0
       0        0        0

4.726277e+05 1.103428e+05        0
1.103428e+05 -1.337050e+04        0
       0        0        0

1.506199e+05 1.216735e+05        0
1.216735e+05 -1.181697e+04        0
       0        0        0

-1.721469e+05 1.216483e+05        0
1.216483e+05 -9.757740e+03        0
       0        0        0

-4.937482e+05 1.102742e+05        0
1.102742e+05 -8.067258e+03        0
       0        0        0

-8.127094e+05 8.854973e+04        0
8.854973e+04 -7.533908e+03        0
       0        0        0

-1.128918e+06 5.826553e+04        0
5.826553e+04 -8.339735e+03        0
       0        0        0

-1.444434e+06 2.110561e+04        0
2.110561e+04 -9.528609e+03        0
       0        0        0

1.382471e+06 2.200181e+04        0
2.200181e+04 -1.363722e+04        0
       0        0        0

1.072891e+06 5.961398e+04        0
5.961398e+04 -1.472183e+04        0
       0        0        0

7.635785e+05 8.901007e+04        0
8.901007e+04 -1.557414e+04        0
       0        0        0

4.533125e+05 1.094858e+05        0
1.094858e+05 -1.552412e+04        0
       0        0        0

1.419522e+05 1.200358e+05        0
1.200358e+05 -1.458784e+04        0
       0        0        0

-1.697603e+05 1.200117e+05        0
1.200117e+05 -1.326479e+04        0
       0        0        0

-4.807667e+05 1.094198e+05        0
1.094198e+05 -1.222641e+04        0
       0        0        0

-7.903212e+05 8.892090e+04        0
8.892090e+04 -1.196593e+04        0
       0        0        0

-1.098554e+06 5.953060e+04        0
5.953060e+04 -1.248635e+04        0
       0        0        0

-1.406666e+06 2.196271e+04        0
2.196271e+04 -1.309846e+04        0
       0        0        0

1.336650e+06 2.243103e+04        0
2.243103e+04 -1.712975e+04        0
       0        0        0

1.035846e+06 6.032508e+04        0
6.032508e+04 -1.770734e+04        0
       0        0        0

7.353690e+05 8.928001e+04        0
8.928001e+04 -1.819357e+04        0
       0        0        0

4.345842e+05 1.090314e+05        0
1.090314e+05 -1.820574e+04        0
       0        0        0

1.333510e+05 1.190751e+05        0
1.190751e+05 -1.770719e+04        0
       0        0        0

-1.679948e+05 1.190519e+05        0
1.190519e+05 -1.697818e+04        0
       0        0        0

-4.689286e+05 1.089678e+05        0
1.089678e+05 -1.641605e+04        0
       0        0        0

-7.691116e+05 8.919329e+04        0
8.919329e+04 -1.629667e+04        0
       0        0        0

-1.068676e+06 6.024325e+04        0
6.024325e+04 -1.657480e+04        0
       0        0        0

-1.368246e+06 2.239236e+04        0
2.239236e+04 -1.685617e+04        0
       0        0        0

1.290108e+06 2.262769e+04        0
2.262769e+04 -2.093370e+04        0
       0        0        0

9.986145e+05 6.068320e+04        0
6.068320e+04 -2.119241e+04        0
       0        0        0

7.073840e+05 8.943847e+04        0
8.943847e+04 -2.142407e+04        0
       0        0        0

4.161153e+05 1.088122e+05        0
1.088122e+05 -2.143279e+04        0
       0        0        0

1.247137e+05 1.185759e+05        0
1.185759e+05 -2.118594e+04        0
       0        0        0

-1.666835e+05 1.185536e+05        0
1.185536e+05 -2.082274e+04        0
       0        0        0

-4.578408e+05 1.087507e+05        0
1.087507e+05 -2.055219e+04        0
       0        0        0

-7.486181e+05 8.935433e+04        0
8.935433e+04 -2.051028e+04        0
       0        0        0

-1.039104e+06 6.060345e+04        0
6.060345e+04 -2.065826e+04        0
       0        0        0

-1.329592e+06 2.258991e+04        0
2.258991e+04 -2.079207e+04        0
       0        0        0

1.243138e+06 2.270943e+04        0
2.270943e+04 -2.498210e+04        0
       0        0        0

9.611829e+05 6.084707e+04        0
6.084707e+04 -2.504187e+04        0
       0        0        0

6.794119e+05 8.952007e+04        0
8.952007e+04 -2.510676e+04        0
       0        0        0

3.976942e+05 1.087151e+05        0
1.087151e+05 -2.508705e+04        0
       0        0        0

1.159751e+05 1.183403e+05        0
1.183403e+05 -2.496213e+04        0
       0        0        0

-1.656966e+05 1.183187e+05        0
1.183187e+05 -2.479576e+04        0
       0        0        0

-4.472257e+05 1.086557e+05        0
1.086557e+05 -2.468699e+04        0
       0        0        0

-7.285608e+05 8.943859e+04        0
8.943859e+04 -2.469694e+04        0
       0        0        0

-1.009752e+06 6.076971e+04        0
6.076971e+04 -2.480000e+04        0
       0        0        0

-1.290922e+06 2.267274e+04        0
2.267274e+04 -2.489961e+04        0
       0        0        0

1.195902e+06 2.273919e+04        0
2.273919e+04 -2.922324e+04        0
       0        0        0

9.235708e+05 6.091458e+04        0
6.091458e+04 -2.915047e+04        0
       0        0        0

6.513590e+05 8.955767e+04        0
8.955767e+04 -2.910387e+04        0
       0        0        0

3.792147e+05 1.086759e+05        0
1.086759e+05 -2.904718e+04        0
       0        0        0

1.071092e+05 1.182389e+05        0
1.182389e+05 -2.896999e+04        0
       0        0        0

-1.649443e+05 1.182180e+05        0
1.182180e+05 -2.889900e+04        0
       0        0        0

-4.369126e+05 1.086185e+05        0
1.086185e+05 -2.887696e+04        0
       0        0        0

-7.087800e+05 8.947891e+04        0
8.947891e+04 -2.892824e+04        0
       0        0        0

-9.805709e+05 6.083975e+04        0
6.083975e+04 -2.903784e+04        0
       0        0        0

-1.252330e+06 2.270369e+04        0
2.270369e+04 -2.916302e+04        0
       0        0        0

1.148491e+06 2.274763e+04        0
2.274763e+04 -3.361527e+04        0
       0        0        0

8.858087e+05 6.093851e+04        0
6.093851e+04 -3.344415e+04        0
       0        0        0

6.231974e+05 8.957284e+04        0
8.957284e+04 -3.331675e+04        0
       0        0        0

3.606384e+05 1.086618e+05        0
1.086618e+05 -3.322145e+04        0
       0        0        0

9.811734e+04 1.181997e+05        0
1.181997e+05 -3.315416e+04        0
       0        0        0

-1.643651e+05 1.181796e+05        0
1.181796e+05 -3.312513e+04        0
       0        0        0

-4.268000e+05 1.086064e+05        0
1.086064e+05 -3.315081e+04        0
       0        0        0

-6.891844e+05 8.949683e+04        0
8.949683e+04 -3.323922e+04        0
       0        0        0

-9.515284e+05 6.086627e+04        0
6.086627e+04 -3.338182e+04        0
       0        0        0

-1.213844e+06 2.271337e+04        0
2.271337e+04 -3.356049e+04        0
       0        0        0

1.100960e+06 2.274841e+04        0
2.274841e+04 -3.812278e+04        0
       0        0        0

8.479289e+05 6.094459e+04        0
6.094459e+04 -3.787019e+04        0
       0        0        0

5.949322e+05 8.957762e+04        0
8.957762e+04 -3.767803e+04        0
       0        0        0

3.419635e+05 1.086573e+05        0
1.086573e+05 -3.754494e+04        0
       0        0        0

8.901558e+04 1.181867e+05        0
1.181867e+05 -3.747027e+04        0
       0        0        0

-1.639142e+05 1.181674e+05        0
1.181674e+05 -3.745768e+04        0
       0        0        0

-4.168253e+05 1.086039e+05        0
1.086039e+05 -3.751247e+04        0
       0        0        0

-6.697180e+05 8.950436e+04        0
8.950436e+04 -3.763608e+04        0
       0        0        0

-9.225952e+05 6.087498e+04        0
6.087498e+04 -3.782343e+04        0
       0        0        0

-1.175457e+06 2.271539e+04        0
2.271539e+04 -3.806658e+04        0
       0        0        0

1.053347e+06 2.274703e+04        0
2.274703e+04 -4.271420e+04        0
       0        0        0

8.099626e+05 6.094429e+04        0
6.094429e+04 -4.238866e+04        0
       0        0        0

5.665832e+05 8.957803e+04        0
8.957803e+04 -4.214000e+04        0
       0        0        0

3.232060e+05 1.086559e+05        0
1.086559e+05 -4.197068e+04        0
       0        0        0

7.982720e+04 1.181835e+05        0
1.181835e+05 -4.188171e+04        0
       0        0        0

-1.635563e+05 1.181649e+05        0
1.181649e+05 -4.187447e+04        0
       0        0        0

-4.069457e+05 1.086046e+05        0
1.086046e+05 -4.195008e+04        0
       0        0        0

-6.503417e+05 8.950753e+04        0
8.950753e+04 -4.210767e+04        0
       0        0        0

-8.937438e+05 6.087730e+04        0
6.087730e+04 -4.234382e+04        0
       0        0        0

-1.137148e+06 2.271526e+04        0
2.271526e+04 -4.265429e+04        0
       0        0        0

1.005683e+06 2.274539e+04        0
2.274539e+04 -4.736038e+04        0
       0        0        0

7.719394e+05 6.094219e+04        0
6.094219e+04 -4.696667e+04        0
       0        0        0

5.381756e+05 8.957681e+04        0
8.957681e+04 -4.666608e+04        0
       0        0        0

3.043894e+05 1.086553e+05        0
1.086553e+05 -4.646218e+04        0
       0        0        0

7.057816e+04 1.181832e+05        0
1.181832e+05 -4.635676e+04        0
       0        0        0

-1.632605e+05 1.181653e+05        0
1.181653e+05 -4.635058e+04        0
       0        0        0

-3.971278e+05 1.086060e+05        0
1.086060e+05 -4.644347e+04        0
       0        0        0

-6.310240e+05 8.950907e+04        0
8.950907e+04 -4.663394e+04        0
       0        0        0

-8.649473e+05 6.087783e+04        0
6.087783e+04 -4.691929e+04        0
       0        0        0

-1.098893e+06 2.271487e+04        0
2.271487e+04 -4.729637e+04        0
       0        0        0

9.579955e+05 2.274400e+04        0
2.274400e+04 -5.203381e+04        0
       0        0        0

7.338873e+05 6.093989e+04        0
6.093989e+04 -5.157525e+04        0
       0        0        0

5.097360e+05 8.957508e+04        0
8.957508e+04 -5.122566e+04        0
       0        0        0

2.855393e+05 1.086546e+05        0
1.086546e+05 -5.098880e+04        0
       0        0        0

6.129495e+04 1.181835e+05        0
1.181835e+05 -5.086675e+04        0
       0        0        0

-1.629989e+05 1.181663e+05        0
1.181663e+05 -5.086025e+04        0
       0        0        0

-3.873432e+05 1.086073e+05        0
1.086073e+05 -5.096887e+04        0
       0        0        0

-6.117373e+05 8.951011e+04        0
8.951011e+04 -5.119108e+04        0
       0        0        0

-8.361791e+05 6.087815e+04        0
6.087815e+04 -5.152449e+04        0
       0        0        0

-1.060664e+06 2.271473e+04        0
2.271473e+04 -5.196605e+04        0
       0        0        0

9.103102e+05 2.274290e+04        0
2.274290e+04 -5.670829e+04        0
       0        0        0

6.958326e+05 6.093780e+04        0
6.093780e+04 -5.618768e+04        0
       0        0        0

4.812907e+05 8.957328e+04        0
8.957328e+04 -5.579141e+04        0
       0        0        0

2.666817e+05 1.086537e+05        0
1.086537e+05 -5.552312e+04        0
       0        0        0

5.200354e+04 1.181835e+05        0
1.181835e+05 -5.538500e+04        0
       0        0        0

-1.627453e+05 1.181671e+05        0
1.181671e+05 -5.537790e+04        0
       0        0        0

-3.775653e+05 1.086084e+05        0
1.086084e+05 -5.550144e+04        0
       0        0        0

-5.924555e+05 8.951107e+04        0
8.951107e+04 -5.575422e+04        0
       0        0        0

-8.074137e+05 6.087870e+04        0
6.087870e+04 -5.613390e+04        0
       0        0        0

-1.022436e+06 2.271486e+04        0
2.271486e+04 -5.663735e+04        0
       0        0        0

8.626520e+05 2.274198e+04        0
2.274198e+04 -6.135878e+04        0
       0        0        0

6.578008e+05 6.093596e+04        0
6.093596e+04 -6.077882e+04        0
       0        0        0

4.528650e+05 8.957150e+04        0
8.957150e+04 -6.033795e+04        0
       0        0        0

2.478418e+05 1.086526e+05        0
1.086526e+05 -6.003971e+04        0
       0        0        0

4.272898e+04 1.181833e+05        0
1.181833e+05 -5.988630e+04        0
       0        0        0

-1.624747e+05 1.181676e+05        0
1.181676e+05 -5.987867e+04        0
       0        0        0

-3.677693e+05 1.086093e+05        0
1.086093e+05 -6.001656e+04        0
       0        0        0

-5.731539e+05 8.951206e+04        0
8.951206e+04 -6.029866e+04        0
       0        0        0

-7.786261e+05 6.087948e+04        0
6.087948e+04 -6.072266e+04        0
       0        0        0

-9.841819e+05 2.271520e+04        0
2.271520e+04 -6.128530e+04        0
       0        0        0

8.150447e+05 2.274119e+04        0
2.274119e+04 -6.596136e+04        0
       0        0        0

6.198157e+05 6.093429e+04        0
6.093429e+04 -6.532473e+04        0
       0        0        0

4.244830e+05 8.956978e+04        0
8.956978e+04 -6.484132e+04        0
       0        0        0

2.290436e+05 1.086514e+05        0
1.086514e+05 -6.451456e+04        0
       0        0        0

3.349528e+04 1.181828e+05        0
1.181828e+05 -6.434667e+04        0
       0        0        0

-1.621631e+05 1.181678e+05        0
1.181678e+05 -6.433865e+04        0
       0        0        0

-3.579315e+05 1.086101e+05        0
1.086101e+05 -6.449035e+04        0
       0        0        0

-5.538087e+05 8.951311e+04        0
8.951311e+04 -6.480052e+04        0
       0        0        0

-7.497925e+05 6.088043e+04        0
6.088043e+04 -6.526685e+04        0
       0        0        0

-9.458791e+05 2.271565e+04        0
2.271565e+04 -6.588596e+04        0
       0        0        0

7.675109e+05 2.274046e+04        0
2.274046e+04 -7.049318e+04        0
       0        0        0

5.819002e+05 6.093273e+04        0
6.093273e+04 -6.980260e+04        0
       0        0        0

3.961677e+05 8.956811e+04        0
8.956811e+04 -6.927870e+04        0
       0        0        0

2.103102e+05 1.086501e+05        0
1.086501e+05 -6.892486e+04        0
       0        0        0

2.432535e+04 1.181822e+05        0
1.181822e+05 -6.874327e+04        0
       0        0        0

-1.617877e+05 1.181679e+05        0
1.181679e+05 -6.873499e+04        0
       0        0        0

-3.480290e+05 1.086108e+05        0
1.086108e+05 -6.889993e+04        0
       0        0        0

-5.343973e+05 8.951420e+04        0
8.951420e+04 -6.923690e+04        0
       0        0        0

-7.208901e+05 6.088150e+04        0
6.088150e+04 -6.974356e+04        0
       0        0        0

-9.075041e+05 2.271617e+04        0
2.271617e+04 -7.041649e+04        0
       0        0        0

7.200723e+05 2.273978e+04        0
2.273978e+04 -7.493249e+04        0
       0        0        0

5.440762e+05 6.093125e+04        0
6.093125e+04 -7.419071e+04        0
       0        0        0

3.679410e+05 8.956648e+04        0
8.956648e+04 -7.362841e+04        0
       0        0        0

1.916633e+05 1.086488e+05        0
1.086488e+05 -7.324889e+04        0
       0        0        0

1.524098e+04 1.181815e+05        0
1.181815e+05 -7.305436e+04        0
       0        0        0

-1.613270e+05 1.181679e+05        0
1.181679e+05 -7.304590e+04        0
       0        0        0

-3.380404e+05 1.086115e+05        0
1.086115e+05 -7.322349e+04        0
       0        0        0

-5.148979e+05 8.951533e+04        0
8.951533e+04 -7.358598e+04        0
       0        0        0

-6.918973e+05 6.088265e+04        0
6.088265e+04 -7.413101e+04        0
       0        0        0

-8.690350e+05 2.271673e+04        0
2.271673e+04 -7.485511e+04        0
       0        0        0

6.727496e+05 2.273915e+04        0
2.273915e+04 -7.925863e+04        0
       0        0        0

5.063643e+05 6.092987e+04        0
6.092987e+04 -7.846843e+04        0
       0        0        0

3.398235e+05 8.956489e+04        0
8.956489e+04 -7.786983e+04        0
       0        0        0

1.731238e+05 1.086474e+05        0
1.086474e+05 -7.746605e+04        0
       0        0        0

6.262879e+03 1.181806e+05        0
1.181806e+05 -7.725929e+04        0
       0        0        0

-1.607601e+05 1.181679e+05        0
1.181679e+05 -7.725069e+04        0
       0        0        0

-3.279448e+05 1.086121e+05        0
1.086121e+05 -7.744030e+04        0
       0        0        0

-4.952900e+05 8.951651e+04        0
8.951651e+04 -7.782701e+04        0
       0        0        0

-6.627933e+05 6.088389e+04        0
6.088389e+04 -7.840849e+04        0
       0        0        0

-8.304513e+05 2.271735e+04        0
2.271735e+04 -7.918115e+04        0
       0        0        0

6.255623e+05 2.273859e+04        0
2.273859e+04 -8.345202e+04        0
       0        0        0

4.687842e+05 6.092860e+04        0
6.092860e+04 -8.261621e+04        0
       0        0        0

3.118350e+05 8.956335e+04        0
8.956335e+04 -8.198342e+04        0
       0        0        0

1.547113e+05 1.086460e+05        0
1.086460e+05 -8.155678e+04        0
       0        0        0

-2.589332e+03 1.181797e+05        0
1.181797e+05 -8.133849e+04        0
       0        0        0

-1.600676e+05 1.181676e+05        0
1.181676e+05 -8.132976e+04        0
       0        0        0

-3.177230e+05 1.086127e+05        0
1.086127e+05 -8.153073e+04        0
       0        0        0

-4.755540e+05 8.951773e+04        0
8.951773e+04 -8.194037e+04        0
       0        0        0

-6.335585e+05 6.088526e+04        0
6.088526e+04 -8.255636e+04        0
       0        0        0

-7.917331e+05 2.271804e+04        0
2.271804e+04 -8.337502e+04        0
       0        0        0

5.785286e+05 2.273817e+04        0
2.273817e+04 -8.749418e+04        0
       0        0        0

4.313542e+05 6.092752e+04        0
6.092752e+04 -8.661559e+04        0
       0        0        0

2.839942e+05 8.956185e+04        0
8.956185e+04 -8.595072e+04        0
       0        0        0

1.364444e+05 1.086444e+05        0
1.086444e+05 -8.550260e+04        0
       0        0        0

-1.129712e+04 1.181785e+05        0
1.181785e+05 -8.527347e+04        0
       0        0        0

-1.592310e+05 1.181672e+05        0
1.181672e+05 -8.526462e+04        0
       0        0        0

-3.073564e+05 1.086132e+05        0
1.086132e+05 -8.547630e+04        0
       0        0        0

-4.556717e+05 8.951900e+04        0
8.951900e+04 -8.590754e+04        0
       0        0        0

-6.041745e+05 6.088680e+04        0
6.088680e+04 -8.655609e+04        0
       0        0        0

-7.528619e+05 2.271886e+04        0
2.271886e+04 -8.741819e+04        0
       0        0        0

5.316658e+05 2.273795e+04        0
2.273795e+04 -9.136769e+04        0
       0        0        0

3.940921e+05 6.092663e+04        0
6.092663e+04 -9.044910e+04        0
       0        0        0

2.563184e+05 8.956035e+04        0
8.956035e+04 -8.975416e+04        0
       0        0        0

1.183407e+05 1.086427e+05        0
1.086427e+05 -8.928591e+04        0
       0        0        0

-1.984304e+04 1.181771e+05        0
1.181771e+05 -8.904673e+04        0
       0        0        0

-1.582329e+05 1.181665e+05        0
1.181665e+05 -8.903797e+04        0
       0        0        0

-2.968278e+05 1.086135e+05        0
1.086135e+05 -8.925978e+04        0
       0        0        0

-4.356257e+05 8.952026e+04        0
8.952026e+04 -8.971126e+04        0
       0        0        0

-5.746240e+05 6.088854e+04        0
6.088854e+04 -9.039032e+04        0
       0        0        0

-7.138200e+05 2.271989e+04        0
2.271989e+04 -9.129325e+04        0
       0        0        0

4.849900e+05 2.273796e+04        0
2.273796e+04 -9.505616e+04        0
       0        0        0

3.570143e+05 6.092577e+04        0
6.092577e+04 -9.410011e+04        0
       0        0        0

2.288244e+05 8.955862e+04        0
8.955862e+04 -9.337680e+04        0
       0        0        0

1.004164e+05 1.086409e+05        0
1.086409e+05 -9.288973e+04        0
       0        0        0

-2.821084e+04 1.181759e+05        0
1.181759e+05 -9.264170e+04        0
       0        0        0

-1.570570e+05 1.181660e+05        0
1.181660e+05 -9.263378e+04        0
       0        0        0

-2.861209e+05 1.086137e+05        0
1.086137e+05 -9.286554e+04        0
       0        0        0

-4.153999e+05 8.952130e+04        0
8.952130e+04 -9.333582e+04        0
       0        0        0

-5.448908e+05 6.089031e+04        0
6.089031e+04 -9.404299e+04        0
       0        0        0

-6.745908e+05 2.272114e+04        0
2.272114e+04 -9.498387e+04        0
       0        0        0

4.385165e+05 2.273798e+04        0
2.273798e+04 -9.854412e+04        0
       0        0        0

3.201365e+05 6.092413e+04        0
6.092413e+04 -9.755241e+04        0
       0        0        0

2.015270e+05 8.955604e+04        0
8.955604e+04 -9.680154e+04        0
       0        0        0

8.268605e+04 1.086393e+05        0
1.086393e+05 -9.629692e+04        0
       0        0        0

-3.638570e+04 1.181760e+05        0
1.181760e+05 -9.604233e+04        0
       0        0        0

-1.556878e+05 1.181669e+05        0
1.181669e+05 -9.603768e+04        0
       0        0        0

-2.752197e+05 1.086142e+05        0
1.086142e+05 -9.628030e+04        0
       0        0        0

-3.949789e+05 8.952148e+04        0
8.952148e+04 -9.676788e+04        0
       0        0        0

-5.149601e+05 6.089129e+04        0
6.089129e+04 -9.749979e+04        0
       0        0        0

-6.351590e+05 2.272241e+04        0
2.272241e+04 -9.847493e+04        0
       0        0        0

3.922608e+05 2.273705e+04        0
2.273705e+04 -1.018168e+05        0
       0        0        0

2.834737e+05 6.091918e+04        0
6.091918e+04 -1.007892e+05        0
       0        0        0

1.744389e+05 8.955103e+04        0
8.955103e+04 -1.000095e+05        0
       0        0        0

6.516112e+04 1.086394e+05        0
1.086394e+05 -9.948864e+04        0
       0        0        0

-4.435479e+04 1.181814e+05        0
1.181814e+05 -9.923256e+04        0
       0        0        0

-1.541098e+05 1.181730e+05        0
1.181730e+05 -9.923756e+04        0
       0        0        0

-2.641076e+05 1.086162e+05        0
1.086162e+05 -9.949471e+04        0
       0        0        0

-3.743470e+05 8.951924e+04        0
8.951924e+04 -9.999807e+04        0
       0        0        0

-4.848186e+05 6.088897e+04        0
6.088897e+04 -1.007491e+05        0
       0        0        0

-5.955116e+05 2.272272e+04        0
2.272272e+04 -1.017526e+05        0
       0        0        0

3.462408e+05 2.273213e+04        0
2.273213e+04 -1.048596e+05        0
       0        0        0

2.470402e+05 6.090435e+04        0
6.090435e+04 -1.037913e+05        0
       0        0        0

1.475679e+05 8.953998e+04        0
8.953998e+04 -1.029768e+05        0
       0        0        0

4.784706e+04 1.086446e+05        0
1.086446e+05 -1.024414e+05        0
       0        0        0

-5.210859e+04 1.182015e+05        0
1.182015e+05 -1.021950e+05        0
       0        0        0

-1.523066e+05 1.181938e+05        0
1.181938e+05 -1.022248e+05        0
       0        0        0

-2.527641e+05 1.086235e+05        0
1.086235e+05 -1.025064e+05        0
       0        0        0

-3.534861e+05 8.951095e+04        0
8.951095e+04 -1.030243e+05        0
       0        0        0

-4.544544e+05 6.087677e+04        0
6.087677e+04 -1.037842e+05        0
       0        0        0

-5.556397e+05 2.271905e+04        0
2.271905e+04 -1.048050e+05        0
       0        0        0

3.004822e+05 2.271539e+04        0
2.271539e+04 -1.076574e+05        0
       0        0        0

2.108493e+05 6.086437e+04        0
6.086437e+04 -1.065333e+05        0
       0        0        0

1.209111e+05 8.951546e+04        0
8.951546e+04 -1.056691e+05        0
       0        0        0

3.073692e+04 1.086641e+05        0
1.086641e+05 -1.051219e+05        0
       0        0        0

-5.964355e+04 1.182578e+05        0
1.182578e+05 -1.049091e+05        0
       0        0        0

-1.502580e+05 1.182508e+05        0
1.182508e+05 -1.049962e+05        0
       0        0        0

-2.411586e+05 1.086450e+05        0
1.086450e+05 -1.053249e+05        0
       0        0        0

-3.323700e+05 8.948920e+04        0
8.948920e+04 -1.058577e+05        0
       0        0        0

-4.238570e+05 6.083943e+04        0
6.083943e+04 -1.066065e+05        0
       0        0        0

-5.155448e+05 2.270357e+04        0
2.270357e+04 -1.076228e+05        0
       0        0        0

2.550302e+05 2.266861e+04        0
2.266861e+04 -1.101928e+05        0
       0        0        0

1.749112e+05 6.076689e+04        0
6.076689e+04 -1.089786e+05        0
       0        0        0

9.444394e+04 8.946363e+04        0
8.946363e+04 -1.080332e+05        0
       0        0        0

1.379929e+04 1.087177e+05        0
1.087177e+05 -1.074804e+05        0
       0        0        0

-6.696699e+04 1.183950e+05        0
1.183950e+05 -1.073481e+05        0
       0        0        0

-1.479345e+05 1.183887e+05        0
1.183887e+05 -1.075565e+05        0
       0        0        0

-2.292386e+05 1.087005e+05        0
1.087005e+05 -1.079789e+05        0
       0        0        0

-3.109536e+05 8.944014e+04        0
8.944014e+04 -1.085307e+05        0
       0        0        0

-3.930164e+05 6.074460e+04        0
6.074460e+04 -1.092323e+05        0
       0        0        0

-4.752498e+05 2.265805e+04        0
2.265805e+04 -1.102010e+05        0
       0        0        0

2.099707e+05 2.255312e+04        0
2.255312e+04 -1.124452e+05        0
       0        0        0

1.392276e+05 6.054966e+04        0
6.054966e+04 -1.110720e+05        0
       0        0        0

6.809783e+04 8.936201e+04        0
8.936201e+04 -1.099896e+05        0
       0        0        0

-3.042201e+03 1.088455e+05        0
1.088455e+05 -1.094456e+05        0
       0        0        0

-7.410476e+04 1.186961e+05        0
1.186961e+05 -1.094775e+05        0
       0        0        0

-1.452897e+05 1.186906e+05        0
1.186906e+05 -1.099193e+05        0
       0        0        0

-2.169085e+05 1.088304e+05        0
1.088304e+05 -1.105207e+05        0
       0        0        0

-2.891518e+05 8.934130e+04        0
8.934130e+04 -1.111065e+05        0
       0        0        0

-3.619182e+05 6.053005e+04        0
6.053005e+04 -1.117009e+05        0
       0        0        0

-4.348222e+05 2.254384e+04        0
2.254384e+04 -1.125421e+05        0
       0        0        0

1.654676e+05 2.229389e+04        0
2.229389e+04 -1.143894e+05        0
       0        0        0

1.037757e+05 6.010633e+04        0
6.010633e+04 -1.127378e+05        0
       0        0        0

4.172434e+04 8.918285e+04        0
8.918285e+04 -1.114369e+05        0
       0        0        0

-1.993674e+04 1.091211e+05        0
1.091211e+05 -1.109352e+05        0
       0        0        0

-8.111029e+04 1.192969e+05        0
1.192969e+05 -1.112604e+05        0
       0        0        0

-1.422485e+05 1.192922e+05        0
1.192922e+05 -1.121001e+05        0
       0        0        0

-2.040019e+05 1.091080e+05        0
1.091080e+05 -1.130150e+05        0
       0        0        0

-2.668047e+05 8.916493e+04        0
8.916493e+04 -1.136749e+05        0
       0        0        0

-3.305323e+05 6.008944e+04        0
6.008944e+04 -1.140806e+05        0
       0        0        0

-3.944153e+05 2.228592e+04        0
2.228592e+04 -1.146607e+05        0
       0        0        0

1.218143e+05 2.175987e+04        0
2.175987e+04 -1.160001e+05        0
       0        0        0

6.846991e+04 5.928775e+04        0
5.928775e+04 -1.139016e+05        0
       0        0        0

1.504776e+04 8.891653e+04        0
8.891653e+04 -1.123083e+05        0
       0        0        0

-3.712658e+04 1.096611e+05        0
1.096611e+05 -1.119237e+05        0
       0        0        0

-8.806576e+04 1.203706e+05        0
1.203706e+05 -1.126850e+05        0
       0        0        0

-1.387020e+05 1.203666e+05        0
1.203666e+05 -1.140839e+05        0
       0        0        0

-1.902583e+05 1.096500e+05        0
1.096500e+05 -1.154691e+05        0
       0        0        0

-2.436324e+05 8.890144e+04        0
8.890144e+04 -1.162985e+05        0
       0        0        0

-2.987810e+05 5.927361e+04        0
5.927361e+04 -1.164537e+05        0
       0        0        0

-3.543298e+05 2.175326e+04        0
2.175326e+04 -1.165894e+05        0
       0        0        0

7.947515e+04 2.075678e+04        0
2.075678e+04 -1.172821e+05        0
       0        0        0

3.307865e+04 5.797447e+04        0
5.797447e+04 -1.145899e+05        0
       0        0        0

-1.236393e+04 8.865059e+04        0
8.865059e+04 -1.127886e+05        0
       0        0        0

-5.490063e+04 1.106013e+05        0
1.106013e+05 -1.126577e+05        0
       0        0        0

-9.504947e+04 1.220074e+05        0
1.220074e+05 -1.138552e+05        0
       0        0        0

-1.345317e+05 1.220041e+05        0
1.220041e+05 -1.157267e+05        0
       0        0        0

-1.753639e+05 1.105923e+05        0
1.105923e+05 -1.176118e+05        0
       0        0        0

-2.192067e+05 8.863840e+04        0
8.863840e+04 -1.187962e+05        0
       0        0        0

-2.664683e+05 5.796312e+04        0
5.796312e+04 -1.188293e+05        0
       0        0        0

-3.150782e+05 2.075156e+04        0
2.075156e+04 -1.183719e+05        0
       0        0        0

3.901604e+04 1.910250e+04        0
1.910250e+04 -1.183311e+05        0
       0        0        0

-2.945801e+03 5.638064e+04        0
5.638064e+04 -1.153385e+05        0
       0        0        0

-4.097162e+04 8.874194e+04        0
8.874194e+04 -1.139163e+05        0
       0        0        0

-7.334316e+04 1.119428e+05        0
1.119428e+05 -1.141993e+05        0
       0        0        0

-1.020044e+05 1.238170e+05        0
1.238170e+05 -1.151847e+05        0
       0        0        0

-1.297257e+05 1.238146e+05        0
1.238146e+05 -1.165458e+05        0
       0        0        0

-1.591896e+05 1.119363e+05        0
1.119363e+05 -1.183359e+05        0
       0        0        0

-1.930733e+05 8.873286e+04        0
8.873286e+04 -1.201362e+05        0
       0        0        0

-2.331278e+05 5.637209e+04        0
5.637209e+04 -1.207525e+05        0
       0        0        0

-2.773664e+05 1.909865e+04        0
1.909865e+04 -1.200521e+05        0
       0        0        0

5.231885e+02 1.710271e+04        0
1.710271e+04 -1.199683e+05        0
       0        0        0

-4.055900e+04 5.592265e+04        0
5.592265e+04 -1.183223e+05        0
       0        0        0

-7.064224e+04 9.001307e+04        0
9.001307e+04 -1.192608e+05        0
       0        0        0

-9.160225e+04 1.128998e+05        0
1.128998e+05 -1.193451e+05        0
       0        0        0

-1.084793e+05 1.240404e+05        0
1.240404e+05 -1.176209e+05        0
       0        0        0

-1.246149e+05 1.240392e+05        0
1.240392e+05 -1.154734e+05        0
       0        0        0

-1.424954e+05 1.128964e+05        0
1.128964e+05 -1.147534e+05        0
       0        0        0

-1.653497e+05 9.000769e+04        0
9.000769e+04 -1.167341e+05        0
       0        0        0

-1.979384e+05 5.591692e+04        0
5.591692e+04 -1.201833e+05        0
       0        0        0

-2.416132e+05 1.710010e+04        0
1.710010e+04 -1.211410e+05        0
       0        0        0

-3.838756e+04 1.780089e+04        0
1.780089e+04 -1.241547e+05        0
       0        0        0

-8.056431e+04 6.133461e+04        0
6.133461e+04 -1.329179e+05        0
       0        0        0

-9.823377e+04 9.241439e+04        0
9.241439e+04 -1.376493e+05        0
       0        0        0

-1.069299e+05 1.101518e+05        0
1.101518e+05 -1.330247e+05        0
       0        0        0

-1.134903e+05 1.182691e+05        0
1.182691e+05 -1.226657e+05        0
       0        0        0

-1.199857e+05 1.182695e+05        0
1.182695e+05 -1.108102e+05        0
       0        0        0

-1.278480e+05 1.101525e+05        0
1.101525e+05 -1.017531e+05        0
       0        0        0

-1.390687e+05 9.241419e+04        0
9.241419e+04 -9.965328e+04        0
       0        0        0

-1.602170e+05 6.133242e+04        0
6.133242e+04 -1.078653e+05        0
       0        0        0

-2.060740e+05 1.779909e+04        0
1.779909e+04 -1.203165e+05        0
       0        0        0

-9.041227e+04 4.054631e+04        0
4.054631e+04 -1.562833e+05        0
       0        0        0

-1.138421e+05 7.593486e+04        0
7.593486e+04 -1.858539e+05        0
       0        0        0

-1.150718e+05 8.920336e+04        0
8.920336e+04 -1.817339e+05        0
       0        0        0

-1.153875e+05 9.571255e+04        0
9.571255e+04 -1.608397e+05        0
       0        0        0

-1.157489e+05 9.856239e+04        0
9.856239e+04 -1.317915e+05        0
       0        0        0

-1.168366e+05 9.856429e+04        0
9.856429e+04 -1.007937e+05        0
       0        0        0

-1.188659e+05 9.571771e+04        0
9.571771e+04 -7.341100e+04        0
       0        0        0

-1.225609e+05 8.921016e+04        0
8.921016e+04 -5.589328e+04        0
       0        0        0

-1.289065e+05 7.594047e+04        0
7.594047e+04 -5.688864e+04        0
       0        0        0

-1.586523e+05 4.054609e+04        0
4.054609e+04 -9.278138e+04        0
       0        0        0

POINT_DATA     451
VECTORS DISPLACEMENT_7.800000e-01 double
0.000000e+00    0.000000e+00    0.000000e+00
0.000000e+00    0.000000e+00    0.000000e+00
0.000000e+00    0.000000e+00    0.000000e+00
0.000000e+00    0.000000e+00    0.000000e+00
0.000000e+00    0.000000e+00    0.000000e+00
0.000000e+00    0.000000e+00    0.000000e+00
0.000000e+00    0.000000e+00    0.000000e+00
0.000000e+00    0.000000e+00    0.000000e+00
0.000000e+00    0.000000e+00    0.000000e+00
0.000000e+00    0.000000e+00    0.000000e+00
0.000000e+00    0.000000e+00    0.000000e+00
-1.141595e-06    -8.299605e-07    0.000000e+00
-7.233448e-07    -4.163094e-07    0.000000e+00
-5.161144e-07    -2.157261e-07    0.000000e+00
-3.332233e-07    -1.068318e-07    0.000000e+00
-1.642863e-07    -5.047426e-08    0.000000e+00
-3.497350e-20    -3.295145e-08    0.000000e+00
1.642863e-07    -5.047426e-08    0.000000e+00
3.332233e-07    -1.068318e-07    0.000000e+00
5.161144e-07    -2.157261e-07    0.000000e+00
7.233448e-07    -4.163094e-07    0.000000e+00
1.141595e-06    -8.299605e-07    0.000000e+00
-2.153941e-06    -1.380309e-06    0.000000e+00
-1.574436e-06    -9.987668e-07    0.000000e+00
-1.105093e-06    -7.015532e-07    0.000000e+00
-7.128292e-07    -5.177059e-07    0.000000e+00
-3.501023e-07    -4.175298e-07    0.000000e+00
-7.394085e-20    -3.857102e-07    0.000000e+00
3.501023e-07    -4.175298e-07    0.000000e+00
7.128292e-07    -5.177059e-07    0.000000e+00
1.105093e-06    -7.015532e-07    0.000000e+00
1.574436e-06    -9.987668e-07    0.000000e+00
2.153941e-06    -1.380309e-06    0.000000e+00
-3.132427e-06    -2.064634e-06    0.000000e+00
-2.394168e-06    -1.682257e-06    0.000000e+00
-1.722702e-06    -1.380761e-06    0.000000e+00
-1.115240e-06    -1.168096e-06    0.000000e+00
-5.487489e-07    -1.045521e-06    0.000000e+00
-1.164472e-19    -1.005593e-06    0.000000e+00
5.487489e-07    -1.045521e-06    0.000000e+00
1.115240e-06    -1.168096e-06    0.000000e+00
1.722702e-06    -1.380761e-06    0.000000e+00
2.394168e-06    -1.682257e-06    0.000000e+00
3.132427e-06    -2.064634e-06    0.000000e+00
-4.100076e-06    -2.909172e-06    0.000000e+00
-3.186876e-06    -2.535522e-06    0.000000e+00
-2.326958e-06    -2.239053e-06    0.000000e+00
-1.519408e-06    -2.025105e-06    0.000000e+00
-7.500557e-07    -1.896684e-06    0.000000e+00
-1.608304e-19    -1.854101e-06    0.000000e+00
7.500557e-07    -1.896684e-06    0.000000e+00
1.519408e-06    -2.025105e-06    0.000000e+00
2.326958e-06    -2.239053e-06    0.000000e+00
3.186876e-06    -2.535522e-06    0.000000e+00
4.100076e-06    -2.909172e-06    0.000000e+00
-5.051341e-06    -3.936654e-06    0.000000e+00
-3.956477e-06    -3.571725e-06    0.000000e+00
-2.911986e-06    -3.284208e-06    0.000000e+00
-1.912865e-06    -3.075889e-06    0.000000e+00
-9.475500e-07    -2.949778e-06    0.000000e+00
-2.066628e-19    -2.907564e-06    0.000000e+00
9.475500e-07    -2.949778e-06    0.000000e+00
1.912865e-06    -3.075889e-06    0.000000e+00
2.911986e-06    -3.284208e-06    0.000000e+00
3.956477e-06    -3.571725e-06    0.000000e+00
5.051341e-06    -3.936654e-06    0.000000e+00
-5.981873e-06    -5.149742e-06    0.000000e+00
-4.704513e-06    -4.794468e-06    0.000000e+00
-3.477740e-06    -4.516043e-06    0.000000e+00
-2.292922e-06    -4.315096e-06    0.000000e+00
-1.138484e-06    -4.193469e-06    0.000000e+00
-2.535805e-19    -4.152740e-06    0.000000e+00
1.138484e-06    -4.193469e-06    0.000000e+00
2.292922e-06    -4.315096e-06    0.000000e+00
3.477740e-06    -4.516043e-06    0.000000e+00
4.704513e-06    -4.794468e-06    0.000000e+00
5.981873e-06    -5.149742e-06    0.000000e+00
-6.888558e-06    -6.546376e-06    0.000000e+00
-5.431254e-06    -6.201154e-06    0.000000e+00
-4.025294e-06    -5.931590e-06    0.000000e+00
-2.659769e-06    -5.737829e-06    0.000000e+00
-1.322562e-06    -5.620886e-06    0.000000e+00
-2.978380e-19    -5.581769e-06    0.000000e+00
1.322562e-06    -5.620886e-06    0.000000e+00
2.659769e-06    -5.737829e-06    0.000000e+00
4.025294e-06    -5.931590e-06    0.000000e+00
5.431254e-06    -6.201154e-06    0.000000e+00
6.888558e-06    -6.546376e-06    0.000000e+00
-7.769676e-06    -8.122139e-06    0.000000e+00
-6.136609e-06    -7.787205e-06    0.000000e+00
-4.555509e-06    -7.526210e-06    0.000000e+00
-3.014226e-06    -7.339157e-06    0.000000e+00
-1.500173e-06    -7.226543e-06    0.000000e+00
-3.407455e-19    -7.188927e-06    0.000000e+00
1.500173e-06    -7.226543e-06    0.000000e+00
3.014226e-06    -7.339157e-06    0.000000e+00
4.555509e-06    -7.526210e-06    0.000000e+00
6.136609e-06    -7.787205e-06    0.000000e+00
7.769676e-06    -8.122139e-06    0.000000e+00
-8.624338e-06    -9.871838e-06    0.000000e+00
-6.820449e-06    -9.547301e-06    0.000000e+00
-5.068913e-06    -9.294676e-06    0.000000e+00
-3.356973e-06    -9.113935e-06    0.000000e+00
-1.671744e-06    -9.005300e-06    0.000000e+00
-3.843412e-19    -8.969049e-06    0.000000e+00
1.671744e-06    -9.005300e-06    0.000000e+00
3.356973e-06    -9.113935e-06    0.000000e+00
5.068913e-06    -9.294676e-06    0.000000e+00
6.820449e-06    -9.547301e-06    0.000000e+00
8.624338e-06    -9.871838e-06    0.000000e+00
-9.452128e-06    -1.179002e-05    0.000000e+00
-7.482678e-06    -1.147593e-05    0.000000e+00
-5.565791e-06    -1.123156e-05    0.000000e+00
-3.688437e-06    -1.105688e-05    0.000000e+00
-1.837569e-06    -1.095199e-05    0.000000e+00
-4.288104e-19    -1.091701e-05    0.000000e+00
1.837569e-06    -1.095199e-05    0.000000e+00
3.688437e-06    -1.105688e-05    0.000000e+00
5.565791e-06    -1.123156e-05    0.000000e+00
7.482678e-06    -1.147593e-05    0.000000e+00
9.452128e-06    -1.179002e-05    0.000000e+00
-1.025287e-05    -1.387120e-05    0.000000e+00
-8.123242e-06    -1.356758e-05    0.000000e+00
-6.046283e-06    -1.333140e-05    0.000000e+00
-4.008850e-06    -1.316265e-05    0.000000e+00
-1.997814e-06    -1.306137e-05    0.000000e+00
-4.649152e-19    -1.302760e-05    0.000000e+00
1.997814e-06    -1.306137e-05    0.000000e+00
4.008850e-06    -1.316265e-05    0.000000e+00
6.046283e-06    -1.333140e-05    0.000000e+00
8.123242e-06    -1.356758e-05    0.000000e+00
1.025287e-05    -1.387120e-05    0.000000e+00
-1.102648e-05    -1.610989e-05    0.000000e+00
-8.742113e-06    -1.581673e-05    0.000000e+00
-6.510452e-06    -1.558871e-05    0.000000e+00
-4.318325e-06    -1.542583e-05    0.000000e+00
-2.152566e-06    -1.532809e-05    0.000000e+00
-5.029788e-19    -1.529550e-05    0.000000e+00
2.152566e-06    -1.532809e-05    0.000000e+00
4.318325e-06    -1.542583e-05    0.000000e+00
6.510452e-06    -1.558871e-05    0.000000e+00
8.742113e-06    -1.581673e-05    0.000000e+00
1.102648e-05    -1.610989e-05    0.000000e+00
-1.177296e-05    -1.850062e-05    0.000000e+00
-9.339276e-06    -1.821793e-05    0.000000e+00
-6.958324e-06    -1.799806e-05    0.000000e+00
-4.616914e-06    -1.784101e-05    0.000000e+00
-2.301865e-06    -1.774678e-05    0.000000e+00
-5.484009e-19    -1.771537e-05    0.000000e+00
2.301865e-06    -1.774678e-05    0.000000e+00
4.616914e-06    -1.784101e-05    0.000000e+00
6.958324e-06    -1.799806e-05    0.000000e+00
9.339276e-06    -1.821793e-05    0.000000e+00
1.177296e-05    -1.850062e-05    0.000000e+00
-1.249228e-05    -2.103794e-05    0.000000e+00
-9.914727e-06    -2.076572e-05    0.000000e+00
-7.389909e-06    -2.055400e-05    0.000000e+00
-4.904637e-06    -2.040277e-05    0.000000e+00
-2.445728e-06    -2.031204e-05    0.000000e+00
-5.755589e-19    -2.028179e-05    0.000000e+00
2.445728e-06    -2.031204e-05    0.000000e+00
4.904637e-06    -2.040277e-05    0.000000e+00
7.389909e-06    -2.055400e-05    0.000000e+00
9.914727e-06    -2.076572e-05    0.000000e+00
1.249228e-05    -2.103794e-05    0.000000e+00
-1.318446e-05    -2.371642e-05    0.000000e+00
-1.046846e-05    -2.345467e-05    0.000000e+00
-7.805208e-06    -2.325109e-05    0.000000e+00
-5.181501e-06    -2.310568e-05    0.000000e+00
-2.584160e-06    -2.301844e-05    0.000000e+00
-5.993817e-19    -2.298935e-05    0.000000e+00
2.584160e-06    -2.301844e-05    0.000000e+00
5.181501e-06    -2.310568e-05    0.000000e+00
7.805208e-06    -2.325109e-05    0.000000e+00
1.046846e-05    -2.345467e-05    0.000000e+00
1.318446e-05    -2.371642e-05    0.000000e+00
-1.384949e-05    -2.653062e-05    0.000000e+00
-1.100049e-05    -2.627934e-05    0.000000e+00
-8.204222e-06    -2.608391e-05    0.000000e+00
-5.447509e-06    -2.594431e-05    0.000000e+00
-2.717163e-06    -2.586055e-05    0.000000e+00
-6.192870e-19    -2.583264e-05    0.000000e+00
2.717163e-06    -2.586055e-05    0.000000e+00
5.447509e-06    -2.594431e-05    0.000000e+00
8.204222e-06    -2.608391e-05    0.000000e+00
1.100049e-05    -2.627934e-05    0.000000e+00
1.384949e-05    -2.653062e-05    0.000000e+00
-1.448737e-05    -2.947511e-05    0.000000e+00
-1.151079e-05    -2.923430e-05    0.000000e+00
-8.586950e-06    -2.904701e-05    0.000000e+00
-5.702661e-06    -2.891323e-05    0.000000e+00
-2.844739e-06    -2.883296e-05    0.000000e+00
-6.234162e-19    -2.880621e-05    0.000000e+00
2.844739e-06    -2.883296e-05    0.000000e+00
5.702661e-06    -2.891323e-05    0.000000e+00
8.586950e-06    -2.904701e-05    0.000000e+00
1.151079e-05    -2.923430e-05    0.000000e+00
1.448737e-05    -2.947511e-05    0.000000e+00
-1.509811e-05    -3.254446e-05    0.000000e+00
-1.199938e-05    -3.231413e-05    0.000000e+00
-8.953392e-06    -3.213498e-05    0.000000e+00
-5.946955e-06    -3.200701e-05    0.000000e+00
-2.966886e-06    -3.193024e-05    0.000000e+00
-6.374982e-19    -3.190464e-05    0.000000e+00
2.966886e-06    -3.193024e-05    0.000000e+00
5.946955e-06    -3.200701e-05    0.000000e+00
8.953392e-06    -3.213498e-05    0.000000e+00
1.199938e-05    -3.231413e-05    0.000000e+00
1.509811e-05    -3.254446e-05    0.000000e+00
-1.568170e-05    -3.573325e-05    0.000000e+00
-1.246626e-05    -3.551338e-05    0.000000e+00
-9.303549e-06    -3.534238e-05    0.000000e+00
-6.180392e-06    -3.522023e-05    0.000000e+00
-3.083604e-06    -3.514694e-05    0.000000e+00
-6.669326e-19    -3.512251e-05    0.000000e+00
3.083604e-06    -3.514694e-05    0.000000e+00
6.180392e-06    -3.522023e-05    0.000000e+00
9.303549e-06    -3.534238e-05    0.000000e+00
1.246626e-05    -3.551338e-05    0.000000e+00
1.568170e-05    -3.573325e-05    0.000000e+00
-1.623815e-05    -3.903604e-05    0.000000e+00
-1.291142e-05    -3.882665e-05    0.000000e+00
-9.637419e-06    -3.866378e-05    0.000000e+00
-6.402972e-06    -3.854745e-05    0.000000e+00
-3.194894e-06    -3.847765e-05    0.000000e+00
-7.174369e-19    -3.845439e-05    0.000000e+00
3.194894e-06    -3.847765e-05    0.000000e+00
6.402972e-06    -3.854745e-05    0.000000e+00
9.637419e-06    -3.866378e-05    0.000000e+00
1.291142e-05    -3.882665e-05    0.000000e+00
1.623815e-05    -3.903604e-05    0.000000e+00
-1.676746e-05    -4.244741e-05    0.000000e+00
-1.333486e-05    -4.224848e-05    0.000000e+00
-9.955003e-06    -4.209376e-05    0.000000e+00
-6.614695e-06    -4.198325e-05    0.000000e+00
-3.300755e-06    -4.191694e-05    0.000000e+00
-7.843525e-19    -4.189484e-05    0.000000e+00
3.300755e-06    -4.191694e-05    0.000000e+00
6.614695e-06    -4.198325e-05    0.000000e+00
9.955003e-06    -4.209376e-05    0.000000e+00
1.333486e-05    -4.224848e-05    0.000000e+00
1.676746e-05    -4.244741e-05    0.000000e+00
-1.726962e-05    -4.596192e-05    0.000000e+00
-1.373659e-05    -4.577347e-05    0.000000e+00
-1.025630e-05    -4.562689e-05    0.000000e+00
-6.815560e-06    -4.552219e-05    0.000000e+00
-3.401188e-06    -4.545937e-05    0.000000e+00
-8.315746e-19    -4.543843e-05    0.000000e+00
3.401188e-06    -4.545937e-05    0.000000e+00
6.815560e-06    -4.552219e-05    0.000000e+00
1.025630e-05    -4.562689e-05    0.000000e+00
1.373659e-05    -4.577347e-05    0.000000e+00
1.726962e-05    -4.596192e-05    0.000000e+00
-1.774464e-05    -4.957415e-05    0.000000e+00
-1.411661e-05    -4.939617e-05    0.000000e+00
-1.054131e-05    -4.925773e-05    0.000000e+00
-7.005568e-06    -4.915885e-05    0.000000e+00
-3.496192e-06    -4.909952e-05    0.000000e+00
-8.612207e-19    -4.907975e-05    0.000000e+00
3.496192e-06    -4.909952e-05    0.000000e+00
7.005568e-06    -4.915885e-05    0.000000e+00
1.054131e-05    -4.925773e-05    0.000000e+00
1.411661e-05    -4.939617e-05    0.000000e+00
1.774464e-05    -4.957415e-05    0.000000e+00
-1.819252e-05    -5.327868e-05    0.000000e+00
-1.447491e-05    -5.311116e-05    0.000000e+00
-1.081004e-05    -5.298087e-05    0.000000e+00
-7.184718e-06    -5.288780e-05    0.000000e+00
-3.585767e-06    -5.283196e-05    0.000000e+00
-8.987020e-19    -5.281335e-05    0.000000e+00
3.585767e-06    -5.283196e-05    0.000000e+00
7.184718e-06    -5.288780e-05    0.000000e+00
1.081004e-05    -5.298087e-05    0.000000e+00
1.447491e-05    -5.311116e-05    0.000000e+00
1.819252e-05    -5.327868e-05    0.000000e+00
-1.861325e-05    -5.707006e-05    0.000000e+00
-1.481149e-05    -5.691301e-05    0.000000e+00
-1.106248e-05    -5.679086e-05    0.000000e+00
-7.353011e-06    -5.670361e-05    0.000000e+00
-3.669914e-06    -5.665126e-05    0.000000e+00
-9.152191e-19    -5.663381e-05    0.000000e+00
3.669914e-06    -5.665126e-05    0.000000e+00
7.353011e-06    -5.670361e-05    0.000000e+00
1.106248e-05    -5.679086e-05    0.000000e+00
1.481149e-05    -5.691301e-05    0.000000e+00
1.861325e-05    -5.707006e-05    0.000000e+00
-1.900683e-05    -6.094287e-05    0.000000e+00
-1.512636e-05    -6.079629e-05    0.000000e+00
-1.129863e-05    -6.068229e-05    0.000000e+00
-7.510448e-06    -6.060086e-05    0.000000e+00
-3.748633e-06    -6.055200e-05    0.000000e+00
-9.366067e-19    -6.053571e-05    0.000000e+00
3.748633e-06    -6.055200e-05    0.000000e+00
7.510448e-06    -6.060086e-05    0.000000e+00
1.129863e-05    -6.068229e-05    0.000000e+00
1.512636e-05    -6.079629e-05    0.000000e+00
1.900683e-05    -6.094287e-05    0.000000e+00
-1.937327e-05    -6.489169e-05    0.000000e+00
-1.541952e-05    -6.475558e-05    0.000000e+00
-1.151850e-05    -6.464972e-05    0.000000e+00
-7.657028e-06    -6.457410e-05    0.000000e+00
-3.821923e-06    -6.452873e-05    0.000000e+00
-9.429594e-19    -6.451361e-05    0.000000e+00
3.821923e-06    -6.452873e-05    0.000000e+00
7.657028e-06    -6.457410e-05    0.000000e+00
1.151850e-05    -6.464972e-05    0.000000e+00
1.541952e-05    -6.475558e-05    0.000000e+00
1.937327e-05    -6.489169e-05    0.000000e+00
-1.971256e-05    -6.891107e-05    0.000000e+00
-1.569095e-05    -6.878544e-05    0.000000e+00
-1.172208e-05    -6.868772e-05    0.000000e+00
-7.792750e-06    -6.861792e-05    0.000000e+00
-3.889784e-06    -6.857604e-05    0.000000e+00
-9.239012e-19    -6.856208e-05    0.000000e+00
3.889784e-06    -6.857604e-05    0.000000e+00
7.792750e-06    -6.861792e-05    0.000000e+00
1.172208e-05    -6.868772e-05    0.000000e+00
1.569095e-05    -6.878544e-05    0.000000e+00
1.971256e-05    -6.891107e-05    0.000000e+00
-2.002471e-05    -7.299559e-05    0.000000e+00
-1.594068e-05    -7.288043e-05    0.000000e+00
-1.190938e-05    -7.279086e-05    0.000000e+00
-7.917611e-06    -7.272688e-05    0.000000e+00
-3.952212e-06    -7.268851e-05    0.000000e+00
-9.258070e-19    -7.267572e-05    0.000000e+00
3.952212e-06    -7.268851e-05    0.000000e+00
7.917611e-06    -7.272688e-05    0.000000e+00
1.190938e-05    -7.279086e-05    0.000000e+00
1.594068e-05    -7.288043e-05    0.000000e+00
2.002471e-05    -7.299559e-05    0.000000e+00
-2.030971e-05    -7.713981e-05    0.000000e+00
-1.616869e-05    -7.703511e-05    0.000000e+00
-1.208038e-05    -7.695370e-05    0.000000e+00
-8.031599e-06    -7.689557e-05    0.000000e+00
-4.009198e-06    -7.686071e-05    0.000000e+00
-9.558767e-19    -7.684909e-05    0.000000e+00
4.009198e-06    -7.686071e-05    0.000000e+00
8.031599e-06    -7.689557e-05    0.000000e+00
1.208038e-05    -7.695370e-05    0.000000e+00
1.616869e-05    -7.703511e-05    0.000000e+00
2.030971e-05    -7.713981e-05    0.000000e+00
-2.056757e-05    -8.133827e-05    0.000000e+00
-1.637501e-05    -8.124404e-05    0.000000e+00
-1.223508e-05    -8.117079e-05    0.000000e+00
-8.134685e-06    -8.111855e-05    0.000000e+00
-4.060719e-06    -8.108725e-05    0.000000e+00
-9.982283e-19    -8.107682e-05    0.000000e+00
4.060719e-06    -8.108725e-05    0.000000e+00
8.134685e-06    -8.111855e-05    0.000000e+00
1.223508e-05    -8.117079e-05    0.000000e+00
1.637501e-05    -8.124404e-05    0.000000e+00
2.056757e-05    -8.133827e-05    0.000000e+00
-2.079833e-05    -8.558550e-05    0.000000e+00
-1.655963e-05    -8.550173e-05    0.000000e+00
-1.237344e-05    -8.543669e-05    0.000000e+00
-8.226802e-06    -8.539041e-05    0.000000e+00
-4.106724e-06    -8.536275e-05    0.000000e+00
-1.077426e-18    -8.535356e-05    0.000000e+00
4.106724e-06    -8.536275e-05    0.000000e+00
8.226802e-06    -8.539041e-05    0.000000e+00
1.237344e-05    -8.543669e-05    0.000000e+00
1.655963e-05    -8.550173e-05    0.000000e+00
2.079833e-05    -8.558550e-05    0.000000e+00
-2.100210e-05    -8.987603e-05    0.000000e+00
-1.672261e-05    -8.980269e-05    0.000000e+00
-1.249537e-05    -8.974594e-05    0.000000e+00
-8.307807e-06    -8.970578e-05    0.000000e+00
-4.147107e-06    -8.968192e-05    0.000000e+00
-1.150271e-18    -8.967401e-05    0.000000e+00
4.147107e-06    -8.968192e-05    0.000000e+00
8.307807e-06    -8.970578e-05    0.000000e+00
1.249537e-05    -8.974594e-05    0.000000e+00
1.672261e-05    -8.980269e-05    0.000000e+00
2.100210e-05    -8.987603e-05    0.000000e+00
-2.117912e-05    -9.420439e-05    0.000000e+00
-1.686399e-05    -9.414142e-05    0.000000e+00
-1.260070e-05    -9.409307e-05    0.000000e+00
-8.377428e-06    -9.405931e-05    0.000000e+00
-4.181679e-06    -9.403948e-05    0.000000e+00
-1.182458e-18    -9.403296e-05    0.000000e+00
4.181679e-06    -9.403948e-05    0.000000e+00
8.377428e-06    -9.405931e-05    0.000000e+00
1.260070e-05    -9.409307e-05    0.000000e+00
1.686399e-05    -9.414142e-05    0.000000e+00
2.117912e-05    -9.420439e-05    0.000000e+00
-2.132994e-05    -9.856523e-05    0.000000e+00
-1.698387e-05    -9.851248e-05    0.000000e+00
-1.268909e-05    -9.847276e-05    0.000000e+00
-8.435205e-06    -9.844575e-05    0.000000e+00
-4.210141e-06    -9.843026e-05    0.000000e+00
-1.240056e-18    -9.842523e-05    0.000000e+00
4.210141e-06    -9.843026e-05    0.000000e+00
8.435205e-06    -9.844575e-05    0.000000e+00
1.268909e-05    -9.847276e-05    0.000000e+00
1.698387e-05    -9.851248e-05    0.000000e+00
2.132994e-05    -9.856523e-05    0.000000e+00
-2.145562e-05    -1.029537e-04    0.000000e+00
-1.708235e-05    -1.029109e-04    0.000000e+00
-1.275997e-05    -1.028800e-04    0.000000e+00
-8.480517e-06    -1.028600e-04    0.000000e+00
-4.232143e-06    -1.028489e-04    0.000000e+00
-1.289184e-18    -1.028454e-04    0.000000e+00
4.232143e-06    -1.028489e-04    0.000000e+00
8.480517e-06    -1.028600e-04    0.000000e+00
1.275997e-05    -1.028800e-04    0.000000e+00
1.708235e-05    -1.029109e-04    0.000000e+00
2.145562e-05    -1.029537e-04    0.000000e+00
-2.155817e-05    -1.073660e-04    0.000000e+00
-1.715935e-05    -1.073327e-04    0.000000e+00
-1.281258e-05    -1.073105e-04    0.000000e+00
-8.512904e-06    -1.072970e-04    0.000000e+00
-4.247579e-06    -1.072895e-04    0.000000e+00
-1.242174e-18    -1.072870e-04    0.000000e+00
4.247579e-06    -1.072895e-04    0.000000e+00
8.512904e-06    -1.072970e-04    0.000000e+00
1.281258e-05    -1.073105e-04    0.000000e+00
1.715935e-05    -1.073327e-04    0.000000e+00
2.155817e-05    -1.073660e-04    0.000000e+00
-2.164067e-05    -1.118022e-04    0.000000e+00
-1.721429e-05    -1.117772e-04    0.000000e+00
-1.284670e-05    -1.117621e-04    0.000000e+00
-8.533270e-06    -1.117511e-04    0.000000e+00
-4.257281e-06    -1.117436e-04    0.000000e+00
-1.168482e-18    -1.117409e-04    0.000000e+00
4.257281e-06    -1.117436e-04    0.000000e+00
8.533270e-06    -1.117511e-04    0.000000e+00
1.284670e-05    -1.117621e-04    0.000000e+00
1.721429e-05    -1.117772e-04    0.000000e+00
2.164067e-05    -1.118022e-04    0.000000e+00
-2.170513e-05    -1.162704e-04    0.000000e+00
-1.724615e-05    -1.162523e-04    0.000000e+00
-1.286626e-05    -1.162338e-04    0.000000e+00
-8.546206e-06    -1.162132e-04    0.000000e+00
-4.263865e-06    -1.161978e-04    0.000000e+00
-1.162976e-18    -1.161922e-04    0.000000e+00
4.263865e-06    -1.161978e-04    0.000000e+00
8.546206e-06    -1.162132e-04    0.000000e+00
1.286626e-05    -1.162338e-04    0.000000e+00
1.724615e-05    -1.162523e-04    0.000000e+00
2.170513e-05    -1.162704e-04    0.000000e+00
-2.173924e-05    -1.208105e-04    0.000000e+00
-1.726634e-05    -1.207758e-04    0.000000e+00
-1.288608e-05    -1.207173e-04    0.000000e+00
-8.561321e-06    -1.206645e-04    0.000000e+00
-4.272039e-06    -1.206293e-04    0.000000e+00
-1.161494e-18    -1.206170e-04    0.000000e+00
4.272039e-06    -1.206293e-04    0.000000e+00
8.561321e-06    -1.206645e-04    0.000000e+00
1.288608e-05    -1.207173e-04    0.000000e+00
1.726634e-05    -1.207758e-04    0.000000e+00
2.173924e-05    -1.208105e-04    0.000000e+00

CELL_DATA      400
TENSORS Element_Stress7.800000e-01 double
1.820598e+06 2.551812e+05        0
2.551812e+05 4.163488e+05        0
       0        0        0

1.243720e+06 1.308538e+05        0
1.308538e+05 3.566178e+05        0
       0        0        0

8.651185e+05 4.301032e+04        0
4.301032e+04 2.749959e+05        0
       0        0        0

5.100063e+05 -3.578363e+03        0
-3.578363e+03 1.690094e+05        0
       0        0        0

1.688541e+05 -2.488323e+04        0
-2.488323e+04 5.694968e+04        0
       0        0        0

-1.688184e+05 -2.487711e+04        0
-2.487711e+04 -5.695775e+04        0
       0        0        0

-5.095306e+05 -3.579112e+03        0
-3.579112e+03 -1.688447e+05        0
       0        0        0

-8.637077e+05 4.293851e+04        0
4.293851e+04 -2.744671e+05        0
       0        0        0

-1.240734e+06 1.305652e+05        0
1.305652e+05 -3.554740e+05        0
       0        0        0

-1.814375e+06 2.543707e+05        0
2.543707e+05 -4.141970e+05        0
       0        0        0

1.642070e+06 4.159748e+04        0
4.159748e+04 4.234799e+03        0
       0        0        0

1.322354e+06 1.206454e+05        0
1.206454e+05 1.286843e+05        0
       0        0        0

9.082521e+05 9.900755e+04        0
9.900755e+04 1.315191e+05        0
       0        0        0

5.364025e+05 7.580678e+04        0
7.580678e+04 9.193311e+04        0
       0        0        0

1.768172e+05 6.321707e+04        0
6.321707e+04 3.207757e+04        0
       0        0        0

-1.778550e+05 6.319873e+04        0
6.319873e+04 -3.316896e+04        0
       0        0        0

-5.369363e+05 7.574133e+04        0
7.574133e+04 -9.284490e+04        0
       0        0        0

-9.077061e+05 9.886737e+04        0
9.886737e+04 -1.320379e+05        0
       0        0        0

-1.319830e+06 1.204079e+05        0
1.204079e+05 -1.284324e+05        0
       0        0        0

-1.637466e+06 4.151082e+04        0
4.151082e+04 -3.136555e+03        0
       0        0        0

1.584953e+06 1.541639e+04        0
1.541639e+04 6.615316e+03        0
       0        0        0

1.271591e+06 6.833109e+04        0
6.833109e+04 1.757728e+04        0
       0        0        0

9.146413e+05 1.015639e+05        0
1.015639e+05 4.237686e+04        0
       0        0        0

5.430826e+05 1.074765e+05        0
1.074765e+05 3.592346e+04        0
       0        0        0

1.791459e+05 1.074054e+05        0
1.074054e+05 1.272037e+04        0
       0        0        0

-1.824790e+05 1.073775e+05        0
1.073775e+05 -1.611190e+04        0
       0        0        0

-5.458838e+05 1.073933e+05        0
1.073933e+05 -3.912503e+04        0
       0        0        0

-9.163117e+05 1.014348e+05        0
1.014348e+05 -4.515293e+04        0
       0        0        0

-1.271565e+06 6.821622e+04        0
6.821622e+04 -1.966893e+04        0
       0        0        0

-1.582978e+06 1.538448e+04        0
1.538448e+04 -7.911807e+03        0
       0        0        0

1.546129e+06 1.427370e+04        0
1.427370e+04 -3.975752e+03        0
       0        0        0

1.226683e+06 5.548208e+04        0
5.548208e+04 -1.953361e+03        0
       0        0        0

8.865538e+05 9.245024e+04        0
9.245024e+04 2.933168e+03        0
       0        0        0

5.331314e+05 1.146030e+05        0
1.146030e+05 5.877770e+03        0
       0        0        0

1.753740e+05 1.233579e+05        0
1.233579e+05 6.880625e+02        0
       0        0        0

-1.820438e+05 1.233283e+05        0
1.233283e+05 -7.415933e+03        0
       0        0        0

-5.392752e+05 1.145213e+05        0
1.145213e+05 -1.241206e+04        0
       0        0        0

-8.916350e+05 9.234262e+04        0
9.234262e+04 -9.058365e+03        0
       0        0        0

-1.230189e+06 5.539388e+04        0
5.539388e+04 -3.528931e+03        0
       0        0        0

-1.547532e+06 1.424568e+04        0
1.424568e+04 -5.504384e+02        0
       0        0        0

1.509427e+06 1.713063e+04        0
1.713063e+04 -5.567249e+03        0
       0        0        0

1.185340e+06 5.448733e+04        0
5.448733e+04 -8.577651e+03        0
       0        0        0

8.541561e+05 8.905469e+04        0
8.905469e+04 -8.329305e+03        0
       0        0        0

5.137340e+05 1.136408e+05        0
1.136408e+05 -6.745280e+03        0
       0        0        0

1.681056e+05 1.258450e+05        0
1.258450e+05 -5.639044e+03        0
       0        0        0

-1.789903e+05 1.258166e+05        0
1.258166e+05 -5.300819e+03        0
       0        0        0

-5.241237e+05 1.135646e+05        0
1.135646e+05 -4.010288e+03        0
       0        0        0

-8.635542e+05 8.895612e+04        0
8.895612e+04 -2.042812e+03        0
       0        0        0

-1.193244e+06 5.440409e+04        0
5.440409e+04 -1.179541e+03        0
       0        0        0

-1.515273e+06 1.709766e+04        0
1.709766e+04 -3.264824e+03        0
       0        0        0

1.469671e+06 1.958963e+04        0
1.958963e+04 -7.911531e+03        0
       0        0        0

1.147077e+06 5.644559e+04        0
5.644559e+04 -1.054799e+04        0
       0        0        0

8.224151e+05 8.838594e+04        0
8.838594e+04 -1.192774e+04        0
       0        0        0

4.928620e+05 1.117722e+05        0
1.117722e+05 -1.113898e+04        0
       0        0        0

1.594065e+05 1.239614e+05        0
1.239614e+05 -9.157848e+03        0
       0        0        0

-1.752704e+05 1.239347e+05        0
1.239347e+05 -6.757342e+03        0
       0        0        0

-5.082716e+05 1.117003e+05        0
1.117003e+05 -4.611022e+03        0
       0        0        0

-8.369138e+05 8.829171e+04        0
8.829171e+04 -3.479956e+03        0
       0        0        0

-1.160194e+06 5.636191e+04        0
5.636191e+04 -4.312364e+03        0
       0        0        0

-1.480879e+06 1.955284e+04        0
1.955284e+04 -6.139554e+03        0
       0        0        0

1.427069e+06 2.114429e+04        0
2.114429e+04 -1.052964e+04        0
       0        0        0

1.109854e+06 5.834958e+04        0
5.834958e+04 -1.236661e+04        0
       0        0        0

7.924051e+05 8.864128e+04        0
8.864128e+04 -1.362108e+04        0
       0        0        0

4.726277e+05 1.103428e+05        0
1.103428e+05 -1.337050e+04        0
       0        0        0

1.506199e+05 1.216735e+05        0
1.216735e+05 -1.181697e+04        0
       0        0        0

-1.721469e+05 1.216483e+05        0
1.216483e+05 -9.757740e+03        0
       0        0        0

-4.937482e+05 1.102742e+05        0
1.102742e+05 -8.067258e+03        0
       0        0        0

-8.127094e+05 8.854973e+04        0
8.854973e+04 -7.533908e+03        0
       0        0        0

-1.128918e+06 5.826553e+04        0
5.826553e+04 -8.339735e+03        0
       0        0        0

-1.444434e+06 2.110561e+04        0
2.110561e+04 -9.528609e+03        0
       0        0        0

1.382471e+06 2.200181e+04        0
2.200181e+04 -1.363722e+04        0
       0        0        0

1.072891e+06 5.961398e+04        0
5.961398e+04 -1.472183e+04        0
       0        0        0

7.635785e+05 8.901007e+04        0
8.901007e+04 -1.557414e+04        0
       0        0        0

4.533125e+05 1.094858e+05        0
1.094858e+05 -1.552412e+04        0
       0        0        0

1.419522e+05 1.200358e+05        0
1.200358e+05 -1.458784e+04        0
       0        0        0

-1.697603e+05 1.200117e+05        0
1.200117e+05 -1.326479e+04        0
       0        0        0

-4.807667e+05 1.094198e+05        0
1.094198e+05 -1.222641e+04        0
       0        0        0

-7.903212e+05 8.892090e+04        0
8.892090e+04 -1.196593e+04        0
       0        0        0

-1.098554e+06 5.953060e+04        0
5.953060e+04 -1.248635e+04        0
       0        0        0

-1.406666e+06 2.196271e+04        0
2.196271e+04 -1.309846e+04        0
       0        0        0

1.336650e+06 2.243103e+04        0
2.243103e+04 -1.712975e+04        0
       0        0        0

1.035846e+06 6.032508e+04        0
6.032508e+04 -1.770734e+04        0
       0        0        0

7.353690e+05 8.928001e+04        0
8.928001e+04 -1.819357e+04        0
       0        0        0

4.345842e+05 1.090314e+05        0
1.090314e+05 -1.820574e+04        0
       0        0        0

1.333510e+05 1.190751e+05        0
1.190751e+05 -1.770719e+04        0
       0        0        0

-1.679948e+05 1.190519e+05        0
1.190519e+05 -1.697818e+04        0
       0        0        0

-4.689286e+05 1.089678e+05        0
1.089678e+05 -1.641605e+04        0
       0        0        0

-7.691116e+05 8.919329e+04        0
8.919329e+04 -1.629667e+04        0
       0        0        0

-1.068676e+06 6.024325e+04        0
6.024325e+04 -1.657480e+04        0
       0        0        0

-1.368246e+06 2.239236e+04        0
2.239236e+04 -1.685617e+04        0
       0        0        0

1.290108e+06 2.262769e+04        0
2.262769e+04 -2.093370e+04        0
       0        0        0

9.986145e+05 6.068320e+04        0
6.068320e+04 -2.119241e+04        0
       0        0        0

7.073840e+05 8.943847e+04        0
8.943847e+04 -2.142407e+04        0
       0        0        0

4.161153e+05 1.088122e+05        0
1.088122e+05 -2.143279e+04        0
       0        0        0

1.247137e+05 1.185759e+05        0
1.185759e+05 -2.118594e+04        0
       0        0        0

-1.666835e+05 1.185536e+05        0
1.185536e+05 -2.082274e+04        0
       0        0        0

-4.578408e+05 1.087507e+05        0
1.087507e+05 -2.055219e+04        0
       0        0        0

-7.486181e+05 8.935433e+04        0
8.935433e+04 -2.051028e+04        0
       0        0        0

-1.039104e+06 6.060345e+04        0
6.060345e+04 -2.065826e+04        0
       0        0        0

-1.329592e+06 2.258991e+04        0
2.258991e+04 -2.079207e+04        0
       0        0        0

1.243138e+06 2.270943e+04        0
2.270943e+04 -2.498210e+04        0
       0        0        0

9.611829e+05 6.084707e+04        0
6.084707e+04 -2.504187e+04        0
       0        0        0

6.794119e+05 8.952007e+04        0
8.952007e+04 -2.510676e+04        0
       0        0        0

3.976942e+05 1.087151e+05        0
1.087151e+05 -2.508705e+04        0
       0        0        0

1.159751e+05 1.183403e+05        0
1.183403e+05 -2.496213e+04        0
       0        0        0

-1.656966e+05 1.183187e+05        0
1.183187e+05 -2.479576e+04        0
       0        0        0

-4.472257e+05 1.086557e+05        0
1.086557e+05 -2.468699e+04        0
       0        0        0

-7.285608e+05 8.943859e+04        0
8.943859e+04 -2.469694e+04        0
       0        0        0

-1.009752e+06 6.076971e+04        0
6.076971e+04 -2.480000e+04        0
       0        0        0

-1.290922e+06 2.267274e+04        0
2.267274e+04 -2.489961e+04        0
       0        0        0

1.195902e+06 2.273919e+04        0
2.273919e+04 -2.922324e+04        0
       0        0        0

9.235708e+05 6.091458e+04        0
6.091458e+04 -2.915047e+04        0
       0        0        0

6.513590e+05 8.955767e+04        0
8.955767e+04 -2.910387e+04        0
       0        0        0

3.792147e+05 1.086759e+05        0
1.086759e+05 -2.904718e+04        0
       0        0        0

1.071092e+05 1.182389e+05        0
1.182389e+05 -2.896999e+04        0
       0        0        0

-1.649443e+05 1.182180e+05        0
1.182180e+05 -2.889900e+04        0
       0        0        0

-4.369126e+05 1.086185e+05        0
1.086185e+05 -2.887696e+04        0
       0        0        0

-7.087800e+05 8.947891e+04        0
8.947891e+04 -2.892824e+04        0
       0        0        0

-9.805709e+05 6.083975e+04        0
6.083975e+04 -2.903784e+04        0
       0        0        0

-1.252330e+06 2.270369e+04        0
2.270369e+04 -2.916302e+04        0
       0        0        0

1.148491e+06 2.274763e+04        0
2.274763e+04 -3.361527e+04        0
       0        0        0

8.858087e+05 6.093851e+04        0
6.093851e+04 -3.344415e+04        0
       0        0        0

6.231974e+05 8.957284e+04        0
8.957284e+04 -3.331675e+04        0
       0        0        0

3.606384e+05 1.086618e+05        0
1.086618e+05 -3.322145e+04        0
       0        0        0

9.811734e+04 1.181997e+05        0
1.181997e+05 -3.315416e+04        0
       0        0        0

-1.643651e+05 1.181796e+05        0
1.181796e+05 -3.312513e+04        0
       0        0        0

-4.268000e+05 1.086064e+05        0
1.086064e+05 -3.315081e+04        0
       0        0        0

-6.891844e+05 8.949683e+04        0
8.949683e+04 -3.323922e+04        0
       0        0        0

-9.515284e+05 6.086627e+04        0
6.086627e+04 -3.338182e+04        0
       0        0        0

-1.213844e+06 2.271337e+04        0
2.271337e+04 -3.356049e+04        0
       0        0        0

1.100960e+06 2.274841e+04        0
2.274841e+04 -3.812278e+04        0
       0        0        0

8.479289e+05 6.094459e+04        0
6.094459e+04 -3.787019e+04        0
       0        0        0

5.949322e+05 8.957762e+04        0
8.957762e+04 -3.767803e+04        0
       0        0        0

3.419635e+05 1.086573e+05        0
1.086573e+05 -3.754494e+04        0
       0        0        0

8.901558e+04 1.181867e+05        0
1.181867e+05 -3.747027e+04        0
       0        0        0

-1.639142e+05 1.181674e+05        0
1.181674e+05 -3.745768e+04        0
       0        0        0

-4.168253e+05 1.086039e+05        0
1.086039e+05 -3.751247e+04        0
       0        0        0

-6.697180e+05 8.950436e+04        0
8.950436e+04 -3.763608e+04        0
       0        0        0

-9.225952e+05 6.087498e+04        0
6.087498e+04 -3.782343e+04        0
       0        0        0

-1.175457e+06 2.271539e+04        0
2.271539e+04 -3.806658e+04        0
       0        0        0

1.053347e+06 2.274703e+04        0
2.274703e+04 -4.271420e+04        0
       0        0        0

8.099626e+05 6.094429e+04        0
6.094429e+04 -4.238866e+04        0
       0        0        0

5.665832e+05 8.957803e+04        0
8.957803e+04 -4.214000e+04        0
       0        0        0

3.232060e+05 1.086559e+05        0
1.086559e+05 -4.197068e+04        0
       0        0        0

7.982720e+04 1.181835e+05        0
1.181835e+05 -4.188171e+04        0
       0        0        0

-1.635563e+05 1.181649e+05        0
1.181649e+05 -4.187447e+04        0
       0        0        0

-4.069457e+05 1.086046e+05        0
1.086046e+05 -4.195008e+04        0
       0        0        0

-6.503417e+05 8.950753e+04        0
8.950753e+04 -4.210767e+04        0
       0        0        0

-8.937438e+05 6.087730e+04        0
6.087730e+04 -4.234382e+04        0
       0        0        0

-1.137148e+06 2.271526e+04        0
2.271526e+04 -4.265429e+04        0
       0        0        0

1.005683e+06 2.274539e+04        0
2.274539e+04 -4.736038e+04        0
       0        0        0

7.719394e+05 6.094219e+04        0
6.094219e+04 -4.696667e+04        0
       0        0        0

5.381756e+05 8.957681e+04        0
8.957681e+04 -4.666608e+04        0
       0        0        0

3.043894e+05 1.086553e+05        0
1.086553e+05 -4.646218e+04        0
       0        0        0

7.057816e+04 1.181832e+05        0
1.181832e+05 -4.635676e+04        0
       0        0        0

-1.632605e+05 1.181653e+05        0
1.181653e+05 -4.635058e+04        0
       0        0        0

-3.971278e+05 1.086060e+05        0
1.086060e+05 -4.644347e+04        0
       0        0        0

-6.310240e+05 8.950907e+04        0
8.950907e+04 -4.663394e+04        0
       0        0        0

-8.649473e+05 6.087783e+04        0
6.087783e+04 -4.691929e+04        0
       0        0        0

-1.098893e+06 2.271487e+04        0
2.271487e+04 -4.729637e+04        0
       0        0        0

9.579955e+05 2.274400e+04        0
2.274400e+04 -5.203381e+04        0
       0        0        0

7.338873e+05 6.093989e+04        0
6.093989e+04 -5.157525e+04        0
       0        0        0

5.097360e+05 8.957508e+04        0
8.957508e+04 -5.122566e+04        0
       0        0        0

2.855393e+05 1.086546e+05        0
1.086546e+05 -5.098880e+04        0
       0        0        0

6.129495e+04 1.181835e+05        0
1.181835e+05 -5.086675e+04        0
       0        0        0

-1.629989e+05 1.181663e+05        0
1.181663e+05 -5.086025e+04        0
       0        0        0

-3.873432e+05 1.086073e+05        0
1.086073e+05 -5.096887e+04        0
       0        0        0

-6.117373e+05 8.951011e+04        0
8.951011e+04 -5.119108e+04        0
       0        0        0

-8.361791e+05 6.087815e+04        0
6.087815e+04 -5.152449e+04        0
       0        0        0

-1.060664e+06 2.271473e+04        0
2.271473e+04 -5.196605e+04        0
       0        0        0

9.103102e+05 2.274290e+04        0
2.274290e+04 -5.670829e+04        0
       0        0        0

6.958326e+05 6.093780e+04        0
6.093780e+04 -5.618768e+04        0
       0        0        0

4.812907e+05 8.957328e+04        0
8.957328e+04 -5.579141e+04        0
       0        0        0

2.666817e+05 1.086537e+05        0
1.086537e+05 -5.552312e+04        0
       0        0        0

5.200354e+04 1.181835e+05        0
1.181835e+05 -5.538500e+04        0
       0        0        0

-1.627453e+05 1.181671e+05        0
1.181671e+05 -5.537790e+04        0
       0        0        0

-3.775653e+05 1.086084e+05        0
1.086084e+05 -5.550144e+04        0
       0        0        0

-5.924555e+05 8.951107e+04        0
8.951107e+04 -5.575422e+04        0
       0        0        0

-8.074137e+05 6.087870e+04        0
6.087870e+04 -5.613390e+04        0
       0        0        0

-1.022436e+06 2.271486e+04        0
2.271486e+04 -5.663735e+04        0
       0        0        0

8.626520e+05 2.274198e+04        0
2.274198e+04 -6.135878e+04        0
       0        0        0

6.578008e+05 6.093596e+04        0
6.093596e+04 -6.077882e+04        0
       0        0        0

4.528650e+05 8.957150e+04        0
8.957150e+04 -6.033795e+04        0
       0        0        0

2.478418e+05 1.086526e+05        0
1.086526e+05 -6.003971e+04        0
       0        0        0

4.272898e+04 1.181833e+05        0
1.181833e+05 -5.988630e+04        0
       0        0        0

-1.624747e+05 1.181676e+05        0
1.181676e+05 -5.987867e+04        0
       0        0        0

-3.677693e+05 1.086093e+05        0
1.086093e+05 -6.001656e+04        0
       0        0        0

-5.731539e+05 8.951206e+04        0
8.951206e+04 -6.029866e+04        0
       0        0        0

-7.786261e+05 6.087948e+04        0
6.087948e+04 -6.072266e+04        0
       0        0        0

-9.841819e+05 2.271520e+04        0
2.271520e+04 -6.128530e+04        0
       0        0        0

8.150447e+05 2.274119e+04        0
2.274119e+04 -6.596136e+04        0
       0        0        0

6.198157e+05 6.093429e+04        0
6.093429e+04 -6.532473e+04        0
       0        0        0

4.244830e+05 8.956978e+04        0
8.956978e+04 -6.484132e+04        0
       0        0        0

2.290436e+05 1.086514e+05        0
1.086514e+05 -6.451456e+04        0
       0        0        0

3.349528e+04 1.181828e+05        0
1.181828e+05 -6.434667e+04        0
       0        0        0

-1.621631e+05 1.181678e+05        0
1.181678e+05 -6.433865e+04        0
       0        0        0

-3.579315e+05 1.086101e+05        0
1.086101e+05 -6.449035e+04        0
       0        0        0

-5.538087e+05 8.951311e+04        0
8.951311e+04 -6.480052e+04        0
       0        0        0

-7.497925e+05 6.088043e+04        0
6.088043e+04 -6.526685e+04        0
       0        0        0

-9.458791e+05 2.271565e+04        0
2.271565e+04 -6.588596e+04        0
       0        0        0

7.675109e+05 2.274046e+04        0
2.274046e+04 -7.049318e+04        0
       0        0        0

5.819002e+05 6.093273e+04        0
6.093273e+04 -6.980260e+04        0
       0        0        0

3.961677e+05 8.956811e+04        0
8.956811e+04 -6.927870e+04        0
       0        0        0

2.103102e+05 1.086501e+05        0
1.086501e+05 -6.892486e+04        0
       0        0        0

2.432535e+04 1.181822e+05        0
1.181822e+05 -6.874327e+04        0
       0        0        0

-1.617877e+05 1.181679e+05        0
1.181679e+05 -6.873499e+04        0
       0        0        0

-3.480290e+05 1.086108e+05        0
1.086108e+05 -6.889993e+04        0
       0        0        0

-5.343973e+05 8.951420e+04        0
8.951420e+04 -6.923690e+04        0
       0        0        0

-7.208901e+05 6.088150e+04        0
6.088150e+04 -6.974356e+04        0
       0        0        0

-9.075041e+05 2.271617e+04        0
2.271617e+04 -7.041649e+04        0
       0        0        0

7.200723e+05 2.273978e+04        0
2.273978e+04 -7.493249e+04        0
       0        0        0

5.440762e+05 6.093125e+04        0
6.093125e+04 -7.419071e+04        0
       0        0        0

3.679410e+05 8.956648e+04        0
8.956648e+04 -7.362841e+04        0
       0        0        0

1.916633e+05 1.086488e+05        0
1.086488e+05 -7.324889e+04        0
       0        0        0

1.524098e+04 1.181815e+05        0
1.181815e+05 -7.305436e+04        0
       0        0        0

-1.613270e+05 1.181679e+05        0
1.181679e+05 -7.304590e+04        0
       0        0        0

-3.380404e+05 1.086115e+05        0
1.086115e+05 -7.322349e+04        0
       0        0        0

-5.148979e+05 8.951533e+04        0
8.951533e+04 -7.358598e+04        0
       0        0        0

-6.918973e+05 6.088265e+04        0
6.088265e+04 -7.413101e+04        0
       0        0        0

-8.690350e+05 2.271673e+04        0
2.271673e+04 -7.485511e+04        0
       0        0        0

6.727496e+05 2.273915e+04        0
2.273915e+04 -7.925863e+04        0
       0        0        0

5.063643e+05 6.092987e+04        0
6.092987e+04 -7.846843e+04        0
       0        0        0

3.398235e+05 8.956489e+04        0
8.956489e+04 -7.786983e+04        0
       0        0        0

1.731238e+05 1.086474e+05        0
1.086474e+05 -7.746605e+04        0
       0        0        0

6.262879e+03 1.181806e+05        0
1.181806e+05 -7.725929e+04        0
       0        0        0

-1.607601e+05 1.181679e+05        0
1.181679e+05 -7.725069e+04        0
       0        0        0

-3.279448e+05 1.086121e+05        0
1.086121e+05 -7.744030e+04        0
       0        0        0

-4.952900e+05 8.951651e+04        0
8.951651e+04 -7.782701e+04        0
       0        0        0

-6.627933e+05 6.088389e+04        0
6.088389e+04 -7.840849e+04        0
       0        0        0

-8.304513e+05 2.271735e+04        0
2.271735e+04 -7.918115e+04        0
       0        0        0

6.255623e+05 2.273859e+04        0
2.273859e+04 -8.345202e+04        0
       0        0        0

4.687842e+05 6.092860e+04        0
6.092860e+04 -8.261621e+04        0
       0        0        0

3.118350e+05 8.956335e+04        0
8.956335e+04 -8.198342e+04        0
       0        0        0

1.547113e+05 1.086460e+05        0
1.086460e+05 -8.155678e+04        0
       0        0        0

-2.589332e+03 1.181797e+05        0
1.181797e+05 -8.133849e+04        0
       0        0        0

-1.600676e+05 1.181676e+05        0
1.181676e+05 -8.132976e+04        0
       0        0        0

-3.177230e+05 1.086127e+05        0
1.086127e+05 -8.153073e+04        0
       0        0        0

-4.755540e+05 8.951773e+04        0
8.951773e+04 -8.194037e+04        0
       0        0        0

-6.335585e+05 6.088526e+04        0
6.088526e+04 -8.255636e+04        0
       0        0        0

-7.917331e+05 2.271804e+04        0
2.271804e+04 -8.337502e+04        0
       0        0        0

5.785286e+05 2.273817e+04        0
2.273817e+04 -8.749418e+04        0
       0        0        0

4.313542e+05 6.092752e+04        0
6.092752e+04 -8.661559e+04        0
       0        0        0

2.839942e+05 8.956185e+04        0
8.956185e+04 -8.595072e+04        0
       0        0        0

1.364444e+05 1.086444e+05        0
1.086444e+05 -8.550260e+04        0
       0        0        0

-1.129712e+04 1.181785e+05        0
1.181785e+05 -8.527347e+04        0
       0        0        0

-1.592310e+05 1.181672e+05        0
1.181672e+05 -8.526462e+04        0
       0        0        0

-3.073564e+05 1.086132e+05        0
1.086132e+05 -8.547630e+04        0
       0        0        0

-4.556717e+05 8.951900e+04        0
8.951900e+04 -8.590754e+04        0
       0        0        0

-6.041745e+05 6.088680e+04        0
6.088680e+04 -8.655609e+04        0
       0        0        0

-7.528619e+05 2.271886e+04        0
2.271886e+04 -8.741819e+04        0
       0        0        0

5.316658e+05 2.273795e+04        0
2.273795e+04 -9.136769e+04        0
       0        0        0

3.940921e+05 6.092663e+04        0
6.092663e+04 -9.044910e+04        0
       0        0        0

2.563184e+05 8.956035e+04        0
8.956035e+04 -8.975416e+04        0
       0        0        0

1.183407e+05 1.086427e+05        0
1.086427e+05 -8.928591e+04        0
       0        0        0

-1.984304e+04 1.181771e+05        0
1.181771e+05 -8.904673e+04        0
       0        0        0

-1.582329e+05 1.181665e+05        0
1.181665e+05 -8.903797e+04        0
       0        0        0

-2.968278e+05 1.086135e+05        0
1.086135e+05 -8.925978e+04        0
       0        0        0

-4.356257e+05 8.952026e+04        0
8.952026e+04 -8.971126e+04        0
       0        0        0

-5.746240e+05 6.088854e+04        0
6.088854e+04 -9.039032e+04        0
       0        0        0

-7.138200e+05 2.271989e+04        0
2.271989e+04 -9.129325e+04        0
       0        0        0

4.849900e+05 2.273796e+04        0
2.273796e+04 -9.505616e+04        0
       0        0        0

3.570143e+05 6.092577e+04        0
6.092577e+04 -9.410011e+04        0
       0        0        0

2.288244e+05 8.955862e+04        0
8.955862e+04 -9.337680e+04        0
       0        0        0

1.004164e+05 1.086409e+05        0
1.086409e+05 -9.288973e+04        0
       0        0        0

-2.821084e+04 1.181759e+05        0
1.181759e+05 -9.264170e+04        0
       0        0        0

-1.570570e+05 1.181660e+05        0
1.181660e+05 -9.263378e+04        0
       0        0        0

-2.861209e+05 1.086137e+05        0
1.086137e+05 -9.286554e+04        0
       0        0        0

-4.153999e+05 8.952130e+04        0
8.952130e+04 -9.333582e+04        0
       0        0        0

-5.448908e+05 6.089031e+04        0
6.089031e+04 -9.404299e+04        0
       0        0        0

-6.745908e+05 2.272114e+04        0
2.272114e+04 -9.498387e+04        0
       0        0        0

4.385165e+05 2.273798e+04        0
2.273798e+04 -9.854412e+04        0
       0        0        0

3.201365e+05 6.092413e+04        0
6.092413e+04 -9.755241e+04        0
       0        0        0

2.015270e+05 8.955604e+04        0
8.955604e+04 -9.680154e+04        0
       0        0        0

8.268605e+04 1.086393e+05        0
1.086393e+05 -9.629692e+04        0
       0        0        0

-3.638570e+04 1.181760e+05        0
1.181760e+05 -9.604233e+04        0
       0        0        0

-1.556878e+05 1.181669e+05        0
1.181669e+05 -9.603768e+04        0
       0        0        0

-2.752197e+05 1.086142e+05        0
1.086142e+05 -9.628030e+04        0
       0        0        0

-3.949789e+05 8.952148e+04        0
8.952148e+04 -9.676788e+04        0
       0        0        0

-5.149601e+05 6.089129e+04        0
6.089129e+04 -9.749979e+04        0
       0        0        0

-6.351590e+05 2.272241e+04        0
2.272241e+04 -9.847493e+04        0
       0        0        0

3.922608e+05 2.273705e+04        0
2.273705e+04 -1.018168e+05        0
       0        0        0

2.834737e+05 6.091918e+04        0
6.091918e+04 -1.007892e+05        0
       0        0        0

1.744389e+05 8.955103e+04        0
8.955103e+04 -1.000095e+05        0
       0        0        0

6.516112e+04 1.086394e+05        0
1.086394e+05 -9.948864e+04        0
       0        0        0

-4.435479e+04 1.181814e+05        0
1.181814e+05 -9.923256e+04        0
       0        0        0

-1.541098e+05 1.181730e+05        0
1.181730e+05 -9.923756e+04        0
       0        0        0

-2.641076e+05 1.086162e+05        0
1.086162e+05 -9.949471e+04        0
       0        0        0

-3.743470e+05 8.951924e+04        0
8.951924e+04 -9.999807e+04        0
       0        0        0

-4.848186e+05 6.088897e+04        0
6.088897e+04 -1.007491e+05        0
       0        0        0

-5.955116e+05 2.272272e+04        0
2.272272e+04 -1.017526e+05        0
       0        0        0

3.462408e+05 2.273213e+04        0
2.273213e+04 -1.048596e+05        0
       0        0        0

2.470402e+05 6.090435e+04        0
6.090435e+04 -1.037913e+05        0
       0        0        0

1.475679e+05 8.953998e+04        0
8.953998e+04 -1.029768e+05        0
       0        0        0

4.784706e+04 1.086446e+05        0
1.086446e+05 -1.024414e+05        0
       0        0        0

-5.210859e+04 1.182015e+05        0
1.182015e+05 -1.021950e+05        0
       0        0        0

-1.523066e+05 1.181938e+05        0
1.181938e+05 -1.022248e+05        0
       0        0        0

-2.527641e+05 1.086235e+05        0
1.086235e+05 -1.025064e+05        0
       0        0        0

-3.534861e+05 8.951095e+04        0
8.951095e+04 -1.030243e+05        0
       0        0        0

-4.544544e+05 6.087677e+04        0
6.087677e+04 -1.037842e+05        0
       0        0        0

-5.556397e+05 2.271905e+04        0
2.271905e+04 -1.048050e+05        0
       0        0        0

3.004822e+05 2.271539e+04        0
2.271539e+04 -1.076574e+05        0
       0        0        0

2.108493e+05 6.086437e+04        0
6.086437e+04 -1.065333e+05        0
       0        0        0

1.209111e+05 8.951546e+04        0
8.951546e+04 -1.056691e+05        0
       0        0        0

3.073692e+04 1.086641e+05        0
1.086641e+05 -1.051219e+05        0
       0        0        0

-5.964355e+04 1.182578e+05        0
1.182578e+05 -1.049091e+05        0
       0        0        0

-1.502580e+05 1.182508e+05        0
1.182508e+05 -1.049962e+05        0
       0        0        0

-2.411586e+05 1.086450e+05        0
1.086450e+05 -1.053249e+05        0
       0        0        0

-3.323700e+05 8.948920e+04        0
8.948920e+04 -1.058577e+05        0
       0        0        0

-4.238570e+05 6.083943e+04        0
6.083943e+04 -1.066065e+05        0
       0        0        0

-5.155448e+05 2.270357e+04        0
2.270357e+04 -1.076228e+05        0
       0        0        0

2.550302e+05 2.266861e+04        0
2.266861e+04 -1.101928e+05        0
       0        0        0

1.749112e+05 6.076689e+04        0
6.076689e+04 -1.089786e+05        0
       0        0        0

9.444394e+04 8.946363e+04        0
8.946363e+04 -1.080332e+05        0
       0        0        0

1.379929e+04 1.087177e+05        0
1.087177e+05 -1.074804e+05        0
       0        0        0

-6.696699e+04 1.183950e+05        0
1.183950e+05 -1.073481e+05        0
       0        0        0

-1.479345e+05 1.183887e+05        0
1.183887e+05 -1.075565e+05        0
       0        0        0

-2.292386e+05 1.087005e+05        0
1.087005e+05 -1.079789e+05        0
       0        0        0

-3.109536e+05 8.944014e+04        0
8.944014e+04 -1.085307e+05        0
       0        0        0

-3.930164e+05 6.074460e+04        0
6.074460e+04 -1.092323e+05        0
       0        0        0

-4.752498e+05 2.265805e+04        0
2.265805e+04 -1.102010e+05        0
       0        0        0

2.099707e+05 2.255312e+04        0
2.255312e+04 -1.124452e+05        0
       0        0        0

1.392276e+05 6.054966e+04        0
6.054966e+04 -1.110720e+05        0
       0        0        0

6.809783e+04 8.936201e+04        0
8.936201e+04 -1.099896e+05        0
       0        0        0

-3.042201e+03 1.088455e+05        0
1.088455e+05 -1.094456e+05        0
       0        0        0

-7.410476e+04 1.186961e+05        0
1.186961e+05 -1.094775e+05        0
       0        0        0

-1.452897e+05 1.186906e+05        0
1.186906e+05 -1.099193e+05        0
       0        0        0

-2.169085e+05 1.088304e+05        0
1.088304e+05 -1.105207e+05        0
       0        0        0

-2.891518e+05 8.934130e+04        0
8.934130e+04 -1.111065e+05        0
       0        0        0

-3.619182e+05 6.053005e+04        0
6.053005e+04 -1.117009e+05        0
       0        0        0

-4.348222e+05 2.254384e+04        0
2.254384e+04 -1.125421e+05        0
       0        0        0

1.654676e+05 2.229389e+04        0
2.229389e+04 -1.143894e+05        0
       0        0        0

1.037757e+05 6.010633e+04        0
6.010633e+04 -1.127378e+05        0
       0        0        0

4.172434e+04 8.918285e+04        0
8.918285e+04 -1.114369e+05        0
       0        0        0

-1.993674e+04 1.091211e+05        0
1.091211e+05 -1.109352e+05        0
       0        0        0

-8.111029e+04 1.192969e+05        0
1.192969e+05 -1.112604e+05        0
       0        0        0

-1.422485e+05 1.192922e+05        0
1.192922e+05 -1.121001e+05        0
       0        0        0

-2.040019e+05 1.091080e+05        0
1.091080e+05 -1.130150e+05        0
       0        0        0

-2.668047e+05 8.916493e+04        0
8.916493e+04 -1.136749e+05        0
       0        0        0

-3.305323e+05 6.008944e+04        0
6.008944e+04 -1.140806e+05        0
       0        0        0

-3.944153e+05 2.228592e+04        0
2.228592e+04 -1.146607e+05        0
       0        0        0

1.218143e+05 2.175987e+04        0
2.175987e+04 -1.160001e+05        0
       0        0        0

6.846991e+04 5.928775e+04        0
5.928775e+04 -1.139016e+05        0
       0        0        0

1.504776e+04 8.891653e+04        0
8.891653e+04 -1.123083e+05        0
       0        0        0

-3.712658e+04 1.096611e+05        0
1.096611e+05 -1.119237e+05        0
       0        0        0

-8.806576e+04 1.203706e+05        0
1.203706e+05 -1.126850e+05        0
       0        0        0

-1.387020e+05 1.203666e+05        0
1.203666e+05 -1.140839e+05        0
       0        0        0

-1.902583e+05 1.096500e+05        0
1.096500e+05 -1.154691e+05        0
       0        0        0

-2.436324e+05 8.890144e+04        0
8.890144e+04 -1.162985e+05        0
       0        0        0

-2.987810e+05 5.927361e+04        0
5.927361e+04 -1.164537e+05        0
       0        0        0

-3.543298e+05 2.175326e+04        0
2.175326e+04 -1.165894e+05        0
       0        0        0

7.947515e+04 2.075678e+04        0
2.075678e+04 -1.172821e+05        0
       0        0        0

3.307865e+04 5.797447e+04        0
5.797447e+04 -1.145899e+05        0
       0        0        0

-1.236393e+04 8.865059e+04        0
8.865059e+04 -1.127886e+05        0
       0        0        0

-5.490063e+04 1.106013e+05        0
1.106013e+05 -1.126577e+05        0
       0        0        0

-9.504947e+04 1.220074e+05        0
1.220074e+05 -1.138552e+05        0
       0        0        0

-1.345317e+05 1.220041e+05        0
1.220041e+05 -1.157267e+05        0
       0        0        0

-1.753639e+05 1.105923e+05        0
1.105923e+05 -1.176118e+05        0
       0        0        0

-2.192067e+05 8.863840e+04        0
8.863840e+04 -1.187962e+05        0
       0        0        0

-2.664683e+05 5.796312e+04        0
5.796312e+04 -1.188293e+05        0
       0        0        0

-3.150782e+05 2.075156e+04        0
2.075156e+04 -1.183719e+05        0
       0        0        0

3.901604e+04 1.910250e+04        0
1.910250e+04 -1.183311e+05        0
       0        0        0

-2.945801e+03 5.638064e+04        0
5.638064e+04 -1.153385e+05        0
       0        0        0

-4.097162e+04 8.874194e+04        0
8.874194e+04 -1.139163e+05        0
       0        0        0

-7.334316e+04 1.119428e+05        0
1.119428e+05 -1.141993e+05        0
       0        0        0

-1.020044e+05 1.238170e+05        0
1.238170e+05 -1.151847e+05        0
       0        0        0

-1.297257e+05 1.238146e+05        0
1.238146e+05 -1.165458e+05        0
       0        0        0

-1.591896e+05 1.119363e+05        0
1.119363e+05 -1.183359e+05        0
       0        0        0

-1.930733e+05 8.873286e+04        0
8.873286e+04 -1.201362e+05        0
       0        0        0

-2.331278e+05 5.637209e+04        0
5.637209e+04 -1.207525e+05        0
       0        0        0

-2.773664e+05 1.909865e+04        0
1.909865e+04 -1.200521e+05        0
       0        0        0

5.231885e+02 1.710271e+04        0
1.710271e+04 -1.199683e+05        0
       0        0        0

-4.055900e+04 5.592265e+04        0
5.592265e+04 -1.183223e+05        0
       0        0        0

-7.064224e+04 9.001307e+04        0
9.001307e+04 -1.192608e+05        0
       0        0        0

-9.160225e+04 1.128998e+05        0
1.128998e+05 -1.193451e+05        0
       0        0        0

-1.084793e+05 1.240404e+05        0
1.240404e+05 -1.176209e+05        0
       0        0        0

-1.246149e+05 1.240392e+05        0
1.240392e+05 -1.154734e+05        0
       0        0        0

-1.424954e+05 1.128964e+05        0
1.128964e+05 -1.147534e+05        0
       0        0        0

-1.653497e+05 9.000769e+04        0
9.000769e+04 -1.167341e+05        0
       0        0        0

-1.979384e+05 5.591692e+04        0
5.591692e+04 -1.201833e+05        0
       0        0        0

-2.416132e+05 1.710010e+04        0
1.710010e+04 -1.211410e+05        0
       0        0        0

-3.838756e+04 1.780089e+04        0
1.780089e+04 -1.241547e+05        0
       0        0        0

-8.056431e+04 6.133461e+04        0
6.133461e+04 -1.329179e+05        0
       0        0        0

-9.823377e+04 9.241439e+04        0
9.241439e+04 -1.376493e+05        0
       0        0        0

-1.069299e+05 1.101518e+05        0
1.101518e+05 -1.330247e+05        0
       0        0        0

-1.134903e+05 1.182691e+05        0
1.182691e+05 -1.226657e+05        0
       0        0        0

-1.199857e+05 1.182695e+05        0
1.182695e+05 -1.108102e+05        0
       0        0        0

-1.278480e+05 1.101525e+05        0
1.101525e+05 -1.017531e+05        0
       0        0        0

-1.390687e+05 9.241419e+04        0
9.241419e+04 -9.965328e+04        0
       0        0        0

-1.602170e+05 6.133242e+04        0
6.133242e+04 -1.078653e+05        0
       0        0        0

-2.060740e+05 1.779909e+04        0
1.779909e+04 -1.203165e+05        0
       0        0        0

-9.041227e+04 4.054631e+04        0
4.054631e+04 -1.562833e+05        0
       0        0        0

-1.138421e+05 7.593486e+04        0
7.593486e+04 -1.858539e+05        0
       0        0        0

-1.150718e+05 8.920336e+04        0
8.920336e+04 -1.817339e+05        0
       0        0        0

-1.153875e+05 9.571255e+04        0
9.571255e+04 -1.608397e+05        0
       0        0        0

-1.157489e+05 9.856239e+04        0
9.856239e+04 -1.317915e+05        0
       0        0        0

-1.168366e+05 9.856429e+04        0
9.856429e+04 -1.007937e+05        0
       0        0        0

-1.188659e+05 9.571771e+04        0
9.571771e+04 -7.341100e+04        0
       0        0        0

-1.225609e+05 8.921016e+04        0
8.921016e+04 -5.589328e+04        0
       0        0        0

-1.289065e+05 7.594047e+04        0
7.594047e+04 -5.688864e+04        0
       0        0        0

-1.586523e+05 4.054609e+04        0
4.054609e+04 -9.278138e+04        0
       0        0        0

POINT_DATA     451
VECTORS DISPLACEMENT_8.000000e-01 double
0.000000e+00    0.000000e+00    0.000000e+00
0.000000e+00    0.000000e+00    0.000000e+00
0.000000e+00    0.000000e+00    0.000000e+00
0.000000e+00    0.000000e+00    0.000000e+00
0.000000e+00    0.000000e+00    0.000000e+00
0.000000e+00    0.000000e+00    0.000000e+00
0.000000e+00    0.000000e+00    0.000000e+00
0.000000e+00    0.000000e+00    0.000000e+00
0.000000e+00    0.000000e+00    0.000000e+00
0.000000e+00    0.000000e+00    0.000000e+00
0.000000e+00    0.000000e+00    0.000000e+00
-1.141595e-06    -8.299605e-07    0.000000e+00
-7.233448e-07    -4.163094e-07    0.000000e+00
-5.161144e-07    -2.157261e-07    0.000000e+00
-3.332233e-07    -1.068318e-07    0.000000e+00
-1.642863e-07    -5.047426e-08    0.000000e+00
-3.315701e-20    -3.295145e-08    0.000000e+00
1.642863e-07    -5.047426e-08    0.000000e+00
3.332233e-07    -1.068318e-07    0.000000e+00
5.161144e-07    -2.157261e-07    0.000000e+00
7.233448e-07    -4.163094e-07    0.000000e+00
1.141595e-06    -8.299605e-07    0.000000e+00
-2.153941e-06    -1.380309e-06    0.000000e+00
-1.574436e-06    -9.987668e-07    0.000000e+00
-1.105093e-06    -7.015532e-07    0.000000e+00
-7.128292e-07    -5.177059e-07    0.000000e+00
-3.501023e-07    -4.175298e-07    0.000000e+00
-6.998941e-20    -3.857102e-07    0.000000e+00
3.501023e-07    -4.175298e-07    0.000000e+00
7.128292e-07    -5.177059e-07    0.000000e+00
1.105093e-06    -7.015532e-07    0.000000e+00
1.574436e-06    -9.987668e-07    0.000000e+00
2.153941e-06    -1.380309e-06    0.000000e+00
-3.132427e-06    -2.064634e-06    0.000000e+00
-2.394168e-06    -1.682257e-06    0.000000e+00
-1.722702e-06    -1.380761e-06    0.000000e+00
-1.115240e-06    -1.168096e-06    0.000000e+00
-5.487489e-07    -1.045521e-06    0.000000e+00
-1.101209e-19    -1.005593e-06    0.000000e+00
5.487489e-07    -1.045521e-06    0.000000e+00
1.115240e-06    -1.168096e-06    0.000000e+00
1.722702e-06    -1.380761e-06    0.000000e+00
2.394168e-06    -1.682257e-06    0.000000e+00
3.132427e-06    -2.064634e-06    0.000000e+00
-4.100076e-06    -2.909172e-06    0.000000e+00
-3.186876e-06    -2.535522e-06    0.000000e+00
-2.326958e-06    -2.239053e-06    0.000000e+00
-1.519408e-06    -2.025105e-06    0.000000e+00
-7.500557e-07    -1.896684e-06    0.000000e+00
-1.518307e-19    -1.854101e-06    0.000000e+00
7.500557e-07    -1.896684e-06    0.000000e+00
1.519408e-06    -2.025105e-06    0.000000e+00
2.326958e-06    -2.239053e-06    0.000000e+00
3.186876e-06    -2.535522e-06    0.000000e+00
4.100076e-06    -2.909172e-06    0.000000e+00
-5.051341e-06    -3.936654e-06    0.000000e+00
-3.956477e-06    -3.571725e-06    0.000000e+00
-2.911986e-06    -3.284208e-06    0.000000e+00
-1.912865e-06    -3.075889e-06    0.000000e+00
-9.475500e-07    -2.949778e-06    0.000000e+00
-1.948043e-19    -2.907564e-06    0.000000e+00
9.475500e-07    -2.949778e-06    0.000000e+00
1.912865e-06    -3.075889e-06    0.000000e+00
2.911986e-06    -3.284208e-06    0.000000e+00
3.956477e-06    -3.571725e-06    0.000000e+00
5.051341e-06    -3.936654e-06    0.000000e+00
-5.981873e-06    -5.149742e-06    0.000000e+00
-4.704513e-06    -4.794468e-06    0.000000e+00
-3.477740e-06    -4.516043e-06    0.000000e+00
-2.292922e-06    -4.315096e-06    0.000000e+00
-1.138484e-06    -4.193469e-06    0.000000e+00
-2.382545e-19    -4.152740e-06    0.000000e+00
1.138484e-06    -4.193469e-06    0.000000e+00
2.292922e-06    -4.315096e-06    0.000000e+00
3.477740e-06    -4.516043e-06    0.000000e+00
4.704513e-06    -4.794468e-06    0.000000e+00
5.981873e-06    -5.149742e-06    0.000000e+00
-6.888558e-06    -6.546376e-06    0.000000e+00
-5.431254e-06    -6.201154e-06    0.000000e+00
-4.025294e-06    -5.931590e-06    0.000000e+00
-2.659769e-06    -5.737829e-06    0.000000e+00
-1.322562e-06    -5.620886e-06    0.000000e+00
-2.791503e-19    -5.581769e-06    0.000000e+00
1.322562e-06    -5.620886e-06    0.000000e+00
2.659769e-06    -5.737829e-06    0.000000e+00
4.025294e-06    -5.931590e-06    0.000000e+00
5.431254e-06    -6.201154e-06    0.000000e+00
6.888558e-06    -6.546376e-06    0.000000e+00
-7.769676e-06    -8.122139e-06    0.000000e+00
-6.136609e-06    -7.787205e-06    0.000000e+00
-4.555509e-06    -7.526210e-06    0.000000e+00
-3.014226e-06    -7.339157e-06    0.000000e+00
-1.500173e-06    -7.226543e-06    0.000000e+00
-3.194638e-19    -7.188927e-06    0.000000e+00
1.500173e-06    -7.226543e-06    0.000000e+00
3.014226e-06    -7.339157e-06    0.000000e+00
4.555509e-06    -7.526210e-06    0.000000e+00
6.136609e-06    -7.787205e-06    0.000000e+00
7.769676e-06    -8.122139e-06    0.000000e+00
-8.624338e-06    -9.871838e-06    0.000000e+00
-6.820449e-06    -9.547301e-06    0.000000e+00
-5.068913e-06    -9.294676e-06    0.000000e+00
-3.356973e-06    -9.113935e-06    0.000000e+00
-1.671744e-06    -9.005300e-06    0.000000e+00
-3.620801e-19    -8.969049e-06    0.000000e+00
1.671744e-06    -9.005300e-06    0.000000e+00
3.356973e-06    -9.113935e-06    0.000000e+00
5.068913e-06    -9.294676e-06    0.000000e+00
6.820449e-06    -9.547301e-06    0.000000e+00
8.624338e-06    -9.871838e-06    0.000000e+00
-9.452128e-06    -1.179002e-05    0.000000e+00
-7.482678e-06    -1.147593e-05    0.000000e+00
-5.565791e-06    -1.123156e-05    0.000000e+00
-3.688437e-06    -1.105688e-05    0.000000e+00
-1.837569e-06    -1.095199e-05    0.000000e+00
-4.054111e-19    -1.091701e-05    0.000000e+00
1.837569e-06    -1.095199e-05    0.000000e+00
3.688437e-06    -1.105688e-05    0.000000e+00
5.565791e-06    -1.123156e-05    0.000000e+00
7.482678e-06    -1.147593e-05    0.000000e+00
9.452128e-06    -1.179002e-05    0.000000e+00
-1.025287e-05    -1.387120e-05    0.000000e+00
-8.123242e-06    -1.356758e-05    0.000000e+00
-6.046283e-06    -1.333140e-05    0.000000e+00
-4.008850e-06    -1.316265e-05    0.000000e+00
-1.997814e-06    -1.306137e-05    0.000000e+00
-4.446394e-19    -1.302760e-05    0.000000e+00
1.997814e-06    -1.306137e-05    0.000000e+00
4.008850e-06    -1.316265e-05    0.000000e+00
6.046283e-06    -1.333140e-05    0.000000e+00
8.123242e-06    -1.356758e-05    0.000000e+00
1.025287e-05    -1.387120e-05    0.000000e+00
-1.102648e-05    -1.610989e-05    0.000000e+00
-8.742113e-06    -1.581673e-05    0.000000e+00
-6.510452e-06    -1.558871e-05    0.000000e+00
-4.318325e-06    -1.542583e-05    0.000000e+00
-2.152566e-06    -1.532809e-05    0.000000e+00
-4.839205e-19    -1.529550e-05    0.000000e+00
2.152566e-06    -1.532809e-05    0.000000e+00
4.318325e-06    -1.542583e-05    0.000000e+00
6.510452e-06    -1.558871e-05    0.000000e+00
8.742113e-06    -1.581673e-05    0.000000e+00
1.102648e-05    -1.610989e-05    0.000000e+00
-1.177296e-05    -1.850062e-05    0.000000e+00
-9.339276e-06    -1.821793e-05    0.000000e+00
-6.958324e-06    -1.799806e-05    0.000000e+00
-4.616914e-06    -1.784101e-05    0.000000e+00
-2.301865e-06    -1.774678e-05    0.000000e+00
-5.264839e-19    -1.771537e-05    0.000000e+00
2.301865e-06    -1.774678e-05    0.000000e+00
4.616914e-06    -1.784101e-05    0.000000e+00
6.958324e-06    -1.799806e-05    0.000000e+00
9.339276e-06    -1.821793e-05    0.000000e+00
1.177296e-05    -1.850062e-05    0.000000e+00
-1.249228e-05    -2.103794e-05    0.000000e+00
-9.914727e-06    -2.076572e-05    0.000000e+00
-7.389909e-06    -2.055400e-05    0.000000e+00
-4.904637e-06    -2.040277e-05    0.000000e+00
-2.445728e-06    -2.031204e-05    0.000000e+00
-5.495126e-19    -2.028179e-05    0.000000e+00
2.445728e-06    -2.031204e-05    0.000000e+00
4.904637e-06    -2.040277e-05    0.000000e+00
7.389909e-06    -2.055400e-05    0.000000e+00
9.914727e-06    -2.076572e-05    0.000000e+00
1.249228e-05    -2.103794e-05    0.000000e+00
-1.318446e-05    -2.371642e-05    0.000000e+00
-1.046846e-05    -2.345467e-05    0.000000e+00
-7.805208e-06    -2.325109e-05    0.000000e+00
-5.181501e-06    -2.310568e-05    0.000000e+00
-2.584160e-06    -2.301844e-05    0.000000e+00
-5.695238e-19    -2.298935e-05    0.000000e+00
2.584160e-06    -2.301844e-05    0.000000e+00
5.181501e-06    -2.310568e-05    0.000000e+00
7.805208e-06    -2.325109e-05    0.000000e+00
1.046846e-05    -2.345467e-05    0.000000e+00
1.318446e-05    -2.371642e-05    0.000000e+00
-1.384949e-05    -2.653062e-05    0.000000e+00
-1.100049e-05    -2.627934e-05    0.000000e+00
-8.204222e-06    -2.608391e-05    0.000000e+00
-5.447509e-06    -2.594431e-05    0.000000e+00
-2.717163e-06    -2.586055e-05    0.000000e+00
-5.872056e-19    -2.583264e-05    0.000000e+00
2.717163e-06    -2.586055e-05    0.000000e+00
5.447509e-06    -2.594431e-05    0.000000e+00
8.204222e-06    -2.608391e-05    0.000000e+00
1.100049e-05    -2.627934e-05    0.000000e+00
1.384949e-05    -2.653062e-05    0.000000e+00
-1.448737e-05    -2.947511e-05    0.000000e+00
-1.151079e-05    -2.923430e-05    0.000000e+00
-8.586950e-06    -2.904701e-05    0.000000e+00
-5.702661e-06    -2.891323e-05    0.000000e+00
-2.844739e-06    -2.883296e-05    0.000000e+00
-5.887938e-19    -2.880621e-05    0.000000e+00
2.844739e-06    -2.883296e-05    0.000000e+00
5.702661e-06    -2.891323e-05    0.000000e+00
8.586950e-06    -2.904701e-05    0.000000e+00
1.151079e-05    -2.923430e-05    0.000000e+00
1.448737e-05    -2.947511e-05    0.000000e+00
-1.509811e-05    -3.254446e-05    0.000000e+00
-1.199938e-05    -3.231413e-05    0.000000e+00
-8.953392e-06    -3.213498e-05    0.000000e+00
-5.946955e-06    -3.200701e-05    0.000000e+00
-2.966886e-06    -3.193024e-05    0.000000e+00
-5.983229e-19    -3.190464e-05    0.000000e+00
2.966886e-06    -3.193024e-05    0.000000e+00
5.946955e-06    -3.200701e-05    0.000000e+00
8.953392e-06    -3.213498e-05    0.000000e+00
1.199938e-05    -3.231413e-05    0.000000e+00
1.509811e-05    -3.254446e-05    0.000000e+00
-1.568170e-05    -3.573325e-05    0.000000e+00
-1.246626e-05    -3.551338e-05    0.000000e+00
-9.303549e-06    -3.534238e-05    0.000000e+00
-6.180392e-06    -3.522023e-05    0.000000e+00
-3.083604e-06    -3.514694e-05    0.000000e+00
-6.214045e-19    -3.512251e-05    0.000000e+00
3.083604e-06    -3.514694e-05    0.000000e+00
6.180392e-06    -3.522023e-05    0.000000e+00
9.303549e-06    -3.534238e-05    0.000000e+00
1.246626e-05    -3.551338e-05    0.000000e+00
1.568170e-05    -3.573325e-05    0.000000e+00
-1.623815e-05    -3.903604e-05    0.000000e+00
-1.291142e-05    -3.882665e-05    0.000000e+00
-9.637419e-06    -3.866378e-05    0.000000e+00
-6.402972e-06    -3.854745e-05    0.000000e+00
-3.194894e-06    -3.847765e-05    0.000000e+00
-6.661914e-19    -3.845439e-05    0.000000e+00
3.194894e-06    -3.847765e-05    0.000000e+00
6.402972e-06    -3.854745e-05    0.000000e+00
9.637419e-06    -3.866378e-05    0.000000e+00
1.291142e-05    -3.882665e-05    0.000000e+00
1.623815e-05    -3.903604e-05    0.000000e+00
-1.676746e-05    -4.244741e-05    0.000000e+00
-1.333486e-05    -4.224848e-05    0.000000e+00
-9.955003e-06    -4.209376e-05    0.000000e+00
-6.614695e-06    -4.198325e-05    0.000000e+00
-3.300755e-06    -4.191694e-05    0.000000e+00
-7.316247e-19    -4.189484e-05    0.000000e+00
3.300755e-06    -4.191694e-05    0.000000e+00
6.614695e-06    -4.198325e-05    0.000000e+00
9.955003e-06    -4.209376e-05    0.000000e+00
1.333486e-05    -4.224848e-05    0.000000e+00
1.676746e-05    -4.244741e-05    0.000000e+00
-1.726962e-05    -4.596192e-05    0.000000e+00
-1.373659e-05    -4.577347e-05    0.000000e+00
-1.025630e-05    -4.562689e-05    0.000000e+00
-6.815560e-06    -4.552219e-05    0.000000e+00
-3.401188e-06    -4.545937e-05    0.000000e+00
-7.763057e-19    -4.543843e-05    0.000000e+00
3.401188e-06    -4.545937e-05    0.000000e+00
6.815560e-06    -4.552219e-05    0.000000e+00
1.025630e-05    -4.562689e-05    0.000000e+00
1.373659e-05    -4.577347e-05    0.000000e+00
1.726962e-05    -4.596192e-05    0.000000e+00
-1.774464e-05    -4.957415e-05    0.000000e+00
-1.411661e-05    -4.939617e-05    0.000000e+00
-1.054131e-05    -4.925773e-05    0.000000e+00
-7.005568e-06    -4.915885e-05    0.000000e+00
-3.496192e-06    -4.909952e-05    0.000000e+00
-8.095517e-19    -4.907975e-05    0.000000e+00
3.496192e-06    -4.909952e-05    0.000000e+00
7.005568e-06    -4.915885e-05    0.000000e+00
1.054131e-05    -4.925773e-05    0.000000e+00
1.411661e-05    -4.939617e-05    0.000000e+00
1.774464e-05    -4.957415e-05    0.000000e+00
-1.819252e-05    -5.327868e-05    0.000000e+00
-1.447491e-05    -5.311116e-05    0.000000e+00
-1.081004e-05    -5.298087e-05    0.000000e+00
-7.184718e-06    -5.288780e-05    0.000000e+00
-3.585767e-06    -5.283196e-05    0.000000e+00
-8.538092e-19    -5.281335e-05    0.000000e+00
3.585767e-06    -5.283196e-05    0.000000e+00
7.184718e-06    -5.288780e-05    0.000000e+00
1.081004e-05    -5.298087e-05    0.000000e+00
1.447491e-05    -5.311116e-05    0.000000e+00
1.819252e-05    -5.327868e-05    0.000000e+00
-1.861325e-05    -5.707006e-05    0.000000e+00
-1.481149e-05    -5.691301e-05    0.000000e+00
-1.106248e-05    -5.679086e-05    0.000000e+00
-7.353011e-06    -5.670361e-05    0.000000e+00
-3.669914e-06    -5.665126e-05    0.000000e+00
-8.692676e-19    -5.663381e-05    0.000000e+00
3.669914e-06    -5.665126e-05    0.000000e+00
7.353011e-06    -5.670361e-05    0.000000e+00
1.106248e-05    -5.679086e-05    0.000000e+00
1.481149e-05    -5.691301e-05    0.000000e+00
1.861325e-05    -5.707006e-05    0.000000e+00
-1.900683e-05    -6.094287e-05    0.000000e+00
-1.512636e-05    -6.079629e-05    0.000000e+00
-1.129863e-05    -6.068229e-05    0.000000e+00
-7.510448e-06    -6.060086e-05    0.000000e+00
-3.748633e-06    -6.055200e-05    0.000000e+00
-8.864200e-19    -6.053571e-05    0.000000e+00
3.748633e-06    -6.055200e-05    0.000000e+00
7.510448e-06    -6.060086e-05    0.000000e+00
1.129863e-05    -6.068229e-05    0.000000e+00
1.512636e-05    -6.079629e-05    0.000000e+00
1.900683e-05    -6.094287e-05    0.000000e+00
-1.937327e-05    -6.489169e-05    0.000000e+00
-1.541952e-05    -6.475558e-05    0.000000e+00
-1.151850e-05    -6.464972e-05    0.000000e+00
-7.657028e-06    -6.457410e-05    0.000000e+00
-3.821923e-06    -6.452873e-05    0.000000e+00
-9.054782e-19    -6.451361e-05    0.000000e+00
3.821923e-06    -6.452873e-05    0.000000e+00
7.657028e-06    -6.457410e-05    0.000000e+00
1.151850e-05    -6.464972e-05    0.000000e+00
1.541952e-05    -6.475558e-05    0.000000e+00
1.937327e-05    -6.489169e-05    0.000000e+00
-1.971256e-05    -6.891107e-05    0.000000e+00
-1.569095e-05    -6.878544e-05    0.000000e+00
-1.172208e-05    -6.868772e-05    0.000000e+00
-7.792750e-06    -6.861792e-05    0.000000e+00
-3.889784e-06    -6.857604e-05    0.000000e+00
-8.978549e-19    -6.856208e-05    0.000000e+00
3.889784e-06    -6.857604e-05    0.000000e+00
7.792750e-06    -6.861792e-05    0.000000e+00
1.172208e-05    -6.868772e-05    0.000000e+00
1.569095e-05    -6.878544e-05    0.000000e+00
1.971256e-05    -6.891107e-05    0.000000e+00
-2.002471e-05    -7.299559e-05    0.000000e+00
-1.594068e-05    -7.288043e-05    0.000000e+00
-1.190938e-05    -7.279086e-05    0.000000e+00
-7.917611e-06    -7.272688e-05    0.000000e+00
-3.952212e-06    -7.268851e-05    0.000000e+00
-8.912904e-19    -7.267572e-05    0.000000e+00
3.952212e-06    -7.268851e-05    0.000000e+00
7.917611e-06    -7.272688e-05    0.000000e+00
1.190938e-05    -7.279086e-05    0.000000e+00
1.594068e-05    -7.288043e-05    0.000000e+00
2.002471e-05    -7.299559e-05    0.000000e+00
-2.030971e-05    -7.713981e-05    0.000000e+00
-1.616869e-05    -7.703511e-05    0.000000e+00
-1.208038e-05    -7.695370e-05    0.000000e+00
-8.031599e-06    -7.689557e-05    0.000000e+00
-4.009198e-06    -7.686071e-05    0.000000e+00
-9.249600e-19    -7.684909e-05    0.000000e+00
4.009198e-06    -7.686071e-05    0.000000e+00
8.031599e-06    -7.689557e-05    0.000000e+00
1.208038e-05    -7.695370e-05    0.000000e+00
1.616869e-05    -7.703511e-05    0.000000e+00
2.030971e-05    -7.713981e-05    0.000000e+00
-2.056757e-05    -8.133827e-05    0.000000e+00
-1.637501e-05    -8.124404e-05    0.000000e+00
-1.223508e-05    -8.117079e-05    0.000000e+00
-8.134685e-06    -8.111855e-05    0.000000e+00
-4.060719e-06    -8.108725e-05    0.000000e+00
-9.647705e-19    -8.107682e-05    0.000000e+00
4.060719e-06    -8.108725e-05    0.000000e+00
8.134685e-06    -8.111855e-05    0.000000e+00
1.223508e-05    -8.117079e-05    0.000000e+00
1.637501e-05    -8.124404e-05    0.000000e+00
2.056757e-05    -8.133827e-05    0.000000e+00
-2.079833e-05    -8.558550e-05    0.000000e+00
-1.655963e-05    -8.550173e-05    0.000000e+00
-1.237344e-05    -8.543669e-05    0.000000e+00
-8.226802e-06    -8.539041e-05    0.000000e+00
-4.106724e-06    -8.536275e-05    0.000000e+00
-1.034227e-18    -8.535356e-05    0.000000e+00
4.106724e-06    -8.536275e-05    0.000000e+00
8.226802e-06    -8.539041e-05    0.000000e+00
1.237344e-05    -8.543669e-05    0.000000e+00
1.655963e-05    -8.550173e-05    0.000000e+00
2.079833e-05    -8.558550e-05    0.000000e+00
-2.100210e-05    -8.987603e-05    0.000000e+00
-1.672261e-05    -8.980269e-05    0.000000e+00
-1.249537e-05    -8.974594e-05    0.000000e+00
-8.307807e-06    -8.970578e-05    0.000000e+00
-4.147107e-06    -8.968192e-05    0.000000e+00
-1.095214e-18    -8.967401e-05    0.000000e+00
4.147107e-06    -8.968192e-05    0.000000e+00
8.307807e-06    -8.970578e-05    0.000000e+00
1.249537e-05    -8.974594e-05    0.000000e+00
1.672261e-05    -8.980269e-05    0.000000e+00
2.100210e-05    -8.987603e-05    0.000000e+00
-2.117912e-05    -9.420439e-05    0.000000e+00
-1.686399e-05    -9.414142e-05    0.000000e+00
-1.260070e-05    -9.409307e-05    0.000000e+00
-8.377428e-06    -9.405931e-05    0.000000e+00
-4.181679e-06    -9.403948e-05    0.000000e+00
-1.116389e-18    -9.403296e-05    0.000000e+00
4.181679e-06    -9.403948e-05    0.000000e+00
8.377428e-06    -9.405931e-05    0.000000e+00
1.260070e-05    -9.409307e-05    0.000000e+00
1.686399e-05    -9.414142e-05    0.000000e+00
2.117912e-05    -9.420439e-05    0.000000e+00
-2.132994e-05    -9.856523e-05    0.000000e+00
-1.698387e-05    -9.851248e-05    0.000000e+00
-1.268909e-05    -9.847276e-05    0.000000e+00
-8.435205e-06    -9.844575e-05    0.000000e+00
-4.210141e-06    -9.843026e-05    0.000000e+00
-1.159165e-18    -9.842523e-05    0.000000e+00
4.210141e-06    -9.843026e-05    0.000000e+00
8.435205e-06    -9.844575e-05    0.000000e+00
1.268909e-05    -9.847276e-05    0.000000e+00
1.698387e-05    -9.851248e-05    0.000000e+00
2.132994e-05    -9.856523e-05    0.000000e+00
-2.145562e-05    -1.029537e-04    0.000000e+00
-1.708235e-05    -1.029109e-04    0.000000e+00
-1.275997e-05    -1.028800e-04    0.000000e+00
-8.480517e-06    -1.028600e-04    0.000000e+00
-4.232143e-06    -1.028489e-04    0.000000e+00
-1.206175e-18    -1.028454e-04    0.000000e+00
4.232143e-06    -1.028489e-04    0.000000e+00
8.480517e-06    -1.028600e-04    0.000000e+00
1.275997e-05    -1.028800e-04    0.000000e+00
1.708235e-05    -1.029109e-04    0.000000e+00
2.145562e-05    -1.029537e-04    0.000000e+00
-2.155817e-05    -1.073660e-04    0.000000e+00
-1.715935e-05    -1.073327e-04    0.000000e+00
-1.281258e-05    -1.073105e-04    0.000000e+00
-8.512904e-06    -1.072970e-04    0.000000e+00
-4.247579e-06    -1.072895e-04    0.000000e+00
-1.145189e-18    -1.072870e-04    0.000000e+00
4.247579e-06    -1.072895e-04    0.000000e+00
8.512904e-06    -1.072970e-04    0.000000e+00
1.281258e-05    -1.073105e-04    0.000000e+00
1.715935e-05    -1.073327e-04    0.000000e+00
2.155817e-05    -1.073660e-04    0.000000e+00
-2.164067e-05    -1.118022e-04    0.000000e+00
-1.721429e-05    -1.117772e-04    0.000000e+00
-1.284670e-05    -1.117621e-04    0.000000e+00
-8.533270e-06    -1.117511e-04    0.000000e+00
-4.257281e-06    -1.117436e-04    0.000000e+00
-1.066838e-18    -1.117409e-04    0.000000e+00
4.257281e-06    -1.117436e-04    0.000000e+00
8.533270e-06    -1.117511e-04    0.000000e+00
1.284670e-05    -1.117621e-04    0.000000e+00
1.721429e-05    -1.117772e-04    0.000000e+00
2.164067e-05    -1.118022e-04    0.000000e+00
-2.170513e-05    -1.162704e-04    0.000000e+00
-1.724615e-05    -1.162523e-04    0.000000e+00
-1.286626e-05    -1.162338e-04    0.000000e+00
-8.546206e-06    -1.162132e-04    0.000000e+00
-4.263865e-06    -1.161978e-04    0.000000e+00
-1.063026e-18    -1.161922e-04    0.000000e+00
4.263865e-06    -1.161978e-04    0.000000e+00
8.546206e-06    -1.162132e-04    0.000000e+00
1.286626e-05    -1.162338e-04    0.000000e+00
1.724615e-05    -1.162523e-04    0.000000e+00
2.170513e-05    -1.162704e-04    0.000000e+00
-2.173924e-05    -1.208105e-04    0.000000e+00
-1.726634e-05    -1.207758e-04    0.000000e+00
-1.288608e-05    -1.207173e-04    0.000000e+00
-8.561321e-06    -1.206645e-04    0.000000e+00
-4.272039e-06    -1.206293e-04    0.000000e+00
-1.067262e-18    -1.206170e-04    0.000000e+00
4.272039e-06    -1.206293e-04    0.000000e+00
8.561321e-06    -1.206645e-04    0.000000e+00
1.288608e-05    -1.207173e-04    0.000000e+00
1.726634e-05    -1.207758e-04    0.000000e+00
2.173924e-05    -1.208105e-04    0.000000e+00

CELL_DATA      400
TENSORS Element_Stress8.000000e-01 double
1.820598e+06 2.551812e+05        0
2.551812e+05 4.163488e+05        0
       0        0        0

1.243720e+06 1.308538e+05        0
1.308538e+05 3.566178e+05        0
       0        0        0

8.651185e+05 4.301032e+04        0
4.301032e+04 2.749959e+05        0
       0        0        0

5.100063e+05 -3.578363e+03        0
-3.578363e+03 1.690094e+05        0
       0        0        0

1.688541e+05 -2.488323e+04        0
-2.488323e+04 5.694968e+04        0
       0        0        0

-1.688184e+05 -2.487711e+04        0
-2.487711e+04 -5.695775e+04        0
       0        0        0

-5.095306e+05 -3.579112e+03        0
-3.579112e+03 -1.688447e+05        0
       0        0        0

-8.637077e+05 4.293851e+04        0
4.293851e+04 -2.744671e+05        0
       0        0        0

-1.240734e+06 1.305652e+05        0
1.305652e+05 -3.554740e+05        0
       0        0        0

-1.814375e+06 2.543707e+05        0
2.543707e+05 -4.141970e+05        0
       0        0        0

1.642070e+06 4.159748e+04        0
4.159748e+04 4.234799e+03        0
       0        0        0

1.322354e+06 1.206454e+05        0
1.206454e+05 1.286843e+05        0
       0        0        0

9.082521e+05 9.900755e+04        0
9.900755e+04 1.315191e+05        0
       0        0        0

5.364025e+05 7.580678e+04        0
7.580678e+04 9.193311e+04        0
       0        0        0

1.768172e+05 6.321707e+04        0
6.321707e+04 3.207757e+04        0
       0        0        0

-1.778550e+05 6.319873e+04        0
6.319873e+04 -3.316896e+04        0
       0        0        0

-5.369363e+05 7.574133e+04        0
7.574133e+04 -9.284490e+04        0
       0        0        0

-9.077061e+05 9.886737e+04        0
9.886737e+04 -1.320379e+05        0
       0        0        0

-1.319830e+06 1.204079e+05        0
1.204079e+05 -1.284324e+05        0
       0        0        0

-1.637466e+06 4.151082e+04        0
4.151082e+04 -3.136555e+03        0
       0        0        0

1.584953e+06 1.541639e+04        0
1.541639e+04 6.615316e+03        0
       0        0        0

1.271591e+06 6.833109e+04        0
6.833109e+04 1.757728e+04        0
       0        0        0

9.146413e+05 1.015639e+05        0
1.015639e+05 4.237686e+04        0
       0        0        0

5.430826e+05 1.074765e+05        0
1.074765e+05 3.592346e+04        0
       0        0        0

1.791459e+05 1.074054e+05        0
1.074054e+05 1.272037e+04        0
       0        0        0

-1.824790e+05 1.073775e+05        0
1.073775e+05 -1.611190e+04        0
       0        0        0

-5.458838e+05 1.073933e+05        0
1.073933e+05 -3.912503e+04        0
       0        0        0

-9.163117e+05 1.014348e+05        0
1.014348e+05 -4.515293e+04        0
       0        0        0

-1.271565e+06 6.821622e+04        0
6.821622e+04 -1.966893e+04        0
       0        0        0

-1.582978e+06 1.538448e+04        0
1.538448e+04 -7.911807e+03        0
       0        0        0

1.546129e+06 1.427370e+04        0
1.427370e+04 -3.975752e+03        0
       0        0        0

1.226683e+06 5.548208e+04        0
5.548208e+04 -1.953361e+03        0
       0        0        0

8.865538e+05 9.245024e+04        0
9.245024e+04 2.933168e+03        0
       0        0        0

5.331314e+05 1.146030e+05        0
1.146030e+05 5.877770e+03        0
       0        0        0

1.753740e+05 1.233579e+05        0
1.233579e+05 6.880625e+02        0
       0        0        0

-1.820438e+05 1.233283e+05        0
1.233283e+05 -7.415933e+03        0
       0        0        0

-5.392752e+05 1.145213e+05        0
1.145213e+05 -1.241206e+04        0
       0        0        0

-8.916350e+05 9.234262e+04        0
9.234262e+04 -9.058365e+03        0
       0        0        0

-1.230189e+06 5.539388e+04        0
5.539388e+04 -3.528931e+03        0
       0        0        0

-1.547532e+06 1.424568e+04        0
1.424568e+04 -5.504384e+02        0
       0        0        0

1.509427e+06 1.713063e+04        0
1.713063e+04 -5.567249e+03        0
       0        0        0

1.185340e+06 5.448733e+04        0
5.448733e+04 -8.577651e+03        0
       0        0        0

8.541561e+05 8.905469e+04        0
8.905469e+04 -8.329305e+03        0
       0        0        0

5.137340e+05 1.136408e+05        0
1.136408e+05 -6.745280e+03        0
       0        0        0

1.681056e+05 1.258450e+05        0
1.258450e+05 -5.639044e+03        0
       0        0        0

-1.789903e+05 1.258166e+05        0
1.258166e+05 -5.300819e+03        0
       0        0        0

-5.241237e+05 1.135646e+05        0
1.135646e+05 -4.010288e+03        0
       0        0        0

-8.635542e+05 8.895612e+04        0
8.895612e+04 -2.042812e+03        0
       0        0        0

-1.193244e+06 5.440409e+04        0
5.440409e+04 -1.179541e+03        0
       0        0        0

-1.515273e+06 1.709766e+04        0
1.709766e+04 -3.264824e+03        0
       0        0        0

1.469671e+06 1.958963e+04        0
1.958963e+04 -7.911531e+03        0
       0        0        0

1.147077e+06 5.644559e+04        0
5.644559e+04 -1.054799e+04        0
       0        0        0

8.224151e+05 8.838594e+04        0
8.838594e+04 -1.192774e+04        0
       0        0        0

4.928620e+05 1.117722e+05        0
1.117722e+05 -1.113898e+04        0
       0        0        0

1.594065e+05 1.239614e+05        0
1.239614e+05 -9.157848e+03        0
       0        0        0

-1.752704e+05 1.239347e+05        0
1.239347e+05 -6.757342e+03        0
       0        0        0

-5.082716e+05 1.117003e+05        0
1.117003e+05 -4.611022e+03        0
       0        0        0

-8.369138e+05 8.829171e+04        0
8.829171e+04 -3.479956e+03        0
       0        0        0

-1.160194e+06 5.636191e+04        0
5.636191e+04 -4.312364e+03        0
       0        0        0

-1.480879e+06 1.955284e+04        0
1.955284e+04 -6.139554e+03        0
       0        0        0

1.427069e+06 2.114429e+04        0
2.114429e+04 -1.052964e+04        0
       0        0        0

1.109854e+06 5.834958e+04        0
5.834958e+04 -1.236661e+04        0
       0        0        0

7.924051e+05 8.864128e+04        0
8.864128e+04 -1.362108e+04        0
       0        0        0

4.726277e+05 1.103428e+05        0
1.103428e+05 -1.337050e+04        0
       0        0        0

1.506199e+05 1.216735e+05        0
1.216735e+05 -1.181697e+04        0
       0        0        0

-1.721469e+05 1.216483e+05        0
1.216483e+05 -9.757740e+03        0
       0        0        0

-4.937482e+05 1.102742e+05        0
1.102742e+05 -8.067258e+03        0
       0        0        0

-8.127094e+05 8.854973e+04        0
8.854973e+04 -7.533908e+03        0
       0        0        0

-1.128918e+06 5.826553e+04        0
5.826553e+04 -8.339735e+03        0
       0        0        0

-1.444434e+06 2.110561e+04        0
2.110561e+04 -9.528609e+03        0
       0        0        0

1.382471e+06 2.200181e+04        0
2.200181e+04 -1.363722e+04        0
       0        0        0

1.072891e+06 5.961398e+04        0
5.961398e+04 -1.472183e+04        0
       0        0        0

7.635785e+05 8.901007e+04        0
8.901007e+04 -1.557414e+04        0
       0        0        0

4.533125e+05 1.094858e+05        0
1.094858e+05 -1.552412e+04        0
       0        0        0

1.419522e+05 1.200358e+05        0
1.200358e+05 -1.458784e+04        0
       0        0        0

-1.697603e+05 1.200117e+05        0
1.200117e+05 -1.326479e+04        0
       0        0        0

-4.807667e+05 1.094198e+05        0
1.094198e+05 -1.222641e+04        0
       0        0        0

-7.903212e+05 8.892090e+04        0
8.892090e+04 -1.196593e+04        0
       0        0        0

-1.098554e+06 5.953060e+04        0
5.953060e+04 -1.248635e+04        0
       0        0        0

-1.406666e+06 2.196271e+04        0
2.196271e+04 -1.309846e+04        0
       0        0        0

1.336650e+06 2.243103e+04        0
2.243103e+04 -1.712975e+04        0
       0        0        0

1.035846e+06 6.032508e+04        0
6.032508e+04 -1.770734e+04        0
       0        0        0

7.353690e+05 8.928001e+04        0
8.928001e+04 -1.819357e+04        0
       0        0        0

4.345842e+05 1.090314e+05        0
1.090314e+05 -1.820574e+04        0
       0        0        0

1.333510e+05 1.190751e+05        0
1.190751e+05 -1.770719e+04        0
       0        0        0

-1.679948e+05 1.190519e+05        0
1.190519e+05 -1.697818e+04        0
       0        0        0

-4.689286e+05 1.089678e+05        0
1.089678e+05 -1.641605e+04        0
       0        0        0

-7.691116e+05 8.919329e+04        0
8.919329e+04 -1.629667e+04        0
       0        0        0

-1.068676e+06 6.024325e+04        0
6.024325e+04 -1.657480e+04        0
       0        0        0

-1.368246e+06 2.239236e+04        0
2.239236e+04 -1.685617e+04        0
       0        0        0

1.290108e+06 2.262769e+04        0
2.262769e+04 -2.093370e+04        0
       0        0        0

9.986145e+05 6.068320e+04        0
6.068320e+04 -2.119241e+04        0
       0        0        0

7.073840e+05 8.943847e+04        0
8.943847e+04 -2.142407e+04        0
       0        0        0

4.161153e+05 1.088122e+05        0
1.088122e+05 -2.143279e+04        0
       0        0        0

1.247137e+05 1.185759e+05        0
1.185759e+05 -2.118594e+04        0
       0        0        0

-1.666835e+05 1.185536e+05        0
1.185536e+05 -2.082274e+04        0
       0        0        0

-4.578408e+05 1.087507e+05        0
1.087507e+05 -2.055219e+04        0
       0        0        0

-7.486181e+05 8.935433e+04        0
8.935433e+04 -2.051028e+04        0
       0        0        0

-1.039104e+06 6.060345e+04        0
6.060345e+04 -2.065826e+04        0
       0        0        0

-1.329592e+06 2.258991e+04        0
2.258991e+04 -2.079207e+04        0
       0        0        0

1.243138e+06 2.270943e+04        0
2.270943e+04 -2.498210e+04        0
       0        0        0

9.611829e+05 6.084707e+04        0
6.084707e+04 -2.504187e+04        0
       0        0        0

6.794119e+05 8.952007e+04        0
8.952007e+04 -2.510676e+04        0
       0        0        0

3.976942e+05 1.087151e+05        0
1.087151e+05 -2.508705e+04        0
       0        0        0

1.159751e+05 1.183403e+05        0
1.183403e+05 -2.496213e+04        0
       0        0        0

-1.656966e+05 1.183187e+05        0
1.183187e+05 -2.479576e+04        0
       0        0        0

-4.472257e+05 1.086557e+05        0
1.086557e+05 -2.468699e+04        0
       0        0        0

-7.285608e+05 8.943859e+04        0
8.943859e+04 -2.469694e+04        0
       0        0        0

-1.009752e+06 6.076971e+04        0
6.076971e+04 -2.480000e+04        0
       0        0        0

-1.290922e+06 2.267274e+04        0
2.267274e+04 -2.489961e+04        0
       0        0        0

1.195902e+06 2.273919e+04        0
2.273919e+04 -2.922324e+04        0
       0        0        0

9.235708e+05 6.091458e+04        0
6.091458e+04 -2.915047e+04        0
       0        0        0

6.513590e+05 8.955767e+04        0
8.955767e+04 -2.910387e+04        0
       0        0        0

3.792147e+05 1.086759e+05        0
1.086759e+05 -2.904718e+04        0
       0        0        0

1.071092e+05 1.182389e+05        0
1.182389e+05 -2.896999e+04        0
       0        0        0

-1.649443e+05 1.182180e+05        0
1.182180e+05 -2.889900e+04        0
       0        0        0

-4.369126e+05 1.086185e+05        0
1.086185e+05 -2.887696e+04        0
       0        0        0

-7.087800e+05 8.947891e+04        0
8.947891e+04 -2.892824e+04        0
       0        0        0

-9.805709e+05 6.083975e+04        0
6.083975e+04 -2.903784e+04        0
       0        0        0

-1.252330e+06 2.270369e+04        0
2.270369e+04 -2.916302e+04        0
       0        0        0

1.148491e+06 2.274763e+04        0
2.274763e+04 -3.361527e+04        0
       0        0        0

8.858087e+05 6.093851e+04        0
6.093851e+04 -3.344415e+04        0
       0        0        0

6.231974e+05 8.957284e+04        0
8.957284e+04 -3.331675e+04        0
       0        0        0

3.606384e+05 1.086618e+05        0
1.086618e+05 -3.322145e+04        0
       0        0        0

9.811734e+04 1.181997e+05        0
1.181997e+05 -3.315416e+04        0
       0        0        0

-1.643651e+05 1.181796e+05        0
1.181796e+05 -3.312513e+04        0
       0        0        0

-4.268000e+05 1.086064e+05        0
1.086064e+05 -3.315081e+04        0
       0        0        0

-6.891844e+05 8.949683e+04        0
8.949683e+04 -3.323922e+04        0
       0        0        0

-9.515284e+05 6.086627e+04        0
6.086627e+04 -3.338182e+04        0
       0        0        0

-1.213844e+06 2.271337e+04        0
2.271337e+04 -3.356049e+04        0
       0        0        0

1.100960e+06 2.274841e+04        0
2.274841e+04 -3.812278e+04        0
       0        0        0

8.479289e+05 6.094459e+04        0
6.094459e+04 -3.787019e+04        0
       0        0        0

5.949322e+05 8.957762e+04        0
8.957762e+04 -3.767803e+04        0
       0        0        0

3.419635e+05 1.086573e+05        0
1.086573e+05 -3.754494e+04        0
       0        0        0

8.901558e+04 1.181867e+05        0
1.181867e+05 -3.747027e+04        0
       0        0        0

-1.639142e+05 1.181674e+05        0
1.181674e+05 -3.745768e+04        0
       0        0        0

-4.168253e+05 1.086039e+05        0
1.086039e+05 -3.751247e+04        0
       0        0        0

-6.697180e+05 8.950436e+04        0
8.950436e+04 -3.763608e+04        0
       0        0        0

-9.225952e+05 6.087498e+04        0
6.087498e+04 -3.782343e+04        0
       0        0        0

-1.175457e+06 2.271539e+04        0
2.271539e+04 -3.806658e+04        0
       0        0        0

1.053347e+06 2.274703e+04        0
2.274703e+04 -4.271420e+04        0
       0        0        0

8.099626e+05 6.094429e+04        0
6.094429e+04 -4.238866e+04        0
       0        0        0

5.665832e+05 8.957803e+04        0
8.957803e+04 -4.214000e+04        0
       0        0        0

3.232060e+05 1.086559e+05        0
1.086559e+05 -4.197068e+04        0
       0        0        0

7.982720e+04 1.181835e+05        0
1.181835e+05 -4.188171e+04        0
       0        0        0

-1.635563e+05 1.181649e+05        0
1.181649e+05 -4.187447e+04        0
       0        0        0

-4.069457e+05 1.086046e+05        0
1.086046e+05 -4.195008e+04        0
       0        0        0

-6.503417e+05 8.950753e+04        0
8.950753e+04 -4.210767e+04        0
       0        0        0

-8.937438e+05 6.087730e+04        0
6.087730e+04 -4.234382e+04        0
       0        0        0

-1.137148e+06 2.271526e+04        0
2.271526e+04 -4.265429e+04        0
       0        0        0

1.005683e+06 2.274539e+04        0
2.274539e+04 -4.736038e+04        0
       0        0        0

7.719394e+05 6.094219e+04        0
6.094219e+04 -4.696667e+04        0
       0        0        0

5.381756e+05 8.957681e+04        0
8.957681e+04 -4.666608e+04        0
       0        0        0

3.043894e+05 1.086553e+05        0
1.086553e+05 -4.646218e+04        0
       0        0        0

7.057816e+04 1.181832e+05        0
1.181832e+05 -4.635676e+04        0
       0        0        0

-1.632605e+05 1.181653e+05        0
1.181653e+05 -4.635058e+04        0
       0        0        0

-3.971278e+05 1.086060e+05        0
1.086060e+05 -4.644347e+04        0
       0        0        0

-6.310240e+05 8.950907e+04        0
8.950907e+04 -4.663394e+04        0
       0        0        0

-8.649473e+05 6.087783e+04        0
6.087783e+04 -4.691929e+04        0
       0        0        0

-1.098893e+06 2.271487e+04        0
2.271487e+04 -4.729637e+04        0
       0        0        0

9.579955e+05 2.274400e+04        0
2.274400e+04 -5.203381e+04        0
       0        0        0

7.338873e+05 6.093989e+04        0
6.093989e+04 -5.157525e+04        0
       0        0        0

5.097360e+05 8.957508e+04        0
8.957508e+04 -5.122566e+04        0
       0        0        0

2.855393e+05 1.086546e+05        0
1.086546e+05 -5.098880e+04        0
       0        0        0

6.129495e+04 1.181835e+05        0
1.181835e+05 -5.086675e+04        0
       0        0        0

-1.629989e+05 1.181663e+05        0
1.181663e+05 -5.086025e+04        0
       0        0        0

-3.873432e+05 1.086073e+05        0
1.086073e+05 -5.096887e+04        0
       0        0        0

-6.117373e+05 8.951011e+04        0
8.951011e+04 -5.119108e+04        0
       0        0        0

-8.361791e+05 6.087815e+04        0
6.087815e+04 -5.152449e+04        0
       0        0        0

-1.060664e+06 2.271473e+04        0
2.271473e+04 -5.196605e+04        0
       0        0        0

9.103102e+05 2.274290e+04        0
2.274290e+04 -5.670829e+04        0
       0        0        0

6.958326e+05 6.093780e+04        0
6.093780e+04 -5.618768e+04        0
       0        0        0

4.812907e+05 8.957328e+04        0
8.957328e+04 -5.579141e+04        0
       0        0        0

2.666817e+05 1.086537e+05        0
1.086537e+05 -5.552312e+04        0
       0        0        0

5.200354e+04 1.181835e+05        0
1.181835e+05 -5.538500e+04        0
       0        0        0

-1.627453e+05 1.181671e+05        0
1.181671e+05 -5.537790e+04        0
       0        0        0

-3.775653e+05 1.086084e+05        0
1.086084e+05 -5.550144e+04        0
       0        0        0

-5.924555e+05 8.951107e+04        0
8.951107e+04 -5.575422e+04        0
       0        0        0

-8.074137e+05 6.087870e+04        0
6.087870e+04 -5.613390e+04        0
       0        0        0

-1.022436e+06 2.271486e+04        0
2.271486e+04 -5.663735e+04        0
       0        0        0

8.626520e+05 2.274198e+04        0
2.274198e+04 -6.135878e+04        0
       0        0        0

6.578008e+05 6.093596e+04        0
6.093596e+04 -6.077882e+04        0
       0        0        0

4.528650e+05 8.957150e+04        0
8.957150e+04 -6.033795e+04        0
       0        0        0

2.478418e+05 1.086526e+05        0
1.086526e+05 -6.003971e+04        0
       0        0        0

4.272898e+04 1.181833e+05        0
1.181833e+05 -5.988630e+04        0
       0        0        0

-1.624747e+05 1.181676e+05        0
1.181676e+05 -5.987867e+04        0
       0        0        0

-3.677693e+05 1.086093e+05        0
1.086093e+05 -6.001656e+04        0
       0        0        0

-5.731539e+05 8.951206e+04        0
8.951206e+04 -6.029866e+04        0
       0        0        0

-7.786261e+05 6.087948e+04        0
6.087948e+04 -6.072266e+04        0
       0        0        0

-9.841819e+05 2.271520e+04        0
2.271520e+04 -6.128530e+04        0
       0        0        0

8.150447e+05 2.274119e+04        0
2.274119e+04 -6.596136e+04        0
       0        0        0

6.198157e+05 6.093429e+04        0
6.093429e+04 -6.532473e+04        0
       0        0        0

4.244830e+05 8.956978e+04        0
8.956978e+04 -6.484132e+04        0
       0        0        0

2.290436e+05 1.086514e+05        0
1.086514e+05 -6.451456e+04        0
       0        0        0

3.349528e+04 1.181828e+05        0
1.181828e+05 -6.434667e+04        0
       0        0        0

-1.621631e+05 1.181678e+05        0
1.181678e+05 -6.433865e+04        0
       0        0        0

-3.579315e+05 1.086101e+05        0
1.086101e+05 -6.449035e+04        0
       0        0        0

-5.538087e+05 8.951311e+04        0
8.951311e+04 -6.480052e+04        0
       0        0        0

-7.497925e+05 6.088043e+04        0
6.088043e+04 -6.526685e+04        0
       0        0        0

-9.458791e+05 2.271565e+04        0
2.271565e+04 -6.588596e+04        0
       0        0        0

7.675109e+05 2.274046e+04        0
2.274046e+04 -7.049318e+04        0
       0        0        0

5.819002e+05 6.093273e+04        0
6.093273e+04 -6.980260e+04        0
       0        0        0

3.961677e+05 8.956811e+04        0
8.956811e+04 -6.927870e+04        0
       0        0        0

2.103102e+05 1.086501e+05        0
1.086501e+05 -6.892486e+04        0
       0        0        0

2.432535e+04 1.181822e+05        0
1.181822e+05 -6.874327e+04        0
       0        0        0

-1.617877e+05 1.181679e+05        0
1.181679e+05 -6.873499e+04        0
       0        0        0

-3.480290e+05 1.086108e+05        0
1.086108e+05 -6.889993e+04        0
       0        0        0

-5.343973e+05 8.951420e+04        0
8.951420e+04 -6.923690e+04        0
       0        0        0

-7.208901e+05 6.088150e+04        0
6.088150e+04 -6.974356e+04        0
       0        0        0

-9.075041e+05 2.271617e+04        0
2.271617e+04 -7.041649e+04        0
       0        0        0

7.200723e+05 2.273978e+04        0
2.273978e+04 -7.493249e+04        0
       0        0        0

5.440762e+05 6.093125e+04        0
6.093125e+04 -7.419071e+04        0
       0        0        0

3.679410e+05 8.956648e+04        0
8.956648e+04 -7.362841e+04        0
       0        0        0

1.916633e+05 1.086488e+05        0
1.086488e+05 -7.324889e+04        0
       0        0        0

1.524098e+04 1.181815e+05        0
1.181815e+05 -7.305436e+04        0
       0        0        0

-1.613270e+05 1.181679e+05        0
1.181679e+05 -7.304590e+04        0
       0        0        0

-3.380404e+05 1.086115e+05        0
1.086115e+05 -7.322349e+04        0
       0        0        0

-5.148979e+05 8.951533e+04        0
8.951533e+04 -7.358598e+04        0
       0        0        0

-6.918973e+05 6.088265e+04        0
6.088265e+04 -7.413101e+04        0
       0        0        0

-8.690350e+05 2.271673e+04        0
2.271673e+04 -7.485511e+04        0
       0        0        0

6.727496e+05 2.273915e+04        0
2.273915e+04 -7.925863e+04        0
       0        0        0

5.063643e+05 6.092987e+04        0
6.092987e+04 -7.846843e+04        0
       0        0        0

3.398235e+05 8.956489e+04        0
8.956489e+04 -7.786983e+04        0
       0        0        0

1.731238e+05 1.086474e+05        0
1.086474e+05 -7.746605e+04        0
       0        0        0

6.262879e+03 1.181806e+05        0
1.181806e+05 -7.725929e+04        0
       0        0        0

-1.607601e+05 1.181679e+05        0
1.181679e+05 -7.725069e+04        0
       0        0        0

-3.279448e+05 1.086121e+05        0
1.086121e+05 -7.744030e+04        0
       0        0        0

-4.952900e+05 8.951651e+04        0
8.951651e+04 -7.782701e+04        0
       0        0        0

-6.627933e+05 6.088389e+04        0
6.088389e+04 -7.840849e+04        0
       0        0        0

-8.304513e+05 2.271735e+04        0
2.271735e+04 -7.918115e+04        0
       0        0        0

6.255623e+05 2.273859e+04        0
2.273859e+04 -8.345202e+04        0
       0        0        0

4.687842e+05 6.092860e+04        0
6.092860e+04 -8.261621e+04        0
       0        0        0

3.118350e+05 8.956335e+04        0
8.956335e+04 -8.198342e+04        0
       0        0        0

1.547113e+05 1.086460e+05        0
1.086460e+05 -8.155678e+04        0
       0        0        0

-2.589332e+03 1.181797e+05        0
1.181797e+05 -8.133849e+04        0
       0        0        0

-1.600676e+05 1.181676e+05        0
1.181676e+05 -8.132976e+04        0
       0        0        0

-3.177230e+05 1.086127e+05        0
1.086127e+05 -8.153073e+04        0
       0        0        0

-4.755540e+05 8.951773e+04        0
8.951773e+04 -8.194037e+04        0
       0        0        0

-6.335585e+05 6.088526e+04        0
6.088526e+04 -8.255636e+04        0
       0        0        0

-7.917331e+05 2.271804e+04        0
2.271804e+04 -8.337502e+04        0
       0        0        0

5.785286e+05 2.273817e+04        0
2.273817e+04 -8.749418e+04        0
       0        0        0

4.313542e+05 6.092752e+04        0
6.092752e+04 -8.661559e+04        0
       0        0        0

2.839942e+05 8.956185e+04        0
8.956185e+04 -8.595072e+04        0
       0        0        0

1.364444e+05 1.086444e+05        0
1.086444e+05 -8.550260e+04        0
       0        0        0

-1.129712e+04 1.181785e+05        0
1.181785e+05 -8.527347e+04        0
       0        0        0

-1.592310e+05 1.181672e+05        0
1.181672e+05 -8.526462e+04        0
       0        0        0

-3.073564e+05 1.086132e+05        0
1.086132e+05 -8.547630e+04        0
       0        0        0

-4.556717e+05 8.951900e+04        0
8.951900e+04 -8.590754e+04        0
       0        0        0

-6.041745e+05 6.088680e+04        0
6.088680e+04 -8.655609e+04        0
       0        0        0

-7.528619e+05 2.271886e+04        0
2.271886e+04 -8.741819e+04        0
       0        0        0

5.316658e+05 2.273795e+04        0
2.273795e+04 -9.136769e+04        0
       0        0        0

3.940921e+05 6.092663e+04        0
6.092663e+04 -9.044910e+04        0
       0        0        0

2.563184e+05 8.956035e+04        0
8.956035e+04 -8.975416e+04        0
       0        0        0

1.183407e+05 1.086427e+05        0
1.086427e+05 -8.928591e+04        0
       0        0        0

-1.984304e+04 1.181771e+05        0
1.181771e+05 -8.904673e+04        0
       0        0        0

-1.582329e+05 1.181665e+05        0
1.181665e+05 -8.903797e+04        0
       0        0        0

-2.968278e+05 1.086135e+05        0
1.086135e+05 -8.925978e+04        0
       0        0        0

-4.356257e+05 8.952026e+04        0
8.952026e+04 -8.971126e+04        0
       0        0        0

-5.746240e+05 6.088854e+04        0
6.088854e+04 -9.039032e+04        0
       0        0        0

-7.138200e+05 2.271989e+04        0
2.271989e+04 -9.129325e+04        0
       0        0        0

4.849900e+05 2.273796e+04        0
2.273796e+04 -9.505616e+04        0
       0        0        0

3.570143e+05 6.092577e+04        0
6.092577e+04 -9.410011e+04        0
       0        0        0

2.288244e+05 8.955862e+04        0
8.955862e+04 -9.337680e+04        0
       0        0        0

1.004164e+05 1.086409e+05        0
1.086409e+05 -9.288973e+04        0
       0        0        0

-2.821084e+04 1.181759e+05        0
1.181759e+05 -9.264170e+04        0
       0        0        0

-1.570570e+05 1.181660e+05        0
1.181660e+05 -9.263378e+04        0
       0        0        0

-2.861209e+05 1.086137e+05        0
1.086137e+05 -9.286554e+04        0
       0        0        0

-4.153999e+05 8.952130e+04        0
8.952130e+04 -9.333582e+04        0
       0        0        0

-5.448908e+05 6.089031e+04        0
6.089031e+04 -9.404299e+04        0
       0        0        0

-6.745908e+05 2.272114e+04        0
2.272114e+04 -9.498387e+04        0
       0        0        0

4.385165e+05 2.273798e+04        0
2.273798e+04 -9.854412e+04        0
       0        0        0

3.201365e+05 6.092413e+04        0
6.092413e+04 -9.755241e+04        0
       0        0        0

2.015270e+05 8.955604e+04        0
8.955604e+04 -9.680154e+04        0
       0        0        0

8.268605e+04 1.086393e+05        0
1.086393e+05 -9.629692e+04        0
       0        0        0

-3.638570e+04 1.181760e+05        0
1.181760e+05 -9.604233e+04        0
       0        0        0

-1.556878e+05 1.181669e+05        0
1.181669e+05 -9.603768e+04        0
       0        0        0

-2.752197e+05 1.086142e+05        0
1.086142e+05 -9.628030e+04        0
       0        0        0

-3.949789e+05 8.952148e+04        0
8.952148e+04 -9.676788e+04        0
       0        0        0

-5.149601e+05 6.089129e+04        0
6.089129e+04 -9.749979e+04        0
       0        0        0

-6.351590e+05 2.272241e+04        0
2.272241e+04 -9.847493e+04        0
       0        0        0

3.922608e+05 2.273705e+04        0
2.273705e+04 -1.018168e+05        0
       0        0        0

2.834737e+05 6.091918e+04        0
6.091918e+04 -1.007892e+05        0
       0        0        0

1.744389e+05 8.955103e+04        0
8.955103e+04 -1.000095e+05        0
       0        0        0

6.516112e+04 1.086394e+05        0
1.086394e+05 -9.948864e+04        0
       0        0        0

-4.435479e+04 1.181814e+05        0
1.181814e+05 -9.923256e+04        0
       0        0        0

-1.541098e+05 1.181730e+05        0
1.181730e+05 -9.923756e+04        0
       0        0        0

-2.641076e+05 1.086162e+05        0
1.086162e+05 -9.949471e+04        0
       0        0        0

-3.743470e+05 8.951924e+04        0
8.951924e+04 -9.999807e+04        0
       0        0        0

-4.848186e+05 6.088897e+04        0
6.088897e+04 -1.007491e+05        0
       0        0        0

-5.955116e+05 2.272272e+04        0
2.272272e+04 -1.017526e+05        0
       0        0        0

3.462408e+05 2.273213e+04        0
2.273213e+04 -1.048596e+05        0
       0        0        0

2.470402e+05 6.090435e+04        0
6.090435e+04 -1.037913e+05        0
       0        0        0

1.475679e+05 8.953998e+04        0
8.953998e+04 -1.029768e+05        0
       0        0        0

4.784706e+04 1.086446e+05        0
1.086446e+05 -1.024414e+05        0
       0        0        0

-5.210859e+04 1.182015e+05        0
1.182015e+05 -1.021950e+05        0
       0        0        0

-1.523066e+05 1.181938e+05        0
1.181938e+05 -1.022248e+05        0
       0        0        0

-2.527641e+05 1.086235e+05        0
1.086235e+05 -1.025064e+05        0
       0        0        0

-3.534861e+05 8.951095e+04        0
8.951095e+04 -1.030243e+05        0
       0        0        0

-4.544544e+05 6.087677e+04        0
6.087677e+04 -1.037842e+05        0
       0        0        0

-5.556397e+05 2.271905e+04        0
2.271905e+04 -1.048050e+05        0
       0        0        0

3.004822e+05 2.271539e+04        0
2.271539e+04 -1.076574e+05        0
       0        0        0

2.108493e+05 6.086437e+04        0
6.086437e+04 -1.065333e+05        0
       0        0        0

1.209111e+05 8.951546e+04        0
8.951546e+04 -1.056691e+05        0
       0        0        0

3.073692e+04 1.086641e+05        0
1.086641e+05 -1.051219e+05        0
       0        0        0

-5.964355e+04 1.182578e+05        0
1.182578e+05 -1.049091e+05        0
       0        0        0

-1.502580e+05 1.182508e+05        0
1.182508e+05 -1.049962e+05        0
       0        0        0

-2.411586e+05 1.086450e+05        0
1.086450e+05 -1.053249e+05        0
       0        0        0

-3.323700e+05 8.948920e+04        0
8.948920e+04 -1.058577e+05        0
       0        0        0

-4.238570e+05 6.083943e+04        0
6.083943e+04 -1.066065e+05        0
       0        0        0

-5.155448e+05 2.270357e+04        0
2.270357e+04 -1.076228e+05        0
       0        0        0

2.550302e+05 2.266861e+04        0
2.266861e+04 -1.101928e+05        0
       0        0        0

1.749112e+05 6.076689e+04        0
6.076689e+04 -1.089786e+05        0
       0        0        0

9.444394e+04 8.946363e+04        0
8.946363e+04 -1.080332e+05        0
       0        0        0

1.379929e+04 1.087177e+05        0
1.087177e+05 -1.074804e+05        0
       0        0        0

-6.696699e+04 1.183950e+05        0
1.183950e+05 -1.073481e+05        0
       0        0        0

-1.479345e+05 1.183887e+05        0
1.183887e+05 -1.075565e+05        0
       0        0        0

-2.292386e+05 1.087005e+05        0
1.087005e+05 -1.079789e+05        0
       0        0        0

-3.109536e+05 8.944014e+04        0
8.944014e+04 -1.085307e+05        0
       0        0        0

-3.930164e+05 6.074460e+04        0
6.074460e+04 -1.092323e+05        0
       0        0        0

-4.752498e+05 2.265805e+04        0
2.265805e+04 -1.102010e+05        0
       0        0        0

2.099707e+05 2.255312e+04        0
2.255312e+04 -1.124452e+05        0
       0        0        0

1.392276e+05 6.054966e+04        0
6.054966e+04 -1.110720e+05        0
       0        0        0

6.809783e+04 8.936201e+04        0
8.936201e+04 -1.099896e+05        0
       0        0        0

-3.042201e+03 1.088455e+05        0
1.088455e+05 -1.094456e+05        0
       0        0        0

-7.410476e+04 1.186961e+05        0
1.186961e+05 -1.094775e+05        0
       0        0        0

-1.452897e+05 1.186906e+05        0
1.186906e+05 -1.099193e+05        0
       0        0        0

-2.169085e+05 1.088304e+05        0
1.088304e+05 -1.105207e+05        0
       0        0        0

-2.891518e+05 8.934130e+04        0
8.934130e+04 -1.111065e+05        0
       0        0        0

-3.619182e+05 6.053005e+04        0
6.053005e+04 -1.117009e+05        0
       0        0        0

-4.348222e+05 2.254384e+04        0
2.254384e+04 -1.125421e+05        0
       0        0        0

1.654676e+05 2.229389e+04        0
2.229389e+04 -1.143894e+05        0
       0        0        0

1.037757e+05 6.010633e+04        0
6.010633e+04 -1.127378e+05        0
       0        0        0

4.172434e+04 8.918285e+04        0
8.918285e+04 -1.114369e+05        0
       0        0        0

-1.993674e+04 1.091211e+05        0
1.091211e+05 -1.109352e+05        0
       0        0        0

-8.111029e+04 1.192969e+05        0
1.192969e+05 -1.112604e+05        0
       0        0        0

-1.422485e+05 1.192922e+05        0
1.192922e+05 -1.121001e+05        0
       0        0        0

-2.040019e+05 1.091080e+05        0
1.091080e+05 -1.130150e+05        0
       0        0        0

-2.668047e+05 8.916493e+04        0
8.916493e+04 -1.136749e+05        0
       0        0        0

-3.305323e+05 6.008944e+04        0
6.008944e+04 -1.140806e+05        0
       0        0        0

-3.944153e+05 2.228592e+04        0
2.228592e+04 -1.146607e+05        0
       0        0        0

1.218143e+05 2.175987e+04        0
2.175987e+04 -1.160001e+05        0
       0        0        0

6.846991e+04 5.928775e+04        0
5.928775e+04 -1.139016e+05        0
       0        0        0

1.504776e+04 8.891653e+04        0
8.891653e+04 -1.123083e+05        0
       0        0        0

-3.712658e+04 1.096611e+05        0
1.096611e+05 -1.119237e+05        0
       0        0        0

-8.806576e+04 1.203706e+05        0
1.203706e+05 -1.126850e+05        0
       0        0        0

-1.387020e+05 1.203666e+05        0
1.203666e+05 -1.140839e+05        0
       0        0        0

-1.902583e+05 1.096500e+05        0
1.096500e+05 -1.154691e+05        0
       0        0        0

-2.436324e+05 8.890144e+04        0
8.890144e+04 -1.162985e+05        0
       0        0        0

-2.987810e+05 5.927361e+04        0
5.927361e+04 -1.164537e+05        0
       0        0        0

-3.543298e+05 2.175326e+04        0
2.175326e+04 -1.165894e+05        0
       0        0        0

7.947515e+04 2.075678e+04        0
2.075678e+04 -1.172821e+05        0
       0        0        0

3.307865e+04 5.797447e+04        0
5.797447e+04 -1.145899e+05        0
       0        0        0

-1.236393e+04 8.865059e+04        0
8.865059e+04 -1.127886e+05        0
       0        0        0

-5.490063e+04 1.106013e+05        0
1.106013e+05 -1.126577e+05        0
       0        0        0

-9.504947e+04 1.220074e+05        0
1.220074e+05 -1.138552e+05        0
       0        0        0

-1.345317e+05 1.220041e+05        0
1.220041e+05 -1.157267e+05        0
       0        0        0

-1.753639e+05 1.105923e+05        0
1.105923e+05 -1.176118e+05        0
       0        0        0

-2.192067e+05 8.863840e+04        0
8.863840e+04 -1.187962e+05        0
       0        0        0

-2.664683e+05 5.796312e+04        0
5.796312e+04 -1.188293e+05        0
       0        0        0

-3.150782e+05 2.075156e+04        0
2.075156e+04 -1.183719e+05        0
       0        0        0

3.901604e+04 1.910250e+04        0
1.910250e+04 -1.183311e+05        0
       0        0        0

-2.945801e+03 5.638064e+04        0
5.638064e+04 -1.153385e+05        0
       0        0        0

-4.097162e+04 8.874194e+04        0
8.874194e+04 -1.139163e+05        0
       0        0        0

-7.334316e+04 1.119428e+05        0
1.119428e+05 -1.141993e+05        0
       0        0        0

-1.020044e+05 1.238170e+05        0
1.238170e+05 -1.151847e+05        0
       0        0        0

-1.297257e+05 1.238146e+05        0
1.238146e+05 -1.165458e+05        0
       0        0        0

-1.591896e+05 1.119363e+05        0
1.119363e+05 -1.183359e+05        0
       0        0        0

-1.930733e+05 8.873286e+04        0
8.873286e+04 -1.201362e+05        0
       0        0        0

-2.331278e+05 5.637209e+04        0
5.637209e+04 -1.207525e+05        0
       0        0        0

-2.773664e+05 1.909865e+04        0
1.909865e+04 -1.200521e+05        0
       0        0        0

5.231885e+02 1.710271e+04        0
1.710271e+04 -1.199683e+05        0
       0        0        0

-4.055900e+04 5.592265e+04        0
5.592265e+04 -1.183223e+05        0
       0        0        0

-7.064224e+04 9.001307e+04        0
9.001307e+04 -1.192608e+05        0
       0        0        0

-9.160225e+04 1.128998e+05        0
1.128998e+05 -1.193451e+05        0
       0        0        0

-1.084793e+05 1.240404e+05        0
1.240404e+05 -1.176209e+05        0
       0        0        0

-1.246149e+05 1.240392e+05        0
1.240392e+05 -1.154734e+05        0
       0        0        0

-1.424954e+05 1.128964e+05        0
1.128964e+05 -1.147534e+05        0
       0        0        0

-1.653497e+05 9.000769e+04        0
9.000769e+04 -1.167341e+05        0
       0        0        0

-1.979384e+05 5.591692e+04        0
5.591692e+04 -1.201833e+05        0
       0        0        0

-2.416132e+05 1.710010e+04        0
1.710010e+04 -1.211410e+05        0
       0        0        0

-3.838756e+04 1.780089e+04        0
1.780089e+04 -1.241547e+05        0
       0        0        0

-8.056431e+04 6.133461e+04        0
6.133461e+04 -1.329179e+05        0
       0        0        0

-9.823377e+04 9.241439e+04        0
9.241439e+04 -1.376493e+05        0
       0        0        0

-1.069299e+05 1.101518e+05        0
1.101518e+05 -1.330247e+05        0
       0        0        0

-1.134903e+05 1.182691e+05        0
1.182691e+05 -1.226657e+05        0
       0        0        0

-1.199857e+05 1.182695e+05        0
1.182695e+05 -1.108102e+05        0
       0        0        0

-1.278480e+05 1.101525e+05        0
1.101525e+05 -1.017531e+05        0
       0        0        0

-1.390687e+05 9.241419e+04        0
9.241419e+04 -9.965328e+04        0
       0        0        0

-1.602170e+05 6.133242e+04        0
6.133242e+04 -1.078653e+05        0
       0        0        0

-2.060740e+05 1.779909e+04        0
1.779909e+04 -1.203165e+05        0
       0        0        0

-9.041227e+04 4.054631e+04        0
4.054631e+04 -1.562833e+05        0
       0        0        0

-1.138421e+05 7.593486e+04        0
7.593486e+04 -1.858539e+05        0
       0        0        0

-1.150718e+05 8.920336e+04        0
8.920336e+04 -1.817339e+05        0
       0        0        0

-1.153875e+05 9.571255e+04        0
9.571255e+04 -1.608397e+05        0
       0        0        0

-1.157489e+05 9.856239e+04        0
9.856239e+04 -1.317915e+05        0
       0        0        0

-1.168366e+05 9.856429e+04        0
9.856429e+04 -1.007937e+05        0
       0        0        0

-1.188659e+05 9.571771e+04        0
9.571771e+04 -7.341100e+04        0
       0        0        0

-1.225609e+05 8.921016e+04        0
8.921016e+04 -5.589328e+04        0
       0        0        0

-1.289065e+05 7.594047e+04        0
7.594047e+04 -5.688864e+04        0
       0        0        0

-1.586523e+05 4.054609e+04        0
4.054609e+04 -9.278138e+04        0
       0        0        0

POINT_DATA     451
VECTORS DISPLACEMENT_8.200000e-01 double
0.000000e+00    0.000000e+00    0.000000e+00
0.000000e+00    0.000000e+00    0.000000e+00
0.000000e+00    0.000000e+00    0.000000e+00
0.000000e+00    0.000000e+00    0.000000e+00
0.000000e+00    0.000000e+00    0.000000e+00
0.000000e+00    0.000000e+00    0.000000e+00
0.000000e+00    0.000000e+00    0.000000e+00
0.000000e+00    0.000000e+00    0.000000e+00
0.000000e+00    0.000000e+00    0.000000e+00
0.000000e+00    0.000000e+00    0.000000e+00
0.000000e+00    0.000000e+00    0.000000e+00
-1.141595e-06    -8.299605e-07    0.000000e+00
-7.233448e-07    -4.163094e-07    0.000000e+00
-5.161144e-07    -2.157261e-07    0.000000e+00
-3.332233e-07    -1.068318e-07    0.000000e+00
-1.642863e-07    -5.047426e-08    0.000000e+00
-4.138415e-20    -3.295145e-08    0.000000e+00
1.642863e-07    -5.047426e-08    0.000000e+00
3.332233e-07    -1.068318e-07    0.000000e+00
5.161144e-07    -2.157261e-07    0.000000e+00
7.233448e-07    -4.163094e-07    0.000000e+00
1.141595e-06    -8.299605e-07    0.000000e+00
-2.153941e-06    -1.380309e-06    0.000000e+00
-1.574436e-06    -9.987668e-07    0.000000e+00
-1.105093e-06    -7.015532e-07    0.000000e+00
-7.128292e-07    -5.177059e-07    0.000000e+00
-3.501023e-07    -4.175298e-07    0.000000e+00
-8.733786e-20    -3.857102e-07    0.000000e+00
3.501023e-07    -4.175298e-07    0.000000e+00
7.128292e-07    -5.177059e-07    0.000000e+00
1.105093e-06    -7.015532e-07    0.000000e+00
1.574436e-06    -9.987668e-07    0.000000e+00
2.153941e-06    -1.380309e-06    0.000000e+00
-3.132427e-06    -2.064634e-06    0.000000e+00
-2.394168e-06    -1.682257e-06    0.000000e+00
-1.722702e-06    -1.380761e-06    0.000000e+00
-1.115240e-06    -1.168096e-06    0.000000e+00
-5.487489e-07    -1.045521e-06    0.000000e+00
-1.375701e-19    -1.005593e-06    0.000000e+00
5.487489e-07    -1.045521e-06    0.000000e+00
1.115240e-06    -1.168096e-06    0.000000e+00
1.722702e-06    -1.380761e-06    0.000000e+00
2.394168e-06    -1.682257e-06    0.000000e+00
3.132427e-06    -2.064634e-06    0.000000e+00
-4.100076e-06    -2.909172e-06    0.000000e+00
-3.186876e-06    -2.535522e-06    0.000000e+00
-2.326958e-06    -2.239053e-06    0.000000e+00
-1.519408e-06    -2.025105e-06    0.000000e+00
-7.500557e-07    -1.896684e-06    0.000000e+00
-1.896229e-19    -1.854101e-06    0.000000e+00
7.500557e-07    -1.896684e-06    0.000000e+00
1.519408e-06    -2.025105e-06    0.000000e+00
2.326958e-06    -2.239053e-06    0.000000e+00
3.186876e-06    -2.535522e-06    0.000000e+00
4.100076e-06    -2.909172e-06    0.000000e+00
-5.051341e-06    -3.936654e-06    0.000000e+00
-3.956477e-06    -3.571725e-06    0.000000e+00
-2.911986e-06    -3.284208e-06    0.000000e+00
-1.912865e-06    -3.075889e-06    0.000000e+00
-9.475500e-07    -2.949778e-06    0.000000e+00
-2.433102e-19    -2.907564e-06    0.000000e+00
9.475500e-07    -2.949778e-06    0.000000e+00
1.912865e-06    -3.075889e-06    0.000000e+00
2.911986e-06    -3.284208e-06    0.000000e+00
3.956477e-06    -3.571725e-06    0.000000e+00
5.051341e-06    -3.936654e-06    0.000000e+00
-5.981873e-06    -5.149742e-06    0.000000e+00
-4.704513e-06    -4.794468e-06    0.000000e+00
-3.477740e-06    -4.516043e-06    0.000000e+00
-2.292922e-06    -4.315096e-06    0.000000e+00
-1.138484e-06    -4.193469e-06    0.000000e+00
-2.976659e-19    -4.152740e-06    0.000000e+00
1.138484e-06    -4.193469e-06    0.000000e+00
2.292922e-06    -4.315096e-06    0.000000e+00
3.477740e-06    -4.516043e-06    0.000000e+00
4.704513e-06    -4.794468e-06    0.000000e+00
5.981873e-06    -5.149742e-06    0.000000e+00
-6.888558e-06    -6.546376e-06    0.000000e+00
-5.431254e-06    -6.201154e-06    0.000000e+00
-4.025294e-06    -5.931590e-06    0.000000e+00
-2.659769e-06    -5.737829e-06    0.000000e+00
-1.322562e-06    -5.620886e-06    0.000000e+00
-3.496923e-19    -5.581769e-06    0.000000e+00
1.322562e-06    -5.620886e-06    0.000000e+00
2.659769e-06    -5.737829e-06    0.000000e+00
4.025294e-06    -5.931590e-06    0.000000e+00
5.431254e-06    -6.201154e-06    0.000000e+00
6.888558e-06    -6.546376e-06    0.000000e+00
-7.769676e-06    -8.122139e-06    0.000000e+00
-6.136609e-06    -7.787205e-06    0.000000e+00
-4.555509e-06    -7.526210e-06    0.000000e+00
-3.014226e-06    -7.339157e-06    0.000000e+00
-1.500173e-06    -7.226543e-06    0.000000e+00
-4.009642e-19    -7.188927e-06    0.000000e+00
1.500173e-06    -7.226543e-06    0.000000e+00
3.014226e-06    -7.339157e-06    0.000000e+00
4.555509e-06    -7.526210e-06    0.000000e+00
6.136609e-06    -7.787205e-06    0.000000e+00
7.769676e-06    -8.122139e-06    0.000000e+00
-8.624338e-06    -9.871838e-06    0.000000e+00
-6.820449e-06    -9.547301e-06    0.000000e+00
-5.068913e-06    -9.294676e-06    0.000000e+00
-3.356973e-06    -9.113935e-06    0.000000e+00
-1.671744e-06    -9.005300e-06    0.000000e+00
-4.536126e-19    -8.969049e-06    0.000000e+00
1.671744e-06    -9.005300e-06    0.000000e+00
3.356973e-06    -9.113935e-06    0.000000e+00
5.068913e-06    -9.294676e-06    0.000000e+00
6.820449e-06    -9.547301e-06    0.000000e+00
8.624338e-06    -9.871838e-06    0.000000e+00
-9.452128e-06    -1.179002e-05    0.000000e+00
-7.482678e-06    -1.147593e-05    0.000000e+00
-5.565791e-06    -1.123156e-05    0.000000e+00
-3.688437e-06    -1.105688e-05    0.000000e+00
-1.837569e-06    -1.095199e-05    0.000000e+00
-5.066845e-19    -1.091701e-05    0.000000e+00
1.837569e-06    -1.095199e-05    0.000000e+00
3.688437e-06    -1.105688e-05    0.000000e+00
5.565791e-06    -1.123156e-05    0.000000e+00
7.482678e-06    -1.147593e-05    0.000000e+00
9.452128e-06    -1.179002e-05    0.000000e+00
-1.025287e-05    -1.387120e-05    0.000000e+00
-8.123242e-06    -1.356758e-05    0.000000e+00
-6.046283e-06    -1.333140e-05    0.000000e+00
-4.008850e-06    -1.316265e-05    0.000000e+00
-1.997814e-06    -1.306137e-05    0.000000e+00
-5.523184e-19    -1.302760e-05    0.000000e+00
1.997814e-06    -1.306137e-05    0.000000e+00
4.008850e-06    -1.316265e-05    0.000000e+00
6.046283e-06    -1.333140e-05    0.000000e+00
8.123242e-06    -1.356758e-05    0.000000e+00
1.025287e-05    -1.387120e-05    0.000000e+00
-1.102648e-05    -1.610989e-05    0.000000e+00
-8.742113e-06    -1.581673e-05    0.000000e+00
-6.510452e-06    -1.558871e-05    0.000000e+00
-4.318325e-06    -1.542583e-05    0.000000e+00
-2.152566e-06    -1.532809e-05    0.000000e+00
-5.999640e-19    -1.529550e-05    0.000000e+00
2.152566e-06    -1.532809e-05    0.000000e+00
4.318325e-06    -1.542583e-05    0.000000e+00
6.510452e-06    -1.558871e-05    0.000000e+00
8.742113e-06    -1.581673e-05    0.000000e+00
1.102648e-05    -1.610989e-05    0.000000e+00
-1.177296e-05    -1.850062e-05    0.000000e+00
-9.339276e-06    -1.821793e-05    0.000000e+00
-6.958324e-06    -1.799806e-05    0.000000e+00
-4.616914e-06    -1.784101e-05    0.000000e+00
-2.301865e-06    -1.774678e-05    0.000000e+00
-6.521095e-19    -1.771537e-05    0.000000e+00
2.301865e-06    -1.774678e-05    0.000000e+00
4.616914e-06    -1.784101e-05    0.000000e+00
6.958324e-06    -1.799806e-05    0.000000e+00
9.339276e-06    -1.821793e-05    0.000000e+00
1.177296e-05    -1.850062e-05    0.000000e+00
-1.249228e-05    -2.103794e-05    0.000000e+00
-9.914727e-06    -2.076572e-05    0.000000e+00
-7.389909e-06    -2.055400e-05    0.000000e+00
-4.904637e-06    -2.040277e-05    0.000000e+00
-2.445728e-06    -2.031204e-05    0.000000e+00
-6.882143e-19    -2.028179e-05    0.000000e+00
2.445728e-06    -2.031204e-05    0.000000e+00
4.904637e-06    -2.040277e-05    0.000000e+00
7.389909e-06    -2.055400e-05    0.000000e+00
9.914727e-06    -2.076572e-05    0.000000e+00
1.249228e-05    -2.103794e-05    0.000000e+00
-1.318446e-05    -2.371642e-05    0.000000e+00
-1.046846e-05    -2.345467e-05    0.000000e+00
-7.805208e-06    -2.325109e-05    0.000000e+00
-5.181501e-06    -2.310568e-05    0.000000e+00
-2.584160e-06    -2.301844e-05    0.000000e+00
-7.237897e-19    -2.298935e-05    0.000000e+00
2.584160e-06    -2.301844e-05    0.000000e+00
5.181501e-06    -2.310568e-05    0.000000e+00
7.805208e-06    -2.325109e-05    0.000000e+00
1.046846e-05    -2.345467e-05    0.000000e+00
1.318446e-05    -2.371642e-05    0.000000e+00
-1.384949e-05    -2.653062e-05    0.000000e+00
-1.100049e-05    -2.627934e-05    0.000000e+00
-8.204222e-06    -2.608391e-05    0.000000e+00
-5.447509e-06    -2.594431e-05    0.000000e+00
-2.717163e-06    -2.586055e-05    0.000000e+00
-7.516359e-19    -2.583264e-05    0.000000e+00
2.717163e-06    -2.586055e-05    0.000000e+00
5.447509e-06    -2.594431e-05    0.000000e+00
8.204222e-06    -2.608391e-05    0.000000e+00
1.100049e-05    -2.627934e-05    0.000000e+00
1.384949e-05    -2.653062e-05    0.000000e+00
-1.448737e-05    -2.947511e-05    0.000000e+00
-1.151079e-05    -2.923430e-05    0.000000e+00
-8.586950e-06    -2.904701e-05    0.000000e+00
-5.702661e-06    -2.891323e-05    0.000000e+00
-2.844739e-06    -2.883296e-05    0.000000e+00
-7.642355e-19    -2.880621e-05    0.000000e+00
2.844739e-06    -2.883296e-05    0.000000e+00
5.702661e-06    -2.891323e-05    0.000000e+00
8.586950e-06    -2.904701e-05    0.000000e+00
1.151079e-05    -2.923430e-05    0.000000e+00
1.448737e-05    -2.947511e-05    0.000000e+00
-1.509811e-05    -3.254446e-05    0.000000e+00
-1.199938e-05    -3.231413e-05    0.000000e+00
-8.953392e-06    -3.213498e-05    0.000000e+00
-5.946955e-06    -3.200701e-05    0.000000e+00
-2.966886e-06    -3.193024e-05    0.000000e+00
-7.877406e-19    -3.190464e-05    0.000000e+00
2.966886e-06    -3.193024e-05    0.000000e+00
5.946955e-06    -3.200701e-05    0.000000e+00
8.953392e-06    -3.213498e-05    0.000000e+00
1.199938e-05    -3.231413e-05    0.000000e+00
1.509811e-05    -3.254446e-05    0.000000e+00
-1.568170e-05    -3.573325e-05    0.000000e+00
-1.246626e-05    -3.551338e-05    0.000000e+00
-9.303549e-06    -3.534238e-05    0.000000e+00
-6.180392e-06    -3.522023e-05    0.000000e+00
-3.083604e-06    -3.514694e-05    0.000000e+00
-8.242689e-19    -3.512251e-05    0.000000e+00
3.083604e-06    -3.514694e-05    0.000000e+00
6.180392e-06    -3.522023e-05    0.000000e+00
9.303549e-06    -3.534238e-05    0.000000e+00
1.246626e-05    -3.551338e-05    0.000000e+00
1.568170e-05    -3.573325e-05    0.000000e+00
-1.623815e-05    -3.903604e-05    0.000000e+00
-1.291142e-05    -3.882665e-05    0.000000e+00
-9.637419e-06    -3.866378e-05    0.000000e+00
-6.402972e-06    -3.854745e-05    0.000000e+00
-3.194894e-06    -3.847765e-05    0.000000e+00
-8.787967e-19    -3.845439e-05    0.000000e+00
3.194894e-06    -3.847765e-05    0.000000e+00
6.402972e-06    -3.854745e-05    0.000000e+00
9.637419e-06    -3.866378e-05    0.000000e+00
1.291142e-05    -3.882665e-05    0.000000e+00
1.623815e-05    -3.903604e-05    0.000000e+00
-1.676746e-05    -4.244741e-05    0.000000e+00
-1.333486e-05    -4.224848e-05    0.000000e+00
-9.955003e-06    -4.209376e-05    0.000000e+00
-6.614695e-06    -4.198325e-05    0.000000e+00
-3.300755e-06    -4.191694e-05    0.000000e+00
-9.459240e-19    -4.189484e-05    0.000000e+00
3.300755e-06    -4.191694e-05    0.000000e+00
6.614695e-06    -4.198325e-05    0.000000e+00
9.955003e-06    -4.209376e-05    0.000000e+00
1.333486e-05    -4.224848e-05    0.000000e+00
1.676746e-05    -4.244741e-05    0.000000e+00
-1.726962e-05    -4.596192e-05    0.000000e+00
-1.373659e-05    -4.577347e-05    0.000000e+00
-1.025630e-05    -4.562689e-05    0.000000e+00
-6.815560e-06    -4.552219e-05    0.000000e+00
-3.401188e-06    -4.545937e-05    0.000000e+00
-9.988636e-19    -4.543843e-05    0.000000e+00
3.401188e-06    -4.545937e-05    0.000000e+00
6.815560e-06    -4.552219e-05    0.000000e+00
1.025630e-05    -4.562689e-05    0.000000e+00
1.373659e-05    -4.577347e-05    0.000000e+00
1.726962e-05    -4.596192e-05    0.000000e+00
-1.774464e-05    -4.957415e-05    0.000000e+00
-1.411661e-05    -4.939617e-05    0.000000e+00
-1.054131e-05    -4.925773e-05    0.000000e+00
-7.005568e-06    -4.915885e-05    0.000000e+00
-3.496192e-06    -4.909952e-05    0.000000e+00
-1.035286e-18    -4.907975e-05    0.000000e+00
3.496192e-06    -4.909952e-05    0.000000e+00
7.005568e-06    -4.915885e-05    0.000000e+00
1.054131e-05    -4.925773e-05    0.000000e+00
1.411661e-05    -4.939617e-05    0.000000e+00
1.774464e-05    -4.957415e-05    0.000000e+00
-1.819252e-05    -5.327868e-05    0.000000e+00
-1.447491e-05    -5.311116e-05    0.000000e+00
-1.081004e-05    -5.298087e-05    0.000000e+00
-7.184718e-06    -5.288780e-05    0.000000e+00
-3.585767e-06    -5.283196e-05    0.000000e+00
-1.080179e-18    -5.281335e-05    0.000000e+00
3.585767e-06    -5.283196e-05    0.000000e+00
7.184718e-06    -5.288780e-05    0.000000e+00
1.081004e-05    -5.298087e-05    0.000000e+00
1.447491e-05    -5.311116e-05    0.000000e+00
1.819252e-05    -5.327868e-05    0.000000e+00
-1.861325e-05    -5.707006e-05    0.000000e+00
-1.481149e-05    -5.691301e-05    0.000000e+00
-1.106248e-05    -5.679086e-05    0.000000e+00
-7.353011e-06    -5.670361e-05    0.000000e+00
-3.669914e-06    -5.665126e-05    0.000000e+00
-1.097966e-18    -5.663381e-05    0.000000e+00
3.669914e-06    -5.665126e-05    0.000000e+00
7.353011e-06    -5.670361e-05    0.000000e+00
1.106248e-05    -5.679086e-05    0.000000e+00
1.481149e-05    -5.691301e-05    0.000000e+00
1.861325e-05    -5.707006e-05    0.000000e+00
-1.900683e-05    -6.094287e-05    0.000000e+00
-1.512636e-05    -6.079629e-05    0.000000e+00
-1.129863e-05    -6.068229e-05    0.000000e+00
-7.510448e-06    -6.060086e-05    0.000000e+00
-3.748633e-06    -6.055200e-05    0.000000e+00
-1.125919e-18    -6.053571e-05    0.000000e+00
3.748633e-06    -6.055200e-05    0.000000e+00
7.510448e-06    -6.060086e-05    0.000000e+00
1.129863e-05    -6.068229e-05    0.000000e+00
1.512636e-05    -6.079629e-05    0.000000e+00
1.900683e-05    -6.094287e-05    0.000000e+00
-1.937327e-05    -6.489169e-05    0.000000e+00
-1.541952e-05    -6.475558e-05    0.000000e+00
-1.151850e-05    -6.464972e-05    0.000000e+00
-7.657028e-06    -6.457410e-05    0.000000e+00
-3.821923e-06    -6.452873e-05    0.000000e+00
-1.147730e-18    -6.451361e-05    0.000000e+00
3.821923e-06    -6.452873e-05    0.000000e+00
7.657028e-06    -6.457410e-05    0.000000e+00
1.151850e-05    -6.464972e-05    0.000000e+00
1.541952e-05    -6.475558e-05    0.000000e+00
1.937327e-05    -6.489169e-05    0.000000e+00
-1.971256e-05    -6.891107e-05    0.000000e+00
-1.569095e-05    -6.878544e-05    0.000000e+00
-1.172208e-05    -6.868772e-05    0.000000e+00
-7.792750e-06    -6.861792e-05    0.000000e+00
-3.889784e-06    -6.857604e-05    0.000000e+00
-1.141377e-18    -6.856208e-05    0.000000e+00
3.889784e-06    -6.857604e-05    0.000000e+00
7.792750e-06    -6.861792e-05    0.000000e+00
1.172208e-05    -6.868772e-05    0.000000e+00
1.569095e-05    -6.878544e-05    0.000000e+00
1.971256e-05    -6.891107e-05    0.000000e+00
-2.002471e-05    -7.299559e-05    0.000000e+00
-1.594068e-05    -7.288043e-05    0.000000e+00
-1.190938e-05    -7.279086e-05    0.000000e+00
-7.917611e-06    -7.272688e-05    0.000000e+00
-3.952212e-06    -7.268851e-05    0.000000e+00
-1.147306e-18    -7.267572e-05    0.000000e+00
3.952212e-06    -7.268851e-05    0.000000e+00
7.917611e-06    -7.272688e-05    0.000000e+00
1.190938e-05    -7.279086e-05    0.000000e+00
1.594068e-05    -7.288043e-05    0.000000e+00
2.002471e-05    -7.299559e-05    0.000000e+00
-2.030971e-05    -7.713981e-05    0.000000e+00
-1.616869e-05    -7.703511e-05    0.000000e+00
-1.208038e-05    -7.695370e-05    0.000000e+00
-8.031599e-06    -7.689557e-05    0.000000e+00
-4.009198e-06    -7.686071e-05    0.000000e+00
-1.193469e-18    -7.684909e-05    0.000000e+00
4.009198e-06    -7.686071e-05    0.000000e+00
8.031599e-06    -7.689557e-05    0.000000e+00
1.208038e-05    -7.695370e-05    0.000000e+00
1.616869e-05    -7.703511e-05    0.000000e+00
2.030971e-05    -7.713981e-05    0.000000e+00
-2.056757e-05    -8.133827e-05    0.000000e+00
-1.637501e-05    -8.124404e-05    0.000000e+00
-1.223508e-05    -8.117079e-05    0.000000e+00
-8.134685e-06    -8.111855e-05    0.000000e+00
-4.060719e-06    -8.108725e-05    0.000000e+00
-1.236668e-18    -8.107682e-05    0.000000e+00
4.060719e-06    -8.108725e-05    0.000000e+00
8.134685e-06    -8.111855e-05    0.000000e+00
1.223508e-05    -8.117079e-05    0.000000e+00
1.637501e-05    -8.124404e-05    0.000000e+00
2.056757e-05    -8.133827e-05    0.000000e+00
-2.079833e-05    -8.558550e-05    0.000000e+00
-1.655963e-05    -8.550173e-05    0.000000e+00
-1.237344e-05    -8.543669e-05    0.000000e+00
-8.226802e-06    -8.539041e-05    0.000000e+00
-4.106724e-06    -8.536275e-05    0.000000e+00
-1.309089e-18    -8.535356e-05    0.000000e+00
4.106724e-06    -8.536275e-05    0.000000e+00
8.226802e-06    -8.539041e-05    0.000000e+00
1.237344e-05    -8.543669e-05    0.000000e+00
1.655963e-05    -8.550173e-05    0.000000e+00
2.079833e-05    -8.558550e-05    0.000000e+00
-2.100210e-05    -8.987603e-05    0.000000e+00
-1.672261e-05    -8.980269e-05    0.000000e+00
-1.249537e-05    -8.974594e-05    0.000000e+00
-8.307807e-06    -8.970578e-05    0.000000e+00
-4.147107e-06    -8.968192e-05    0.000000e+00
-1.388287e-18    -8.967401e-05    0.000000e+00
4.147107e-06    -8.968192e-05    0.000000e+00
8.307807e-06    -8.970578e-05    0.000000e+00
1.249537e-05    -8.974594e-05    0.000000e+00
1.672261e-05    -8.980269e-05    0.000000e+00
2.100210e-05    -8.987603e-05    0.000000e+00
-2.117912e-05    -9.420439e-05    0.000000e+00
-1.686399e-05    -9.414142e-05    0.000000e+00
-1.260070e-05    -9.409307e-05    0.000000e+00
-8.377428e-06    -9.405931e-05    0.000000e+00
-4.181679e-06    -9.403948e-05    0.000000e+00
-1.434027e-18    -9.403296e-05    0.000000e+00
4.181679e-06    -9.403948e-05    0.000000e+00
8.377428e-06    -9.405931e-05    0.000000e+00
1.260070e-05    -9.409307e-05    0.000000e+00
1.686399e-05    -9.414142e-05    0.000000e+00
2.117912e-05    -9.420439e-05    0.000000e+00
-2.132994e-05    -9.856523e-05    0.000000e+00
-1.698387e-05    -9.851248e-05    0.000000e+00
-1.268909e-05    -9.847276e-05    0.000000e+00
-8.435205e-06    -9.844575e-05    0.000000e+00
-4.210141e-06    -9.843026e-05    0.000000e+00
-1.490778e-18    -9.842523e-05    0.000000e+00
4.210141e-06    -9.843026e-05    0.000000e+00
8.435205e-06    -9.844575e-05    0.000000e+00
1.268909e-05    -9.847276e-05    0.000000e+00
1.698387e-05    -9.851248e-05    0.000000e+00
2.132994e-05    -9.856523e-05    0.000000e+00
-2.145562e-05    -1.029537e-04    0.000000e+00
-1.708235e-05    -1.029109e-04    0.000000e+00
-1.275997e-05    -1.028800e-04    0.000000e+00
-8.480517e-06    -1.028600e-04    0.000000e+00
-4.232143e-06    -1.028489e-04    0.000000e+00
-1.545412e-18    -1.028454e-04    0.000000e+00
4.232143e-06    -1.028489e-04    0.000000e+00
8.480517e-06    -1.028600e-04    0.000000e+00
1.275997e-05    -1.028800e-04    0.000000e+00
1.708235e-05    -1.029109e-04    0.000000e+00
2.145562e-05    -1.029537e-04    0.000000e+00
-2.155817e-05    -1.073660e-04    0.000000e+00
-1.715935e-05    -1.073327e-04    0.000000e+00
-1.281258e-05    -1.073105e-04    0.000000e+00
-8.512904e-06    -1.072970e-04    0.000000e+00
-4.247579e-06    -1.072895e-04    0.000000e+00
-1.488237e-18    -1.072870e-04    0.000000e+00
4.247579e-06    -1.072895e-04    0.000000e+00
8.512904e-06    -1.072970e-04    0.000000e+00
1.281258e-05    -1.073105e-04    0.000000e+00
1.715935e-05    -1.073327e-04    0.000000e+00
2.155817e-05    -1.073660e-04    0.000000e+00
-2.164067e-05    -1.118022e-04    0.000000e+00
-1.721429e-05    -1.117772e-04    0.000000e+00
-1.284670e-05    -1.117621e-04    0.000000e+00
-8.533270e-06    -1.117511e-04    0.000000e+00
-4.257281e-06    -1.117436e-04    0.000000e+00
-1.401840e-18    -1.117409e-04    0.000000e+00
4.257281e-06    -1.117436e-04    0.000000e+00
8.533270e-06    -1.117511e-04    0.000000e+00
1.284670e-05    -1.117621e-04    0.000000e+00
1.721429e-05    -1.117772e-04    0.000000e+00
2.164067e-05    -1.118022e-04    0.000000e+00
-2.170513e-05    -1.162704e-04    0.000000e+00
-1.724615e-05    -1.162523e-04    0.000000e+00
-1.286626e-05    -1.162338e-04    0.000000e+00
-8.546206e-06    -1.162132e-04    0.000000e+00
-4.263865e-06    -1.161978e-04    0.000000e+00
-1.391675e-18    -1.161922e-04    0.000000e+00
4.263865e-06    -1.161978e-04    0.000000e+00
8.546206e-06    -1.162132e-04    0.000000e+00
1.286626e-05    -1.162338e-04    0.000000e+00
1.724615e-05    -1.162523e-04    0.000000e+00
2.170513e-05    -1.162704e-04    0.000000e+00
-2.173924e-05    -1.208105e-04    0.000000e+00
-1.726634e-05    -1.207758e-04    0.000000e+00
-1.288608e-05    -1.207173e-04    0.000000e+00
-8.561321e-06    -1.206645e-04    0.000000e+00
-4.272039e-06    -1.206293e-04    0.000000e+00
-1.382781e-18    -1.206170e-04    0.000000e+00
4.272039e-06    -1.206293e-04    0.000000e+00
8.561321e-06    -1.206645e-04    0.000000e+00
1.288608e-05    -1.207173e-04    0.000000e+00
1.726634e-05    -1.207758e-04    0.000000e+00
2.173924e-05    -1.208105e-04    0.000000e+00

CELL_DATA      400
TENSORS Element_Stress8.200000e-01 double
1.820598e+06 2.551812e+05        0
2.551812e+05 4.163488e+05        0
       0        0        0

1.243720e+06 1.308538e+05        0
1.308538e+05 3.566178e+05        0
       0        0        0

8.651185e+05 4.301032e+04        0
4.301032e+04 2.749959e+05        0
       0        0        0

5.100063e+05 -3.578363e+03        0
-3.578363e+03 1.690094e+05        0
       0        0        0

1.688541e+05 -2.488323e+04        0
-2.488323e+04 5.694968e+04        0
       0        0        0

-1.688184e+05 -2.487711e+04        0
-2.487711e+04 -5.695775e+04        0
       0        0        0

-5.095306e+05 -3.579112e+03        0
-3.579112e+03 -1.688447e+05        0
       0        0        0

-8.637077e+05 4.293851e+04        0
4.293851e+04 -2.744671e+05        0
       0        0        0

-1.240734e+06 1.305652e+05        0
1.305652e+05 -3.554740e+05        0
       0        0        0

-1.814375e+06 2.543707e+05        0
2.543707e+05 -4.141970e+05        0
       0        0        0

1.642070e+06 4.159748e+04        0
4.159748e+04 4.234799e+03        0
       0        0        0

1.322354e+06 1.206454e+05        0
1.206454e+05 1.286843e+05        0
       0        0        0

9.082521e+05 9.900755e+04        0
9.900755e+04 1.315191e+05        0
       0        0        0

5.364025e+05 7.580678e+04        0
7.580678e+04 9.193311e+04        0
       0        0        0

1.768172e+05 6.321707e+04        0
6.321707e+04 3.207757e+04        0
       0        0        0

-1.778550e+05 6.319873e+04        0
6.319873e+04 -3.316896e+04        0
       0        0        0

-5.369363e+05 7.574133e+04        0
7.574133e+04 -9.284490e+04        0
       0        0        0

-9.077061e+05 9.886737e+04        0
9.886737e+04 -1.320379e+05        0
       0        0        0

-1.319830e+06 1.204079e+05        0
1.204079e+05 -1.284324e+05        0
       0        0        0

-1.637466e+06 4.151082e+04        0
4.151082e+04 -3.136555e+03        0
       0        0        0

1.584953e+06 1.541639e+04        0
1.541639e+04 6.615316e+03        0
       0        0        0

1.271591e+06 6.833109e+04        0
6.833109e+04 1.757728e+04        0
       0        0        0

9.146413e+05 1.015639e+05        0
1.015639e+05 4.237686e+04        0
       0        0        0

5.430826e+05 1.074765e+05        0
1.074765e+05 3.592346e+04        0
       0        0        0

1.791459e+05 1.074054e+05        0
1.074054e+05 1.272037e+04        0
       0        0        0

-1.824790e+05 1.073775e+05        0
1.073775e+05 -1.611190e+04        0
       0        0        0

-5.458838e+05 1.073933e+05        0
1.073933e+05 -3.912503e+04        0
       0        0        0

-9.163117e+05 1.014348e+05        0
1.014348e+05 -4.515293e+04        0
       0        0        0

-1.271565e+06 6.821622e+04        0
6.821622e+04 -1.966893e+04        0
       0        0        0

-1.582978e+06 1.538448e+04        0
1.538448e+04 -7.911807e+03        0
       0        0        0

1.546129e+06 1.427370e+04        0
1.427370e+04 -3.975752e+03        0
       0        0        0

1.226683e+06 5.548208e+04        0
5.548208e+04 -1.953361e+03        0
       0        0        0

8.865538e+05 9.245024e+04        0
9.245024e+04 2.933168e+03        0
       0        0        0

5.331314e+05 1.146030e+05        0
1.146030e+05 5.877770e+03        0
       0        0        0

1.753740e+05 1.233579e+05        0
1.233579e+05 6.880625e+02        0
       0        0        0

-1.820438e+05 1.233283e+05        0
1.233283e+05 -7.415933e+03        0
       0        0        0

-5.392752e+05 1.145213e+05        0
1.145213e+05 -1.241206e+04        0
       0        0        0

-8.916350e+05 9.234262e+04        0
9.234262e+04 -9.058365e+03        0
       0        0        0

-1.230189e+06 5.539388e+04        0
5.539388e+04 -3.528931e+03        0
       0        0        0

-1.547532e+06 1.424568e+04        0
1.424568e+04 -5.504384e+02        0
       0        0        0

1.509427e+06 1.713063e+04        0
1.713063e+04 -5.567249e+03        0
       0        0        0

1.185340e+06 5.448733e+04        0
5.448733e+04 -8.577651e+03        0
       0        0        0

8.541561e+05 8.905469e+04        0
8.905469e+04 -8.329305e+03        0
       0        0        0

5.137340e+05 1.136408e+05        0
1.136408e+05 -6.745280e+03        0
       0        0        0

1.681056e+05 1.258450e+05        0
1.258450e+05 -5.639044e+03        0
       0        0        0

-1.789903e+05 1.258166e+05        0
1.258166e+05 -5.300819e+03        0
       0        0        0

-5.241237e+05 1.135646e+05        0
1.135646e+05 -4.010288e+03        0
       0        0        0

-8.635542e+05 8.895612e+04        0
8.895612e+04 -2.042812e+03        0
       0        0        0

-1.193244e+06 5.440409e+04        0
5.440409e+04 -1.179541e+03        0
       0        0        0

-1.515273e+06 1.709766e+04        0
1.709766e+04 -3.264824e+03        0
       0        0        0

1.469671e+06 1.958963e+04        0
1.958963e+04 -7.911531e+03        0
       0        0        0

1.147077e+06 5.644559e+04        0
5.644559e+04 -1.054799e+04        0
       0        0        0

8.224151e+05 8.838594e+04        0
8.838594e+04 -1.192774e+04        0
       0        0        0

4.928620e+05 1.117722e+05        0
1.117722e+05 -1.113898e+04        0
       0        0        0

1.594065e+05 1.239614e+05        0
1.239614e+05 -9.157848e+03        0
       0        0        0

-1.752704e+05 1.239347e+05        0
1.239347e+05 -6.757342e+03        0
       0        0        0

-5.082716e+05 1.117003e+05        0
1.117003e+05 -4.611022e+03        0
       0        0        0

-8.369138e+05 8.829171e+04        0
8.829171e+04 -3.479956e+03        0
       0        0        0

-1.160194e+06 5.636191e+04        0
5.636191e+04 -4.312364e+03        0
       0        0        0

-1.480879e+06 1.955284e+04        0
1.955284e+04 -6.139554e+03        0
       0        0        0

1.427069e+06 2.114429e+04        0
2.114429e+04 -1.052964e+04        0
       0        0        0

1.109854e+06 5.834958e+04        0
5.834958e+04 -1.236661e+04        0
       0        0        0

7.924051e+05 8.864128e+04        0
8.864128e+04 -1.362108e+04        0
       0        0        0

4.726277e+05 1.103428e+05        0
1.103428e+05 -1.337050e+04        0
       0        0        0

1.506199e+05 1.216735e+05        0
1.216735e+05 -1.181697e+04        0
       0        0        0

-1.721469e+05 1.216483e+05        0
1.216483e+05 -9.757740e+03        0
       0        0        0

-4.937482e+05 1.102742e+05        0
1.102742e+05 -8.067258e+03        0
       0        0        0

-8.127094e+05 8.854973e+04        0
8.854973e+04 -7.533908e+03        0
       0        0        0

-1.128918e+06 5.826553e+04        0
5.826553e+04 -8.339735e+03        0
       0        0        0

-1.444434e+06 2.110561e+04        0
2.110561e+04 -9.528609e+03        0
       0        0        0

1.382471e+06 2.200181e+04        0
2.200181e+04 -1.363722e+04        0
       0        0        0

1.072891e+06 5.961398e+04        0
5.961398e+04 -1.472183e+04        0
       0        0        0

7.635785e+05 8.901007e+04        0
8.901007e+04 -1.557414e+04        0
       0        0        0

4.533125e+05 1.094858e+05        0
1.094858e+05 -1.552412e+04        0
       0        0        0

1.419522e+05 1.200358e+05        0
1.200358e+05 -1.458784e+04        0
       0        0        0

-1.697603e+05 1.200117e+05        0
1.200117e+05 -1.326479e+04        0
       0        0        0

-4.807667e+05 1.094198e+05        0
1.094198e+05 -1.222641e+04        0
       0        0        0

-7.903212e+05 8.892090e+04        0
8.892090e+04 -1.196593e+04        0
       0        0        0

-1.098554e+06 5.953060e+04        0
5.953060e+04 -1.248635e+04        0
       0        0        0

-1.406666e+06 2.196271e+04        0
2.196271e+04 -1.309846e+04        0
       0        0        0

1.336650e+06 2.243103e+04        0
2.243103e+04 -1.712975e+04        0
       0        0        0

1.035846e+06 6.032508e+04        0
6.032508e+04 -1.770734e+04        0
       0        0        0

7.353690e+05 8.928001e+04        0
8.928001e+04 -1.819357e+04        0
       0        0        0

4.345842e+05 1.090314e+05        0
1.090314e+05 -1.820574e+04        0
       0        0        0

1.333510e+05 1.190751e+05        0
1.190751e+05 -1.770719e+04        0
       0        0        0

-1.679948e+05 1.190519e+05        0
1.190519e+05 -1.697818e+04        0
       0        0        0

-4.689286e+05 1.089678e+05        0
1.089678e+05 -1.641605e+04        0
       0        0        0

-7.691116e+05 8.919329e+04        0
8.919329e+04 -1.629667e+04        0
       0        0        0

-1.068676e+06 6.024325e+04        0
6.024325e+04 -1.657480e+04        0
       0        0        0

-1.368246e+06 2.239236e+04        0
2.239236e+04 -1.685617e+04        0
       0        0        0

1.290108e+06 2.262769e+04        0
2.262769e+04 -2.093370e+04        0
       0        0        0

9.986145e+05 6.068320e+04        0
6.068320e+04 -2.119241e+04        0
       0        0        0

7.073840e+05 8.943847e+04        0
8.943847e+04 -2.142407e+04        0
       0        0        0

4.161153e+05 1.088122e+05        0
1.088122e+05 -2.143279e+04        0
       0        0        0

1.247137e+05 1.185759e+05        0
1.185759e+05 -2.118594e+04        0
       0        0        0

-1.666835e+05 1.185536e+05        0
1.185536e+05 -2.082274e+04        0
       0        0        0

-4.578408e+05 1.087507e+05        0
1.087507e+05 -2.055219e+04        0
       0        0        0

-7.486181e+05 8.935433e+04        0
8.935433e+04 -2.051028e+04        0
       0        0        0

-1.039104e+06 6.060345e+04        0
6.060345e+04 -2.065826e+04        0
       0        0        0

-1.329592e+06 2.258991e+04        0
2.258991e+04 -2.079207e+04        0
       0        0        0

1.243138e+06 2.270943e+04        0
2.270943e+04 -2.498210e+04        0
       0        0        0

9.611829e+05 6.084707e+04        0
6.084707e+04 -2.504187e+04        0
       0        0        0

6.794119e+05 8.952007e+04        0
8.952007e+04 -2.510676e+04        0
       0        0        0

3.976942e+05 1.087151e+05        0
1.087151e+05 -2.508705e+04        0
       0        0        0

1.159751e+05 1.183403e+05        0
1.183403e+05 -2.496213e+04        0
       0        0        0

-1.656966e+05 1.183187e+05        0
1.183187e+05 -2.479576e+04        0
       0        0        0

-4.472257e+05 1.086557e+05        0
1.086557e+05 -2.468699e+04        0
       0        0        0

-7.285608e+05 8.943859e+04        0
8.943859e+04 -2.469694e+04        0
       0        0        0

-1.009752e+06 6.076971e+04        0
6.076971e+04 -2.480000e+04        0
       0        0        0

-1.290922e+06 2.267274e+04        0
2.267274e+04 -2.489961e+04        0
       0        0        0

1.195902e+06 2.273919e+04        0
2.273919e+04 -2.922324e+04        0
       0        0        0

9.235708e+05 6.091458e+04        0
6.091458e+04 -2.915047e+04        0
       0        0        0

6.513590e+05 8.955767e+04        0
8.955767e+04 -2.910387e+04        0
       0        0        0

3.792147e+05 1.086759e+05        0
1.086759e+05 -2.904718e+04        0
       0        0        0

1.071092e+05 1.182389e+05        0
1.182389e+05 -2.896999e+04        0
       0        0        0

-1.649443e+05 1.182180e+05        0
1.182180e+05 -2.889900e+04        0
       0        0        0

-4.369126e+05 1.086185e+05        0
1.086185e+05 -2.887696e+04        0
       0        0        0

-7.087800e+05 8.947891e+04        0
8.947891e+04 -2.892824e+04        0
       0        0        0

-9.805709e+05 6.083975e+04        0
6.083975e+04 -2.903784e+04        0
       0        0        0

-1.252330e+06 2.270369e+04        0
2.270369e+04 -2.916302e+04        0
       0        0        0

1.148491e+06 2.274763e+04        0
2.274763e+04 -3.361527e+04        0
       0        0        0

8.858087e+05 6.093851e+04        0
6.093851e+04 -3.344415e+04        0
       0        0        0

6.231974e+05 8.957284e+04        0
8.957284e+04 -3.331675e+04        0
       0        0        0

3.606384e+05 1.086618e+05        0
1.086618e+05 -3.322145e+04        0
       0        0        0

9.811734e+04 1.181997e+05        0
1.181997e+05 -3.315416e+04        0
       0        0        0

-1.643651e+05 1.181796e+05        0
1.181796e+05 -3.312513e+04        0
       0        0        0

-4.268000e+05 1.086064e+05        0
1.086064e+05 -3.315081e+04        0
       0        0        0

-6.891844e+05 8.949683e+04        0
8.949683e+04 -3.323922e+04        0
       0        0        0

-9.515284e+05 6.086627e+04        0
6.086627e+04 -3.338182e+04        0
       0        0        0

-1.213844e+06 2.271337e+04        0
2.271337e+04 -3.356049e+04        0
       0        0        0

1.100960e+06 2.274841e+04        0
2.274841e+04 -3.812278e+04        0
       0        0        0

8.479289e+05 6.094459e+04        0
6.094459e+04 -3.787019e+04        0
       0        0        0

5.949322e+05 8.957762e+04        0
8.957762e+04 -3.767803e+04        0
       0        0        0

3.419635e+05 1.086573e+05        0
1.086573e+05 -3.754494e+04        0
       0        0        0

8.901558e+04 1.181867e+05        0
1.181867e+05 -3.747027e+04        0
       0        0        0

-1.639142e+05 1.181674e+05        0
1.181674e+05 -3.745768e+04        0
       0        0        0

-4.168253e+05 1.086039e+05        0
1.086039e+05 -3.751247e+04        0
       0        0        0

-6.697180e+05 8.950436e+04        0
8.950436e+04 -3.763608e+04        0
       0        0        0

-9.225952e+05 6.087498e+04        0
6.087498e+04 -3.782343e+04        0
       0        0        0

-1.175457e+06 2.271539e+04        0
2.271539e+04 -3.806658e+04        0
       0        0        0

1.053347e+06 2.274703e+04        0
2.274703e+04 -4.271420e+04        0
       0        0        0

8.099626e+05 6.094429e+04        0
6.094429e+04 -4.238866e+04        0
       0        0        0

5.665832e+05 8.957803e+04        0
8.957803e+04 -4.214000e+04        0
       0        0        0

3.232060e+05 1.086559e+05        0
1.086559e+05 -4.197068e+04        0
       0        0        0

7.982720e+04 1.181835e+05        0
1.181835e+05 -4.188171e+04        0
       0        0        0

-1.635563e+05 1.181649e+05        0
1.181649e+05 -4.187447e+04        0
       0        0        0

-4.069457e+05 1.086046e+05        0
1.086046e+05 -4.195008e+04        0
       0        0        0

-6.503417e+05 8.950753e+04        0
8.950753e+04 -4.210767e+04        0
       0        0        0

-8.937438e+05 6.087730e+04        0
6.087730e+04 -4.234382e+04        0
       0        0        0

-1.137148e+06 2.271526e+04        0
2.271526e+04 -4.265429e+04        0
       0        0        0

1.005683e+06 2.274539e+04        0
2.274539e+04 -4.736038e+04        0
       0        0        0

7.719394e+05 6.094219e+04        0
6.094219e+04 -4.696667e+04        0
       0        0        0

5.381756e+05 8.957681e+04        0
8.957681e+04 -4.666608e+04        0
       0        0        0

3.043894e+05 1.086553e+05        0
1.086553e+05 -4.646218e+04        0
       0        0        0

7.057816e+04 1.181832e+05        0
1.181832e+05 -4.635676e+04        0
       0        0        0

-1.632605e+05 1.181653e+05        0
1.181653e+05 -4.635058e+04        0
       0        0        0

-3.971278e+05 1.086060e+05        0
1.086060e+05 -4.644347e+04        0
       0        0        0

-6.310240e+05 8.950907e+04        0
8.950907e+04 -4.663394e+04        0
       0        0        0

-8.649473e+05 6.087783e+04        0
6.087783e+04 -4.691929e+04        0
       0        0        0

-1.098893e+06 2.271487e+04        0
2.271487e+04 -4.729637e+04        0
       0        0        0

9.579955e+05 2.274400e+04        0
2.274400e+04 -5.203381e+04        0
       0        0        0

7.338873e+05 6.093989e+04        0
6.093989e+04 -5.157525e+04        0
       0        0        0

5.097360e+05 8.957508e+04        0
8.957508e+04 -5.122566e+04        0
       0        0        0

2.855393e+05 1.086546e+05        0
1.086546e+05 -5.098880e+04        0
       0        0        0

6.129495e+04 1.181835e+05        0
1.181835e+05 -5.086675e+04        0
       0        0        0

-1.629989e+05 1.181663e+05        0
1.181663e+05 -5.086025e+04        0
       0        0        0

-3.873432e+05 1.086073e+05        0
1.086073e+05 -5.096887e+04        0
       0        0        0

-6.117373e+05 8.951011e+04        0
8.951011e+04 -5.119108e+04        0
       0        0        0

-8.361791e+05 6.087815e+04        0
6.087815e+04 -5.152449e+04        0
       0        0        0

-1.060664e+06 2.271473e+04        0
2.271473e+04 -5.196605e+04        0
       0        0        0

9.103102e+05 2.274290e+04        0
2.274290e+04 -5.670829e+04        0
       0        0        0

6.958326e+05 6.093780e+04        0
6.093780e+04 -5.618768e+04        0
       0        0        0

4.812907e+05 8.957328e+04        0
8.957328e+04 -5.579141e+04        0
       0        0        0

2.666817e+05 1.086537e+05        0
1.086537e+05 -5.552312e+04        0
       0        0        0

5.200354e+04 1.181835e+05        0
1.181835e+05 -5.538500e+04        0
       0        0        0

-1.627453e+05 1.181671e+05        0
1.181671e+05 -5.537790e+04        0
       0        0        0

-3.775653e+05 1.086084e+05        0
1.086084e+05 -5.550144e+04        0
       0        0        0

-5.924555e+05 8.951107e+04        0
8.951107e+04 -5.575422e+04        0
       0        0        0

-8.074137e+05 6.087870e+04        0
6.087870e+04 -5.613390e+04        0
       0        0        0

-1.022436e+06 2.271486e+04        0
2.271486e+04 -5.663735e+04        0
       0        0        0

8.626520e+05 2.274198e+04        0
2.274198e+04 -6.135878e+04        0
       0        0        0

6.578008e+05 6.093596e+04        0
6.093596e+04 -6.077882e+04        0
       0        0        0

4.528650e+05 8.957150e+04        0
8.957150e+04 -6.033795e+04        0
       0        0        0

2.478418e+05 1.086526e+05        0
1.086526e+05 -6.003971e+04        0
       0        0        0

4.272898e+04 1.181833e+05        0
1.181833e+05 -5.988630e+04        0
       0        0        0

-1.624747e+05 1.181676e+05        0
1.181676e+05 -5.987867e+04        0
       0        0        0

-3.677693e+05 1.086093e+05        0
1.086093e+05 -6.001656e+04        0
       0        0        0

-5.731539e+05 8.951206e+04        0
8.951206e+04 -6.029866e+04        0
       0        0        0

-7.786261e+05 6.087948e+04        0
6.087948e+04 -6.072266e+04        0
       0        0        0

-9.841819e+05 2.271520e+04        0
2.271520e+04 -6.128530e+04        0
       0        0        0

8.150447e+05 2.274119e+04        0
2.274119e+04 -6.596136e+04        0
       0        0        0

6.198157e+05 6.093429e+04        0
6.093429e+04 -6.532473e+04        0
       0        0        0

4.244830e+05 8.956978e+04        0
8.956978e+04 -6.484132e+04        0
       0        0        0

2.290436e+05 1.086514e+05        0
1.086514e+05 -6.451456e+04        0
       0        0        0

3.349528e+04 1.181828e+05        0
1.181828e+05 -6.434667e+04        0
       0        0        0

-1.621631e+05 1.181678e+05        0
1.181678e+05 -6.433865e+04        0
       0        0        0

-3.579315e+05 1.086101e+05        0
1.086101e+05 -6.449035e+04        0
       0        0        0

-5.538087e+05 8.951311e+04        0
8.951311e+04 -6.480052e+04        0
       0        0        0

-7.497925e+05 6.088043e+04        0
6.088043e+04 -6.526685e+04        0
       0        0        0

-9.458791e+05 2.271565e+04        0
2.271565e+04 -6.588596e+04        0
       0        0        0

7.675109e+05 2.274046e+04        0
2.274046e+04 -7.049318e+04        0
       0        0        0

5.819002e+05 6.093273e+04        0
6.093273e+04 -6.980260e+04        0
       0        0        0

3.961677e+05 8.956811e+04        0
8.956811e+04 -6.927870e+04        0
       0        0        0

2.103102e+05 1.086501e+05        0
1.086501e+05 -6.892486e+04        0
       0        0        0

2.432535e+04 1.181822e+05        0
1.181822e+05 -6.874327e+04        0
       0        0        0

-1.617877e+05 1.181679e+05        0
1.181679e+05 -6.873499e+04        0
       0        0        0

-3.480290e+05 1.086108e+05        0
1.086108e+05 -6.889993e+04        0
       0        0        0

-5.343973e+05 8.951420e+04        0
8.951420e+04 -6.923690e+04        0
       0        0        0

-7.208901e+05 6.088150e+04        0
6.088150e+04 -6.974356e+04        0
       0        0        0

-9.075041e+05 2.271617e+04        0
2.271617e+04 -7.041649e+04        0
       0        0        0

7.200723e+05 2.273978e+04        0
2.273978e+04 -7.493249e+04        0
       0        0        0

5.440762e+05 6.093125e+04        0
6.093125e+04 -7.419071e+04        0
       0        0        0

3.679410e+05 8.956648e+04        0
8.956648e+04 -7.362841e+04        0
       0        0        0

1.916633e+05 1.086488e+05        0
1.086488e+05 -7.324889e+04        0
       0        0        0

1.524098e+04 1.181815e+05        0
1.181815e+05 -7.305436e+04        0
       0        0        0

-1.613270e+05 1.181679e+05        0
1.181679e+05 -7.304590e+04        0
       0        0        0

-3.380404e+05 1.086115e+05        0
1.086115e+05 -7.322349e+04        0
       0        0        0

-5.148979e+05 8.951533e+04        0
8.951533e+04 -7.358598e+04        0
       0        0        0

-6.918973e+05 6.088265e+04        0
6.088265e+04 -7.413101e+04        0
       0        0        0

-8.690350e+05 2.271673e+04        0
2.271673e+04 -7.485511e+04        0
       0        0        0

6.727496e+05 2.273915e+04        0
2.273915e+04 -7.925863e+04        0
       0        0        0

5.063643e+05 6.092987e+04        0
6.092987e+04 -7.846843e+04        0
       0        0        0

3.398235e+05 8.956489e+04        0
8.956489e+04 -7.786983e+04        0
       0        0        0

1.731238e+05 1.086474e+05        0
1.086474e+05 -7.746605e+04        0
       0        0        0

6.262879e+03 1.181806e+05        0
1.181806e+05 -7.725929e+04        0
       0        0        0

-1.607601e+05 1.181679e+05        0
1.181679e+05 -7.725069e+04        0
       0        0        0

-3.279448e+05 1.086121e+05        0
1.086121e+05 -7.744030e+04        0
       0        0        0

-4.952900e+05 8.951651e+04        0
8.951651e+04 -7.782701e+04        0
       0        0        0

-6.627933e+05 6.088389e+04        0
6.088389e+04 -7.840849e+04        0
       0        0        0

-8.304513e+05 2.271735e+04        0
2.271735e+04 -7.918115e+04        0
       0        0        0

6.255623e+05 2.273859e+04        0
2.273859e+04 -8.345202e+04        0
       0        0        0

4.687842e+05 6.092860e+04        0
6.092860e+04 -8.261621e+04        0
       0        0        0

3.118350e+05 8.956335e+04        0
8.956335e+04 -8.198342e+04        0
       0        0        0

1.547113e+05 1.086460e+05        0
1.086460e+05 -8.155678e+04        0
       0        0        0

-2.589332e+03 1.181797e+05        0
1.181797e+05 -8.133849e+04        0
       0        0        0

-1.600676e+05 1.181676e+05        0
1.181676e+05 -8.132976e+04        0
       0        0        0

-3.177230e+05 1.086127e+05        0
1.086127e+05 -8.153073e+04        0
       0        0        0

-4.755540e+05 8.951773e+04        0
8.951773e+04 -8.194037e+04        0
       0        0        0

-6.335585e+05 6.088526e+04        0
6.088526e+04 -8.255636e+04        0
       0        0        0

-7.917331e+05 2.271804e+04        0
2.271804e+04 -8.337502e+04        0
       0        0        0

5.785286e+05 2.273817e+04        0
2.273817e+04 -8.749418e+04        0
       0        0        0

4.313542e+05 6.092752e+04        0
6.092752e+04 -8.661559e+04        0
       0        0        0

2.839942e+05 8.956185e+04        0
8.956185e+04 -8.595072e+04        0
       0        0        0

1.364444e+05 1.086444e+05        0
1.086444e+05 -8.550260e+04        0
       0        0        0

-1.129712e+04 1.181785e+05        0
1.181785e+05 -8.527347e+04        0
       0        0        0

-1.592310e+05 1.181672e+05        0
1.181672e+05 -8.526462e+04        0
       0        0        0

-3.073564e+05 1.086132e+05        0
1.086132e+05 -8.547630e+04        0
       0        0        0

-4.556717e+05 8.951900e+04        0
8.951900e+04 -8.590754e+04        0
       0        0        0

-6.041745e+05 6.088680e+04        0
6.088680e+04 -8.655609e+04        0
       0        0        0

-7.528619e+05 2.271886e+04        0
2.271886e+04 -8.741819e+04        0
       0        0        0

5.316658e+05 2.273795e+04        0
2.273795e+04 -9.136769e+04        0
       0        0        0

3.940921e+05 6.092663e+04        0
6.092663e+04 -9.044910e+04        0
       0        0        0

2.563184e+05 8.956035e+04        0
8.956035e+04 -8.975416e+04        0
       0        0        0

1.183407e+05 1.086427e+05        0
1.086427e+05 -8.928591e+04        0
       0        0        0

-1.984304e+04 1.181771e+05        0
1.181771e+05 -8.904673e+04        0
       0        0        0

-1.582329e+05 1.181665e+05        0
1.181665e+05 -8.903797e+04        0
       0        0        0

-2.968278e+05 1.086135e+05        0
1.086135e+05 -8.925978e+04        0
       0        0        0

-4.356257e+05 8.952026e+04        0
8.952026e+04 -8.971126e+04        0
       0        0        0

-5.746240e+05 6.088854e+04        0
6.088854e+04 -9.039032e+04        0
       0        0        0

-7.138200e+05 2.271989e+04        0
2.271989e+04 -9.129325e+04        0
       0        0        0

4.849900e+05 2.273796e+04        0
2.273796e+04 -9.505616e+04        0
       0        0        0

3.570143e+05 6.092577e+04        0
6.092577e+04 -9.410011e+04        0
       0        0        0

2.288244e+05 8.955862e+04        0
8.955862e+04 -9.337680e+04        0
       0        0        0

1.004164e+05 1.086409e+05        0
1.086409e+05 -9.288973e+04        0
       0        0        0

-2.821084e+04 1.181759e+05        0
1.181759e+05 -9.264170e+04        0
       0        0        0

-1.570570e+05 1.181660e+05        0
1.181660e+05 -9.263378e+04        0
       0        0        0

-2.861209e+05 1.086137e+05        0
1.086137e+05 -9.286554e+04        0
       0        0        0

-4.153999e+05 8.952130e+04        0
8.952130e+04 -9.333582e+04        0
       0        0        0

-5.448908e+05 6.089031e+04        0
6.089031e+04 -9.404299e+04        0
       0        0        0

-6.745908e+05 2.272114e+04        0
2.272114e+04 -9.498387e+04        0
       0        0        0

4.385165e+05 2.273798e+04        0
2.273798e+04 -9.854412e+04        0
       0        0        0

3.201365e+05 6.092413e+04        0
6.092413e+04 -9.755241e+04        0
       0        0        0

2.015270e+05 8.955604e+04        0
8.955604e+04 -9.680154e+04        0
       0        0        0

8.268605e+04 1.086393e+05        0
1.086393e+05 -9.629692e+04        0
       0        0        0

-3.638570e+04 1.181760e+05        0
1.181760e+05 -9.604233e+04        0
       0        0        0

-1.556878e+05 1.181669e+05        0
1.181669e+05 -9.603768e+04        0
       0        0        0

-2.752197e+05 1.086142e+05        0
1.086142e+05 -9.628030e+04        0
       0        0        0

-3.949789e+05 8.952148e+04        0
8.952148e+04 -9.676788e+04        0
       0        0        0

-5.149601e+05 6.089129e+04        0
6.089129e+04 -9.749979e+04        0
       0        0        0

-6.351590e+05 2.272241e+04        0
2.272241e+04 -9.847493e+04        0
       0        0        0

3.922608e+05 2.273705e+04        0
2.273705e+04 -1.018168e+05        0
       0        0        0

2.834737e+05 6.091918e+04        0
6.091918e+04 -1.007892e+05        0
       0        0        0

1.744389e+05 8.955103e+04        0
8.955103e+04 -1.000095e+05        0
       0        0        0

6.516112e+04 1.086394e+05        0
1.086394e+05 -9.948864e+04        0
       0        0        0

-4.435479e+04 1.181814e+05        0
1.181814e+05 -9.923256e+04        0
       0        0        0

-1.541098e+05 1.181730e+05        0
1.181730e+05 -9.923756e+04        0
       0        0        0

-2.641076e+05 1.086162e+05        0
1.086162e+05 -9.949471e+04        0
       0        0        0

-3.743470e+05 8.951924e+04        0
8.951924e+04 -9.999807e+04        0
       0        0        0

-4.848186e+05 6.088897e+04        0
6.088897e+04 -1.007491e+05        0
       0        0        0

-5.955116e+05 2.272272e+04        0
2.272272e+04 -1.017526e+05        0
       0        0        0

3.462408e+05 2.273213e+04        0
2.273213e+04 -1.048596e+05        0
       0        0        0

2.470402e+05 6.090435e+04        0
6.090435e+04 -1.037913e+05        0
       0        0        0

1.475679e+05 8.953998e+04        0
8.953998e+04 -1.029768e+05        0
       0        0        0

4.784706e+04 1.086446e+05        0
1.086446e+05 -1.024414e+05        0
       0        0        0

-5.210859e+04 1.182015e+05        0
1.182015e+05 -1.021950e+05        0
       0        0        0

-1.523066e+05 1.181938e+05        0
1.181938e+05 -1.022248e+05        0
       0        0        0

-2.527641e+05 1.086235e+05        0
1.086235e+05 -1.025064e+05        0
       0        0        0

-3.534861e+05 8.951095e+04        0
8.951095e+04 -1.030243e+05        0
       0        0        0

-4.544544e+05 6.087677e+04        0
6.087677e+04 -1.037842e+05        0
       0        0        0

-5.556397e+05 2.271905e+04        0
2.271905e+04 -1.048050e+05        0
       0        0        0

3.004822e+05 2.271539e+04        0
2.271539e+04 -1.076574e+05        0
       0        0        0

2.108493e+05 6.086437e+04        0
6.086437e+04 -1.065333e+05        0
       0        0        0

1.209111e+05 8.951546e+04        0
8.951546e+04 -1.056691e+05        0
       0        0        0

3.073692e+04 1.086641e+05        0
1.086641e+05 -1.051219e+05        0
       0        0        0

-5.964355e+04 1.182578e+05        0
1.182578e+05 -1.049091e+05        0
       0        0        0

-1.502580e+05 1.182508e+05        0
1.182508e+05 -1.049962e+05        0
       0        0        0

-2.411586e+05 1.086450e+05        0
1.086450e+05 -1.053249e+05        0
       0        0        0

-3.323700e+05 8.948920e+04        0
8.948920e+04 -1.058577e+05        0
       0        0        0

-4.238570e+05 6.083943e+04        0
6.083943e+04 -1.066065e+05        0
       0        0        0

-5.155448e+05 2.270357e+04        0
2.270357e+04 -1.076228e+05        0
       0        0        0

2.550302e+05 2.266861e+04        0
2.266861e+04 -1.101928e+05        0
       0        0        0

1.749112e+05 6.076689e+04        0
6.076689e+04 -1.089786e+05        0
       0        0        0

9.444394e+04 8.946363e+04        0
8.946363e+04 -1.080332e+05        0
       0        0        0

1.379929e+04 1.087177e+05        0
1.087177e+05 -1.074804e+05        0
       0        0        0

-6.696699e+04 1.183950e+05        0
1.183950e+05 -1.073481e+05        0
       0        0        0

-1.479345e+05 1.183887e+05        0
1.183887e+05 -1.075565e+05        0
       0        0        0

-2.292386e+05 1.087005e+05        0
1.087005e+05 -1.079789e+05        0
       0        0        0

-3.109536e+05 8.944014e+04        0
8.944014e+04 -1.085307e+05        0
       0        0        0

-3.930164e+05 6.074460e+04        0
6.074460e+04 -1.092323e+05        0
       0        0        0

-4.752498e+05 2.265805e+04        0
2.265805e+04 -1.102010e+05        0
       0        0        0

2.099707e+05 2.255312e+04        0
2.255312e+04 -1.124452e+05        0
       0        0        0

1.392276e+05 6.054966e+04        0
6.054966e+04 -1.110720e+05        0
       0        0        0

6.809783e+04 8.936201e+04        0
8.936201e+04 -1.099896e+05        0
       0        0        0

-3.042201e+03 1.088455e+05        0
1.088455e+05 -1.094456e+05        0
       0        0        0

-7.410476e+04 1.186961e+05        0
1.186961e+05 -1.094775e+05        0
       0        0        0

-1.452897e+05 1.186906e+05        0
1.186906e+05 -1.099193e+05        0
       0        0        0

-2.169085e+05 1.088304e+05        0
1.088304e+05 -1.105207e+05        0
       0        0        0

-2.891518e+05 8.934130e+04        0
8.934130e+04 -1.111065e+05        0
       0        0        0

-3.619182e+05 6.053005e+04        0
6.053005e+04 -1.117009e+05        0
       0        0        0

-4.348222e+05 2.254384e+04        0
2.254384e+04 -1.125421e+05        0
       0        0        0

1.654676e+05 2.229389e+04        0
2.229389e+04 -1.143894e+05        0
       0        0        0

1.037757e+05 6.010633e+04        0
6.010633e+04 -1.127378e+05        0
       0        0        0

4.172434e+04 8.918285e+04        0
8.918285e+04 -1.114369e+05        0
       0        0        0

-1.993674e+04 1.091211e+05        0
1.091211e+05 -1.109352e+05        0
       0        0        0

-8.111029e+04 1.192969e+05        0
1.192969e+05 -1.112604e+05        0
       0        0        0

-1.422485e+05 1.192922e+05        0
1.192922e+05 -1.121001e+05        0
       0        0        0

-2.040019e+05 1.091080e+05        0
1.091080e+05 -1.130150e+05        0
       0        0        0

-2.668047e+05 8.916493e+04        0
8.916493e+04 -1.136749e+05        0
       0        0        0

-3.305323e+05 6.008944e+04        0
6.008944e+04 -1.140806e+05        0
       0        0        0

-3.944153e+05 2.228592e+04        0
2.228592e+04 -1.146607e+05        0
       0        0        0

1.218143e+05 2.175987e+04        0
2.175987e+04 -1.160001e+05        0
       0        0        0

6.846991e+04 5.928775e+04        0
5.928775e+04 -1.139016e+05        0
       0        0        0

1.504776e+04 8.891653e+04        0
8.891653e+04 -1.123083e+05        0
       0        0        0

-3.712658e+04 1.096611e+05        0
1.096611e+05 -1.119237e+05        0
       0        0        0

-8.806576e+04 1.203706e+05        0
1.203706e+05 -1.126850e+05        0
       0        0        0

-1.387020e+05 1.203666e+05        0
1.203666e+05 -1.140839e+05        0
       0        0        0

-1.902583e+05 1.096500e+05        0
1.096500e+05 -1.154691e+05        0
       0        0        0

-2.436324e+05 8.890144e+04        0
8.890144e+04 -1.162985e+05        0
       0        0        0

-2.987810e+05 5.927361e+04        0
5.927361e+04 -1.164537e+05        0
       0        0        0

-3.543298e+05 2.175326e+04        0
2.175326e+04 -1.165894e+05        0
       0        0        0

7.947515e+04 2.075678e+04        0
2.075678e+04 -1.172821e+05        0
       0        0        0

3.307865e+04 5.797447e+04        0
5.797447e+04 -1.145899e+05        0
       0        0        0

-1.236393e+04 8.865059e+04        0
8.865059e+04 -1.127886e+05        0
       0        0        0

-5.490063e+04 1.106013e+05        0
1.106013e+05 -1.126577e+05        0
       0        0        0

-9.504947e+04 1.220074e+05        0
1.220074e+05 -1.138552e+05        0
       0        0        0

-1.345317e+05 1.220041e+05        0
1.220041e+05 -1.157267e+05        0
       0        0        0

-1.753639e+05 1.105923e+05        0
1.105923e+05 -1.176118e+05        0
       0        0        0

-2.192067e+05 8.863840e+04        0
8.863840e+04 -1.187962e+05        0
       0        0        0

-2.664683e+05 5.796312e+04        0
5.796312e+04 -1.188293e+05        0
       0        0        0

-3.150782e+05 2.075156e+04        0
2.075156e+04 -1.183719e+05        0
       0        0        0

3.901604e+04 1.910250e+04        0
1.910250e+04 -1.183311e+05        0
       0        0        0

-2.945801e+03 5.638064e+04        0
5.638064e+04 -1.153385e+05        0
       0        0        0

-4.097162e+04 8.874194e+04        0
8.874194e+04 -1.139163e+05        0
       0        0        0

-7.334316e+04 1.119428e+05        0
1.119428e+05 -1.141993e+05        0
       0        0        0

-1.020044e+05 1.238170e+05        0
1.238170e+05 -1.151847e+05        0
       0        0        0

-1.297257e+05 1.238146e+05        0
1.238146e+05 -1.165458e+05        0
       0        0        0

-1.591896e+05 1.119363e+05        0
1.119363e+05 -1.183359e+05        0
       0        0        0

-1.930733e+05 8.873286e+04        0
8.873286e+04 -1.201362e+05        0
       0        0        0

-2.331278e+05 5.637209e+04        0
5.637209e+04 -1.207525e+05        0
       0        0        0

-2.773664e+05 1.909865e+04        0
1.909865e+04 -1.200521e+05        0
       0        0        0

5.231885e+02 1.710271e+04        0
1.710271e+04 -1.199683e+05        0
       0        0        0

-4.055900e+04 5.592265e+04        0
5.592265e+04 -1.183223e+05        0
       0        0        0

-7.064224e+04 9.001307e+04        0
9.001307e+04 -1.192608e+05        0
       0        0        0

-9.160225e+04 1.128998e+05        0
1.128998e+05 -1.193451e+05        0
       0        0        0

-1.084793e+05 1.240404e+05        0
1.240404e+05 -1.176209e+05        0
       0        0        0

-1.246149e+05 1.240392e+05        0
1.240392e+05 -1.154734e+05        0
       0        0        0

-1.424954e+05 1.128964e+05        0
1.128964e+05 -1.147534e+05        0
       0        0        0

-1.653497e+05 9.000769e+04        0
9.000769e+04 -1.167341e+05        0
       0        0        0

-1.979384e+05 5.591692e+04        0
5.591692e+04 -1.201833e+05        0
       0        0        0

-2.416132e+05 1.710010e+04        0
1.710010e+04 -1.211410e+05        0
       0        0        0

-3.838756e+04 1.780089e+04        0
1.780089e+04 -1.241547e+05        0
       0        0        0

-8.056431e+04 6.133461e+04        0
6.133461e+04 -1.329179e+05        0
       0        0        0

-9.823377e+04 9.241439e+04        0
9.241439e+04 -1.376493e+05        0
       0        0        0

-1.069299e+05 1.101518e+05        0
1.101518e+05 -1.330247e+05        0
       0        0        0

-1.134903e+05 1.182691e+05        0
1.182691e+05 -1.226657e+05        0
       0        0        0

-1.199857e+05 1.182695e+05        0
1.182695e+05 -1.108102e+05        0
       0        0        0

-1.278480e+05 1.101525e+05        0
1.101525e+05 -1.017531e+05        0
       0        0        0

-1.390687e+05 9.241419e+04        0
9.241419e+04 -9.965328e+04        0
       0        0        0

-1.602170e+05 6.133242e+04        0
6.133242e+04 -1.078653e+05        0
       0        0        0

-2.060740e+05 1.779909e+04        0
1.779909e+04 -1.203165e+05        0
       0        0        0

-9.041227e+04 4.054631e+04        0
4.054631e+04 -1.562833e+05        0
       0        0        0

-1.138421e+05 7.593486e+04        0
7.593486e+04 -1.858539e+05        0
       0        0        0

-1.150718e+05 8.920336e+04        0
8.920336e+04 -1.817339e+05        0
       0        0        0

-1.153875e+05 9.571255e+04        0
9.571255e+04 -1.608397e+05        0
       0        0        0

-1.157489e+05 9.856239e+04        0
9.856239e+04 -1.317915e+05        0
       0        0        0

-1.168366e+05 9.856429e+04        0
9.856429e+04 -1.007937e+05        0
       0        0        0

-1.188659e+05 9.571771e+04        0
9.571771e+04 -7.341100e+04        0
       0        0        0

-1.225609e+05 8.921016e+04        0
8.921016e+04 -5.589328e+04        0
       0        0        0

-1.289065e+05 7.594047e+04        0
7.594047e+04 -5.688864e+04        0
       0        0        0

-1.586523e+05 4.054609e+04        0
4.054609e+04 -9.278138e+04        0
       0        0        0

POINT_DATA     451
VECTORS DISPLACEMENT_8.400000e-01 double
0.000000e+00    0.000000e+00    0.000000e+00
0.000000e+00    0.000000e+00    0.000000e+00
0.000000e+00    0.000000e+00    0.000000e+00
0.000000e+00    0.000000e+00    0.000000e+00
0.000000e+00    0.000000e+00    0.000000e+00
0.000000e+00    0.000000e+00    0.000000e+00
0.000000e+00    0.000000e+00    0.000000e+00
0.000000e+00    0.000000e+00    0.000000e+00
0.000000e+00    0.000000e+00    0.000000e+00
0.000000e+00    0.000000e+00    0.000000e+00
0.000000e+00    0.000000e+00    0.000000e+00
-1.141595e-06    -8.299605e-07    0.000000e+00
-7.233448e-07    -4.163094e-07    0.000000e+00
-5.161144e-07    -2.157261e-07    0.000000e+00
-3.332233e-07    -1.068318e-07    0.000000e+00
-1.642863e-07    -5.047426e-08    0.000000e+00
-3.658650e-20    -3.295145e-08    0.000000e+00
1.642863e-07    -5.047426e-08    0.000000e+00
3.332233e-07    -1.068318e-07    0.000000e+00
5.161144e-07    -2.157261e-07    0.000000e+00
7.233448e-07    -4.163094e-07    0.000000e+00
1.141595e-06    -8.299605e-07    0.000000e+00
-2.153941e-06    -1.380309e-06    0.000000e+00
-1.574436e-06    -9.987668e-07    0.000000e+00
-1.105093e-06    -7.015532e-07    0.000000e+00
-7.128292e-07    -5.177059e-07    0.000000e+00
-3.501023e-07    -4.175298e-07    0.000000e+00
-7.732402e-20    -3.857102e-07    0.000000e+00
3.501023e-07    -4.175298e-07    0.000000e+00
7.128292e-07    -5.177059e-07    0.000000e+00
1.105093e-06    -7.015532e-07    0.000000e+00
1.574436e-06    -9.987668e-07    0.000000e+00
2.153941e-06    -1.380309e-06    0.000000e+00
-3.132427e-06    -2.064634e-06    0.000000e+00
-2.394168e-06    -1.682257e-06    0.000000e+00
-1.722702e-06    -1.380761e-06    0.000000e+00
-1.115240e-06    -1.168096e-06    0.000000e+00
-5.487489e-07    -1.045521e-06    0.000000e+00
-1.219661e-19    -1.005593e-06    0.000000e+00
5.487489e-07    -1.045521e-06    0.000000e+00
1.115240e-06    -1.168096e-06    0.000000e+00
1.722702e-06    -1.380761e-06    0.000000e+00
2.394168e-06    -1.682257e-06    0.000000e+00
3.132427e-06    -2.064634e-06    0.000000e+00
-4.100076e-06    -2.909172e-06    0.000000e+00
-3.186876e-06    -2.535522e-06    0.000000e+00
-2.326958e-06    -2.239053e-06    0.000000e+00
-1.519408e-06    -2.025105e-06    0.000000e+00
-7.500557e-07    -1.896684e-06    0.000000e+00
-1.683478e-19    -1.854101e-06    0.000000e+00
7.500557e-07    -1.896684e-06    0.000000e+00
1.519408e-06    -2.025105e-06    0.000000e+00
2.326958e-06    -2.239053e-06    0.000000e+00
3.186876e-06    -2.535522e-06    0.000000e+00
4.100076e-06    -2.909172e-06    0.000000e+00
-5.051341e-06    -3.936654e-06    0.000000e+00
-3.956477e-06    -3.571725e-06    0.000000e+00
-2.911986e-06    -3.284208e-06    0.000000e+00
-1.912865e-06    -3.075889e-06    0.000000e+00
-9.475500e-07    -2.949778e-06    0.000000e+00
-2.159140e-19    -2.907564e-06    0.000000e+00
9.475500e-07    -2.949778e-06    0.000000e+00
1.912865e-06    -3.075889e-06    0.000000e+00
2.911986e-06    -3.284208e-06    0.000000e+00
3.956477e-06    -3.571725e-06    0.000000e+00
5.051341e-06    -3.936654e-06    0.000000e+00
-5.981873e-06    -5.149742e-06    0.000000e+00
-4.704513e-06    -4.794468e-06    0.000000e+00
-3.477740e-06    -4.516043e-06    0.000000e+00
-2.292922e-06    -4.315096e-06    0.000000e+00
-1.138484e-06    -4.193469e-06    0.000000e+00
-2.648301e-19    -4.152740e-06    0.000000e+00
1.138484e-06    -4.193469e-06    0.000000e+00
2.292922e-06    -4.315096e-06    0.000000e+00
3.477740e-06    -4.516043e-06    0.000000e+00
4.704513e-06    -4.794468e-06    0.000000e+00
5.981873e-06    -5.149742e-06    0.000000e+00
-6.888558e-06    -6.546376e-06    0.000000e+00
-5.431254e-06    -6.201154e-06    0.000000e+00
-4.025294e-06    -5.931590e-06    0.000000e+00
-2.659769e-06    -5.737829e-06    0.000000e+00
-1.322562e-06    -5.620886e-06    0.000000e+00
-3.105699e-19    -5.581769e-06    0.000000e+00
1.322562e-06    -5.620886e-06    0.000000e+00
2.659769e-06    -5.737829e-06    0.000000e+00
4.025294e-06    -5.931590e-06    0.000000e+00
5.431254e-06    -6.201154e-06    0.000000e+00
6.888558e-06    -6.546376e-06    0.000000e+00
-7.769676e-06    -8.122139e-06    0.000000e+00
-6.136609e-06    -7.787205e-06    0.000000e+00
-4.555509e-06    -7.526210e-06    0.000000e+00
-3.014226e-06    -7.339157e-06    0.000000e+00
-1.500173e-06    -7.226543e-06    0.000000e+00
-3.554891e-19    -7.188927e-06    0.000000e+00
1.500173e-06    -7.226543e-06    0.000000e+00
3.014226e-06    -7.339157e-06    0.000000e+00
4.555509e-06    -7.526210e-06    0.000000e+00
6.136609e-06    -7.787205e-06    0.000000e+00
7.769676e-06    -8.122139e-06    0.000000e+00
-8.624338e-06    -9.871838e-06    0.000000e+00
-6.820449e-06    -9.547301e-06    0.000000e+00
-5.068913e-06    -9.294676e-06    0.000000e+00
-3.356973e-06    -9.113935e-06    0.000000e+00
-1.671744e-06    -9.005300e-06    0.000000e+00
-4.017848e-19    -8.969049e-06    0.000000e+00
1.671744e-06    -9.005300e-06    0.000000e+00
3.356973e-06    -9.113935e-06    0.000000e+00
5.068913e-06    -9.294676e-06    0.000000e+00
6.820449e-06    -9.547301e-06    0.000000e+00
8.624338e-06    -9.871838e-06    0.000000e+00
-9.452128e-06    -1.179002e-05    0.000000e+00
-7.482678e-06    -1.147593e-05    0.000000e+00
-5.565791e-06    -1.123156e-05    0.000000e+00
-3.688437e-06    -1.105688e-05    0.000000e+00
-1.837569e-06    -1.095199e-05    0.000000e+00
-4.476040e-19    -1.091701e-05    0.000000e+00
1.837569e-06    -1.095199e-05    0.000000e+00
3.688437e-06    -1.105688e-05    0.000000e+00
5.565791e-06    -1.123156e-05    0.000000e+00
7.482678e-06    -1.147593e-05    0.000000e+00
9.452128e-06    -1.179002e-05    0.000000e+00
-1.025287e-05    -1.387120e-05    0.000000e+00
-8.123242e-06    -1.356758e-05    0.000000e+00
-6.046283e-06    -1.333140e-05    0.000000e+00
-4.008850e-06    -1.316265e-05    0.000000e+00
-1.997814e-06    -1.306137e-05    0.000000e+00
-4.867263e-19    -1.302760e-05    0.000000e+00
1.997814e-06    -1.306137e-05    0.000000e+00
4.008850e-06    -1.316265e-05    0.000000e+00
6.046283e-06    -1.333140e-05    0.000000e+00
8.123242e-06    -1.356758e-05    0.000000e+00
1.025287e-05    -1.387120e-05    0.000000e+00
-1.102648e-05    -1.610989e-05    0.000000e+00
-8.742113e-06    -1.581673e-05    0.000000e+00
-6.510452e-06    -1.558871e-05    0.000000e+00
-4.318325e-06    -1.542583e-05    0.000000e+00
-2.152566e-06    -1.532809e-05    0.000000e+00
-5.273309e-19    -1.529550e-05    0.000000e+00
2.152566e-06    -1.532809e-05    0.000000e+00
4.318325e-06    -1.542583e-05    0.000000e+00
6.510452e-06    -1.558871e-05    0.000000e+00
8.742113e-06    -1.581673e-05    0.000000e+00
1.102648e-05    -1.610989e-05    0.000000e+00
-1.177296e-05    -1.850062e-05    0.000000e+00
-9.339276e-06    -1.821793e-05    0.000000e+00
-6.958324e-06    -1.799806e-05    0.000000e+00
-4.616914e-06    -1.784101e-05    0.000000e+00
-2.301865e-06    -1.774678e-05    0.000000e+00
-5.714825e-19    -1.771537e-05    0.000000e+00
2.301865e-06    -1.774678e-05    0.000000e+00
4.616914e-06    -1.784101e-05    0.000000e+00
6.958324e-06    -1.799806e-05    0.000000e+00
9.339276e-06    -1.821793e-05    0.000000e+00
1.177296e-05    -1.850062e-05    0.000000e+00
-1.249228e-05    -2.103794e-05    0.000000e+00
-9.914727e-06    -2.076572e-05    0.000000e+00
-7.389909e-06    -2.055400e-05    0.000000e+00
-4.904637e-06    -2.040277e-05    0.000000e+00
-2.445728e-06    -2.031204e-05    0.000000e+00
-6.016052e-19    -2.028179e-05    0.000000e+00
2.445728e-06    -2.031204e-05    0.000000e+00
4.904637e-06    -2.040277e-05    0.000000e+00
7.389909e-06    -2.055400e-05    0.000000e+00
9.914727e-06    -2.076572e-05    0.000000e+00
1.249228e-05    -2.103794e-05    0.000000e+00
-1.318446e-05    -2.371642e-05    0.000000e+00
-1.046846e-05    -2.345467e-05    0.000000e+00
-7.805208e-06    -2.325109e-05    0.000000e+00
-5.181501e-06    -2.310568e-05    0.000000e+00
-2.584160e-06    -2.301844e-05    0.000000e+00
-6.274397e-19    -2.298935e-05    0.000000e+00
2.584160e-06    -2.301844e-05    0.000000e+00
5.181501e-06    -2.310568e-05    0.000000e+00
7.805208e-06    -2.325109e-05    0.000000e+00
1.046846e-05    -2.345467e-05    0.000000e+00
1.318446e-05    -2.371642e-05    0.000000e+00
-1.384949e-05    -2.653062e-05    0.000000e+00
-1.100049e-05    -2.627934e-05    0.000000e+00
-8.204222e-06    -2.608391e-05    0.000000e+00
-5.447509e-06    -2.594431e-05    0.000000e+00
-2.717163e-06    -2.586055e-05    0.000000e+00
-6.482978e-19    -2.583264e-05    0.000000e+00
2.717163e-06    -2.586055e-05    0.000000e+00
5.447509e-06    -2.594431e-05    0.000000e+00
8.204222e-06    -2.608391e-05    0.000000e+00
1.100049e-05    -2.627934e-05    0.000000e+00
1.384949e-05    -2.653062e-05    0.000000e+00
-1.448737e-05    -2.947511e-05    0.000000e+00
-1.151079e-05    -2.923430e-05    0.000000e+00
-8.586950e-06    -2.904701e-05    0.000000e+00
-5.702661e-06    -2.891323e-05    0.000000e+00
-2.844739e-06    -2.883296e-05    0.000000e+00
-6.521095e-19    -2.880621e-05    0.000000e+00
2.844739e-06    -2.883296e-05    0.000000e+00
5.702661e-06    -2.891323e-05    0.000000e+00
8.586950e-06    -2.904701e-05    0.000000e+00
1.151079e-05    -2.923430e-05    0.000000e+00
1.448737e-05    -2.947511e-05    0.000000e+00
-1.509811e-05    -3.254446e-05    0.000000e+00
-1.199938e-05    -3.231413e-05    0.000000e+00
-8.953392e-06    -3.213498e-05    0.000000e+00
-5.946955e-06    -3.200701e-05    0.000000e+00
-2.966886e-06    -3.193024e-05    0.000000e+00
-6.677796e-19    -3.190464e-05    0.000000e+00
2.966886e-06    -3.193024e-05    0.000000e+00
5.946955e-06    -3.200701e-05    0.000000e+00
8.953392e-06    -3.213498e-05    0.000000e+00
1.199938e-05    -3.231413e-05    0.000000e+00
1.509811e-05    -3.254446e-05    0.000000e+00
-1.568170e-05    -3.573325e-05    0.000000e+00
-1.246626e-05    -3.551338e-05    0.000000e+00
-9.303549e-06    -3.534238e-05    0.000000e+00
-6.180392e-06    -3.522023e-05    0.000000e+00
-3.083604e-06    -3.514694e-05    0.000000e+00
-6.928730e-19    -3.512251e-05    0.000000e+00
3.083604e-06    -3.514694e-05    0.000000e+00
6.180392e-06    -3.522023e-05    0.000000e+00
9.303549e-06    -3.534238e-05    0.000000e+00
1.246626e-05    -3.551338e-05    0.000000e+00
1.568170e-05    -3.573325e-05    0.000000e+00
-1.623815e-05    -3.903604e-05    0.000000e+00
-1.291142e-05    -3.882665e-05    0.000000e+00
-9.637419e-06    -3.866378e-05    0.000000e+00
-6.402972e-06    -3.854745e-05    0.000000e+00
-3.194894e-06    -3.847765e-05    0.000000e+00
-7.407303e-19    -3.845439e-05    0.000000e+00
3.194894e-06    -3.847765e-05    0.000000e+00
6.402972e-06    -3.854745e-05    0.000000e+00
9.637419e-06    -3.866378e-05    0.000000e+00
1.291142e-05    -3.882665e-05    0.000000e+00
1.623815e-05    -3.903604e-05    0.000000e+00
-1.676746e-05    -4.244741e-05    0.000000e+00
-1.333486e-05    -4.224848e-05    0.000000e+00
-9.955003e-06    -4.209376e-05    0.000000e+00
-6.614695e-06    -4.198325e-05    0.000000e+00
-3.300755e-06    -4.191694e-05    0.000000e+00
-8.057401e-19    -4.189484e-05    0.000000e+00
3.300755e-06    -4.191694e-05    0.000000e+00
6.614695e-06    -4.198325e-05    0.000000e+00
9.955003e-06    -4.209376e-05    0.000000e+00
1.333486e-05    -4.224848e-05    0.000000e+00
1.676746e-05    -4.244741e-05    0.000000e+00
-1.726962e-05    -4.596192e-05    0.000000e+00
-1.373659e-05    -4.577347e-05    0.000000e+00
-1.025630e-05    -4.562689e-05    0.000000e+00
-6.815560e-06    -4.552219e-05    0.000000e+00
-3.401188e-06    -4.545937e-05    0.000000e+00
-8.565621e-19    -4.543843e-05    0.000000e+00
3.401188e-06    -4.545937e-05    0.000000e+00
6.815560e-06    -4.552219e-05    0.000000e+00
1.025630e-05    -4.562689e-05    0.000000e+00
1.373659e-05    -4.577347e-05    0.000000e+00
1.726962e-05    -4.596192e-05    0.000000e+00
-1.774464e-05    -4.957415e-05    0.000000e+00
-1.411661e-05    -4.939617e-05    0.000000e+00
-1.054131e-05    -4.925773e-05    0.000000e+00
-7.005568e-06    -4.915885e-05    0.000000e+00
-3.496192e-06    -4.909952e-05    0.000000e+00
-8.965844e-19    -4.907975e-05    0.000000e+00
3.496192e-06    -4.909952e-05    0.000000e+00
7.005568e-06    -4.915885e-05    0.000000e+00
1.054131e-05    -4.925773e-05    0.000000e+00
1.411661e-05    -4.939617e-05    0.000000e+00
1.774464e-05    -4.957415e-05    0.000000e+00
-1.819252e-05    -5.327868e-05    0.000000e+00
-1.447491e-05    -5.311116e-05    0.000000e+00
-1.081004e-05    -5.298087e-05    0.000000e+00
-7.184718e-06    -5.288780e-05    0.000000e+00
-3.585767e-06    -5.283196e-05    0.000000e+00
-9.455005e-19    -5.281335e-05    0.000000e+00
3.585767e-06    -5.283196e-05    0.000000e+00
7.184718e-06    -5.288780e-05    0.000000e+00
1.081004e-05    -5.298087e-05    0.000000e+00
1.447491e-05    -5.311116e-05    0.000000e+00
1.819252e-05    -5.327868e-05    0.000000e+00
-1.861325e-05    -5.707006e-05    0.000000e+00
-1.481149e-05    -5.691301e-05    0.000000e+00
-1.106248e-05    -5.679086e-05    0.000000e+00
-7.353011e-06    -5.670361e-05    0.000000e+00
-3.669914e-06    -5.665126e-05    0.000000e+00
-9.662528e-19    -5.663381e-05    0.000000e+00
3.669914e-06    -5.665126e-05    0.000000e+00
7.353011e-06    -5.670361e-05    0.000000e+00
1.106248e-05    -5.679086e-05    0.000000e+00
1.481149e-05    -5.691301e-05    0.000000e+00
1.861325e-05    -5.707006e-05    0.000000e+00
-1.900683e-05    -6.094287e-05    0.000000e+00
-1.512636e-05    -6.079629e-05    0.000000e+00
-1.129863e-05    -6.068229e-05    0.000000e+00
-7.510448e-06    -6.060086e-05    0.000000e+00
-3.748633e-06    -6.055200e-05    0.000000e+00
-9.897580e-19    -6.053571e-05    0.000000e+00
3.748633e-06    -6.055200e-05    0.000000e+00
7.510448e-06    -6.060086e-05    0.000000e+00
1.129863e-05    -6.068229e-05    0.000000e+00
1.512636e-05    -6.079629e-05    0.000000e+00
1.900683e-05    -6.094287e-05    0.000000e+00
-1.937327e-05    -6.489169e-05    0.000000e+00
-1.541952e-05    -6.475558e-05    0.000000e+00
-1.151850e-05    -6.464972e-05    0.000000e+00
-7.657028e-06    -6.457410e-05    0.000000e+00
-3.821923e-06    -6.452873e-05    0.000000e+00
-1.002887e-18    -6.451361e-05    0.000000e+00
3.821923e-06    -6.452873e-05    0.000000e+00
7.657028e-06    -6.457410e-05    0.000000e+00
1.151850e-05    -6.464972e-05    0.000000e+00
1.541952e-05    -6.475558e-05    0.000000e+00
1.937327e-05    -6.489169e-05    0.000000e+00
-1.971256e-05    -6.891107e-05    0.000000e+00
-1.569095e-05    -6.878544e-05    0.000000e+00
-1.172208e-05    -6.868772e-05    0.000000e+00
-7.792750e-06    -6.861792e-05    0.000000e+00
-3.889784e-06    -6.857604e-05    0.000000e+00
-9.865816e-19    -6.856208e-05    0.000000e+00
3.889784e-06    -6.857604e-05    0.000000e+00
7.792750e-06    -6.861792e-05    0.000000e+00
1.172208e-05    -6.868772e-05    0.000000e+00
1.569095e-05    -6.878544e-05    0.000000e+00
1.971256e-05    -6.891107e-05    0.000000e+00
-2.002471e-05    -7.299559e-05    0.000000e+00
-1.594068e-05    -7.288043e-05    0.000000e+00
-1.190938e-05    -7.279086e-05    0.000000e+00
-7.917611e-06    -7.272688e-05    0.000000e+00
-3.952212e-06    -7.268851e-05    0.000000e+00
-9.853111e-19    -7.267572e-05    0.000000e+00
3.952212e-06    -7.268851e-05    0.000000e+00
7.917611e-06    -7.272688e-05    0.000000e+00
1.190938e-05    -7.279086e-05    0.000000e+00
1.594068e-05    -7.288043e-05    0.000000e+00
2.002471e-05    -7.299559e-05    0.000000e+00
-2.030971e-05    -7.713981e-05    0.000000e+00
-1.616869e-05    -7.703511e-05    0.000000e+00
-1.208038e-05    -7.695370e-05    0.000000e+00
-8.031599e-06    -7.689557e-05    0.000000e+00
-4.009198e-06    -7.686071e-05    0.000000e+00
-1.020251e-18    -7.684909e-05    0.000000e+00
4.009198e-06    -7.686071e-05    0.000000e+00
8.031599e-06    -7.689557e-05    0.000000e+00
1.208038e-05    -7.695370e-05    0.000000e+00
1.616869e-05    -7.703511e-05    0.000000e+00
2.030971e-05    -7.713981e-05    0.000000e+00
-2.056757e-05    -8.133827e-05    0.000000e+00
-1.637501e-05    -8.124404e-05    0.000000e+00
-1.223508e-05    -8.117079e-05    0.000000e+00
-8.134685e-06    -8.111855e-05    0.000000e+00
-4.060719e-06    -8.108725e-05    0.000000e+00
-1.065567e-18    -8.107682e-05    0.000000e+00
4.060719e-06    -8.108725e-05    0.000000e+00
8.134685e-06    -8.111855e-05    0.000000e+00
1.223508e-05    -8.117079e-05    0.000000e+00
1.637501e-05    -8.124404e-05    0.000000e+00
2.056757e-05    -8.133827e-05    0.000000e+00
-2.079833e-05    -8.558550e-05    0.000000e+00
-1.655963e-05    -8.550173e-05    0.000000e+00
-1.237344e-05    -8.543669e-05    0.000000e+00
-8.226802e-06    -8.539041e-05    0.000000e+00
-4.106724e-06    -8.536275e-05    0.000000e+00
-1.151118e-18    -8.535356e-05    0.000000e+00
4.106724e-06    -8.536275e-05    0.000000e+00
8.226802e-06    -8.539041e-05    0.000000e+00
1.237344e-05    -8.543669e-05    0.000000e+00
1.655963e-05    -8.550173e-05    0.000000e+00
2.079833e-05    -8.558550e-05    0.000000e+00
-2.100210e-05    -8.987603e-05    0.000000e+00
-1.672261e-05    -8.980269e-05    0.000000e+00
-1.249537e-05    -8.974594e-05    0.000000e+00
-8.307807e-06    -8.970578e-05    0.000000e+00
-4.147107e-06    -8.968192e-05    0.000000e+00
-1.220151e-18    -8.967401e-05    0.000000e+00
4.147107e-06    -8.968192e-05    0.000000e+00
8.307807e-06    -8.970578e-05    0.000000e+00
1.249537e-05    -8.974594e-05    0.000000e+00
1.672261e-05    -8.980269e-05    0.000000e+00
2.100210e-05    -8.987603e-05    0.000000e+00
-2.117912e-05    -9.420439e-05    0.000000e+00
-1.686399e-05    -9.414142e-05    0.000000e+00
-1.260070e-05    -9.409307e-05    0.000000e+00
-8.377428e-06    -9.405931e-05    0.000000e+00
-4.181679e-06    -9.403948e-05    0.000000e+00
-1.254879e-18    -9.403296e-05    0.000000e+00
4.181679e-06    -9.403948e-05    0.000000e+00
8.377428e-06    -9.405931e-05    0.000000e+00
1.260070e-05    -9.409307e-05    0.000000e+00
1.686399e-05    -9.414142e-05    0.000000e+00
2.117912e-05    -9.420439e-05    0.000000e+00
-2.132994e-05    -9.856523e-05    0.000000e+00
-1.698387e-05    -9.851248e-05    0.000000e+00
-1.268909e-05    -9.847276e-05    0.000000e+00
-8.435205e-06    -9.844575e-05    0.000000e+00
-4.210141e-06    -9.843026e-05    0.000000e+00
-1.308242e-18    -9.842523e-05    0.000000e+00
4.210141e-06    -9.843026e-05    0.000000e+00
8.435205e-06    -9.844575e-05    0.000000e+00
1.268909e-05    -9.847276e-05    0.000000e+00
1.698387e-05    -9.851248e-05    0.000000e+00
2.132994e-05    -9.856523e-05    0.000000e+00
-2.145562e-05    -1.029537e-04    0.000000e+00
-1.708235e-05    -1.029109e-04    0.000000e+00
-1.275997e-05    -1.028800e-04    0.000000e+00
-8.480517e-06    -1.028600e-04    0.000000e+00
-4.232143e-06    -1.028489e-04    0.000000e+00
-1.356947e-18    -1.028454e-04    0.000000e+00
4.232143e-06    -1.028489e-04    0.000000e+00
8.480517e-06    -1.028600e-04    0.000000e+00
1.275997e-05    -1.028800e-04    0.000000e+00
1.708235e-05    -1.029109e-04    0.000000e+00
2.145562e-05    -1.029537e-04    0.000000e+00
-2.155817e-05    -1.073660e-04    0.000000e+00
-1.715935e-05    -1.073327e-04    0.000000e+00
-1.281258e-05    -1.073105e-04    0.000000e+00
-8.512904e-06    -1.072970e-04    0.000000e+00
-4.247579e-06    -1.072895e-04    0.000000e+00
-1.293419e-18    -1.072870e-04    0.000000e+00
4.247579e-06    -1.072895e-04    0.000000e+00
8.512904e-06    -1.072970e-04    0.000000e+00
1.281258e-05    -1.073105e-04    0.000000e+00
1.715935e-05    -1.073327e-04    0.000000e+00
2.155817e-05    -1.073660e-04    0.000000e+00
-2.164067e-05    -1.118022e-04    0.000000e+00
-1.721429e-05    -1.117772e-04    0.000000e+00
-1.284670e-05    -1.117621e-04    0.000000e+00
-8.533270e-06    -1.117511e-04    0.000000e+00
-4.257281e-06    -1.117436e-04    0.000000e+00
-1.204481e-18    -1.117409e-04    0.000000e+00
4.257281e-06    -1.117436e-04    0.000000e+00
8.533270e-06    -1.117511e-04    0.000000e+00
1.284670e-05    -1.117621e-04    0.000000e+00
1.721429e-05    -1.117772e-04    0.000000e+00
2.164067e-05    -1.118022e-04    0.000000e+00
-2.170513e-05    -1.162704e-04    0.000000e+00
-1.724615e-05    -1.162523e-04    0.000000e+00
-1.286626e-05    -1.162338e-04    0.000000e+00
-8.546206e-06    -1.162132e-04    0.000000e+00
-4.263865e-06    -1.161978e-04    0.000000e+00
-1.201516e-18    -1.161922e-04    0.000000e+00
4.263865e-06    -1.161978e-04    0.000000e+00
8.546206e-06    -1.162132e-04    0.000000e+00
1.286626e-05    -1.162338e-04    0.000000e+00
1.724615e-05    -1.162523e-04    0.000000e+00
2.170513e-05    -1.162704e-04    0.000000e+00
-2.173924e-05    -1.208105e-04    0.000000e+00
-1.726634e-05    -1.207758e-04    0.000000e+00
-1.288608e-05    -1.207173e-04    0.000000e+00
-8.561321e-06    -1.206645e-04    0.000000e+00
-4.272039e-06    -1.206293e-04    0.000000e+00
-1.200669e-18    -1.206170e-04    0.000000e+00
4.272039e-06    -1.206293e-04    0.000000e+00
8.561321e-06    -1.206645e-04    0.000000e+00
1.288608e-05    -1.207173e-04    0.000000e+00
1.726634e-05    -1.207758e-04    0.000000e+00
2.173924e-05    -1.208105e-04    0.000000e+00

CELL_DATA      400
TENSORS Element_Stress8.400000e-01 double
1.820598e+06 2.551812e+05        0
2.551812e+05 4.163488e+05        0
       0        0        0

1.243720e+06 1.308538e+05        0
1.308538e+05 3.566178e+05        0
       0        0        0

8.651185e+05 4.301032e+04        0
4.301032e+04 2.749959e+05        0
       0        0        0

5.100063e+05 -3.578363e+03        0
-3.578363e+03 1.690094e+05        0
       0        0        0

1.688541e+05 -2.488323e+04        0
-2.488323e+04 5.694968e+04        0
       0        0        0

-1.688184e+05 -2.487711e+04        0
-2.487711e+04 -5.695775e+04        0
       0        0        0

-5.095306e+05 -3.579112e+03        0
-3.579112e+03 -1.688447e+05        0
       0        0        0

-8.637077e+05 4.293851e+04        0
4.293851e+04 -2.744671e+05        0
       0        0        0

-1.240734e+06 1.305652e+05        0
1.305652e+05 -3.554740e+05        0
       0        0        0

-1.814375e+06 2.543707e+05        0
2.543707e+05 -4.141970e+05        0
       0        0        0

1.642070e+06 4.159748e+04        0
4.159748e+04 4.234799e+03        0
       0        0        0

1.322354e+06 1.206454e+05        0
1.206454e+05 1.286843e+05        0
       0        0        0

9.082521e+05 9.900755e+04        0
9.900755e+04 1.315191e+05        0
       0        0        0

5.364025e+05 7.580678e+04        0
7.580678e+04 9.193311e+04        0
       0        0        0

1.768172e+05 6.321707e+04        0
6.321707e+04 3.207757e+04        0
       0        0        0

-1.778550e+05 6.319873e+04        0
6.319873e+04 -3.316896e+04        0
       0        0        0

-5.369363e+05 7.574133e+04        0
7.574133e+04 -9.284490e+04        0
       0        0        0

-9.077061e+05 9.886737e+04        0
9.886737e+04 -1.320379e+05        0
       0        0        0

-1.319830e+06 1.204079e+05        0
1.204079e+05 -1.284324e+05        0
       0        0        0

-1.637466e+06 4.151082e+04        0
4.151082e+04 -3.136555e+03        0
       0        0        0

1.584953e+06 1.541639e+04        0
1.541639e+04 6.615316e+03        0
       0        0        0

1.271591e+06 6.833109e+04        0
6.833109e+04 1.757728e+04        0
       0        0        0

9.146413e+05 1.015639e+05        0
1.015639e+05 4.237686e+04        0
       0        0        0

5.430826e+05 1.074765e+05        0
1.074765e+05 3.592346e+04        0
       0        0        0

1.791459e+05 1.074054e+05        0
1.074054e+05 1.272037e+04        0
       0        0        0

-1.824790e+05 1.073775e+05        0
1.073775e+05 -1.611190e+04        0
       0        0        0

-5.458838e+05 1.073933e+05        0
1.073933e+05 -3.912503e+04        0
       0        0        0

-9.163117e+05 1.014348e+05        0
1.014348e+05 -4.515293e+04        0
       0        0        0

-1.271565e+06 6.821622e+04        0
6.821622e+04 -1.966893e+04        0
       0        0        0

-1.582978e+06 1.538448e+04        0
1.538448e+04 -7.911807e+03        0
       0        0        0

1.546129e+06 1.427370e+04        0
1.427370e+04 -3.975752e+03        0
       0        0        0

1.226683e+06 5.548208e+04        0
5.548208e+04 -1.953361e+03        0
       0        0        0

8.865538e+05 9.245024e+04        0
9.245024e+04 2.933168e+03        0
       0        0        0

5.331314e+05 1.146030e+05        0
1.146030e+05 5.877770e+03        0
       0        0        0

1.753740e+05 1.233579e+05        0
1.233579e+05 6.880625e+02        0
       0        0        0

-1.820438e+05 1.233283e+05        0
1.233283e+05 -7.415933e+03        0
       0        0        0

-5.392752e+05 1.145213e+05        0
1.145213e+05 -1.241206e+04        0
       0        0        0

-8.916350e+05 9.234262e+04        0
9.234262e+04 -9.058365e+03        0
       0        0        0

-1.230189e+06 5.539388e+04        0
5.539388e+04 -3.528931e+03        0
       0        0        0

-1.547532e+06 1.424568e+04        0
1.424568e+04 -5.504384e+02        0
       0        0        0

1.509427e+06 1.713063e+04        0
1.713063e+04 -5.567249e+03        0
       0        0        0

1.185340e+06 5.448733e+04        0
5.448733e+04 -8.577651e+03        0
       0        0        0

8.541561e+05 8.905469e+04        0
8.905469e+04 -8.329305e+03        0
       0        0        0

5.137340e+05 1.136408e+05        0
1.136408e+05 -6.745280e+03        0
       0        0        0

1.681056e+05 1.258450e+05        0
1.258450e+05 -5.639044e+03        0
       0        0        0

-1.789903e+05 1.258166e+05        0
1.258166e+05 -5.300819e+03        0
       0        0        0

-5.241237e+05 1.135646e+05        0
1.135646e+05 -4.010288e+03        0
       0        0        0

-8.635542e+05 8.895612e+04        0
8.895612e+04 -2.042812e+03        0
       0        0        0

-1.193244e+06 5.440409e+04        0
5.440409e+04 -1.179541e+03        0
       0        0        0

-1.515273e+06 1.709766e+04        0
1.709766e+04 -3.264824e+03        0
       0        0        0

1.469671e+06 1.958963e+04        0
1.958963e+04 -7.911531e+03        0
       0        0        0

1.147077e+06 5.644559e+04        0
5.644559e+04 -1.054799e+04        0
       0        0        0

8.224151e+05 8.838594e+04        0
8.838594e+04 -1.192774e+04        0
       0        0        0

4.928620e+05 1.117722e+05        0
1.117722e+05 -1.113898e+04        0
       0        0        0

1.594065e+05 1.239614e+05        0
1.239614e+05 -9.157848e+03        0
       0        0        0

-1.752704e+05 1.239347e+05        0
1.239347e+05 -6.757342e+03        0
       0        0        0

-5.082716e+05 1.117003e+05        0
1.117003e+05 -4.611022e+03        0
       0        0        0

-8.369138e+05 8.829171e+04        0
8.829171e+04 -3.479956e+03        0
       0        0        0

-1.160194e+06 5.636191e+04        0
5.636191e+04 -4.312364e+03        0
       0        0        0

-1.480879e+06 1.955284e+04        0
1.955284e+04 -6.139554e+03        0
       0        0        0

1.427069e+06 2.114429e+04        0
2.114429e+04 -1.052964e+04        0
       0        0        0

1.109854e+06 5.834958e+04        0
5.834958e+04 -1.236661e+04        0
       0        0        0

7.924051e+05 8.864128e+04        0
8.864128e+04 -1.362108e+04        0
       0        0        0

4.726277e+05 1.103428e+05        0
1.103428e+05 -1.337050e+04        0
       0        0        0

1.506199e+05 1.216735e+05        0
1.216735e+05 -1.181697e+04        0
       0        0        0

-1.721469e+05 1.216483e+05        0
1.216483e+05 -9.757740e+03        0
       0        0        0

-4.937482e+05 1.102742e+05        0
1.102742e+05 -8.067258e+03        0
       0        0        0

-8.127094e+05 8.854973e+04        0
8.854973e+04 -7.533908e+03        0
       0        0        0

-1.128918e+06 5.826553e+04        0
5.826553e+04 -8.339735e+03        0
       0        0        0

-1.444434e+06 2.110561e+04        0
2.110561e+04 -9.528609e+03        0
       0        0        0

1.382471e+06 2.200181e+04        0
2.200181e+04 -1.363722e+04        0
       0        0        0

1.072891e+06 5.961398e+04        0
5.961398e+04 -1.472183e+04        0
       0        0        0

7.635785e+05 8.901007e+04        0
8.901007e+04 -1.557414e+04        0
       0        0        0

4.533125e+05 1.094858e+05        0
1.094858e+05 -1.552412e+04        0
       0        0        0

1.419522e+05 1.200358e+05        0
1.200358e+05 -1.458784e+04        0
       0        0        0

-1.697603e+05 1.200117e+05        0
1.200117e+05 -1.326479e+04        0
       0        0        0

-4.807667e+05 1.094198e+05        0
1.094198e+05 -1.222641e+04        0
       0        0        0

-7.903212e+05 8.892090e+04        0
8.892090e+04 -1.196593e+04        0
       0        0        0

-1.098554e+06 5.953060e+04        0
5.953060e+04 -1.248635e+04        0
       0        0        0

-1.406666e+06 2.196271e+04        0
2.196271e+04 -1.309846e+04        0
       0        0        0

1.336650e+06 2.243103e+04        0
2.243103e+04 -1.712975e+04        0
       0        0        0

1.035846e+06 6.032508e+04        0
6.032508e+04 -1.770734e+04        0
       0        0        0

7.353690e+05 8.928001e+04        0
8.928001e+04 -1.819357e+04        0
       0        0        0

4.345842e+05 1.090314e+05        0
1.090314e+05 -1.820574e+04        0
       0        0        0

1.333510e+05 1.190751e+05        0
1.190751e+05 -1.770719e+04        0
       0        0        0

-1.679948e+05 1.190519e+05        0
1.190519e+05 -1.697818e+04        0
       0        0        0

-4.689286e+05 1.089678e+05        0
1.089678e+05 -1.641605e+04        0
       0        0        0

-7.691116e+05 8.919329e+04        0
8.919329e+04 -1.629667e+04        0
       0        0        0

-1.068676e+06 6.024325e+04        0
6.024325e+04 -1.657480e+04        0
       0        0        0

-1.368246e+06 2.239236e+04        0
2.239236e+04 -1.685617e+04        0
       0        0        0

1.290108e+06 2.262769e+04        0
2.262769e+04 -2.093370e+04        0
       0        0        0

9.986145e+05 6.068320e+04        0
6.068320e+04 -2.119241e+04        0
       0        0        0

7.073840e+05 8.943847e+04        0
8.943847e+04 -2.142407e+04        0
       0        0        0

4.161153e+05 1.088122e+05        0
1.088122e+05 -2.143279e+04        0
       0        0        0

1.247137e+05 1.185759e+05        0
1.185759e+05 -2.118594e+04        0
       0        0        0

-1.666835e+05 1.185536e+05        0
1.185536e+05 -2.082274e+04        0
       0        0        0

-4.578408e+05 1.087507e+05        0
1.087507e+05 -2.055219e+04        0
       0        0        0

-7.486181e+05 8.935433e+04        0
8.935433e+04 -2.051028e+04        0
       0        0        0

-1.039104e+06 6.060345e+04        0
6.060345e+04 -2.065826e+04        0
       0        0        0

-1.329592e+06 2.258991e+04        0
2.258991e+04 -2.079207e+04        0
       0        0        0

1.243138e+06 2.270943e+04        0
2.270943e+04 -2.498210e+04        0
       0        0        0

9.611829e+05 6.084707e+04        0
6.084707e+04 -2.504187e+04        0
       0        0        0

6.794119e+05 8.952007e+04        0
8.952007e+04 -2.510676e+04        0
       0        0        0

3.976942e+05 1.087151e+05        0
1.087151e+05 -2.508705e+04        0
       0        0        0

1.159751e+05 1.183403e+05        0
1.183403e+05 -2.496213e+04        0
       0        0        0

-1.656966e+05 1.183187e+05        0
1.183187e+05 -2.479576e+04        0
       0        0        0

-4.472257e+05 1.086557e+05        0
1.086557e+05 -2.468699e+04        0
       0        0        0

-7.285608e+05 8.943859e+04        0
8.943859e+04 -2.469694e+04        0
       0        0        0

-1.009752e+06 6.076971e+04        0
6.076971e+04 -2.480000e+04        0
       0        0        0

-1.290922e+06 2.267274e+04        0
2.267274e+04 -2.489961e+04        0
       0        0        0

1.195902e+06 2.273919e+04        0
2.273919e+04 -2.922324e+04        0
       0        0        0

9.235708e+05 6.091458e+04        0
6.091458e+04 -2.915047e+04        0
       0        0        0

6.513590e+05 8.955767e+04        0
8.955767e+04 -2.910387e+04        0
       0        0        0

3.792147e+05 1.086759e+05        0
1.086759e+05 -2.904718e+04        0
       0        0        0

1.071092e+05 1.182389e+05        0
1.182389e+05 -2.896999e+04        0
       0        0        0

-1.649443e+05 1.182180e+05        0
1.182180e+05 -2.889900e+04        0
       0        0        0

-4.369126e+05 1.086185e+05        0
1.086185e+05 -2.887696e+04        0
       0        0        0

-7.087800e+05 8.947891e+04        0
8.947891e+04 -2.892824e+04        0
       0        0        0

-9.805709e+05 6.083975e+04        0
6.083975e+04 -2.903784e+04        0
       0        0        0

-1.252330e+06 2.270369e+04        0
2.270369e+04 -2.916302e+04        0
       0        0        0

1.148491e+06 2.274763e+04        0
2.274763e+04 -3.361527e+04        0
       0        0        0

8.858087e+05 6.093851e+04        0
6.093851e+04 -3.344415e+04        0
       0        0        0

6.231974e+05 8.957284e+04        0
8.957284e+04 -3.331675e+04        0
       0        0        0

3.606384e+05 1.086618e+05        0
1.086618e+05 -3.322145e+04        0
       0        0        0

9.811734e+04 1.181997e+05        0
1.181997e+05 -3.315416e+04        0
       0        0        0

-1.643651e+05 1.181796e+05        0
1.181796e+05 -3.312513e+04        0
       0        0        0

-4.268000e+05 1.086064e+05        0
1.086064e+05 -3.315081e+04        0
       0        0        0

-6.891844e+05 8.949683e+04        0
8.949683e+04 -3.323922e+04        0
       0        0        0

-9.515284e+05 6.086627e+04        0
6.086627e+04 -3.338182e+04        0
       0        0        0

-1.213844e+06 2.271337e+04        0
2.271337e+04 -3.356049e+04        0
       0        0        0

1.100960e+06 2.274841e+04        0
2.274841e+04 -3.812278e+04        0
       0        0        0

8.479289e+05 6.094459e+04        0
6.094459e+04 -3.787019e+04        0
       0        0        0

5.949322e+05 8.957762e+04        0
8.957762e+04 -3.767803e+04        0
       0        0        0

3.419635e+05 1.086573e+05        0
1.086573e+05 -3.754494e+04        0
       0        0        0

8.901558e+04 1.181867e+05        0
1.181867e+05 -3.747027e+04        0
       0        0        0

-1.639142e+05 1.181674e+05        0
1.181674e+05 -3.745768e+04        0
       0        0        0

-4.168253e+05 1.086039e+05        0
1.086039e+05 -3.751247e+04        0
       0        0        0

-6.697180e+05 8.950436e+04        0
8.950436e+04 -3.763608e+04        0
       0        0        0

-9.225952e+05 6.087498e+04        0
6.087498e+04 -3.782343e+04        0
       0        0        0

-1.175457e+06 2.271539e+04        0
2.271539e+04 -3.806658e+04        0
       0        0        0

1.053347e+06 2.274703e+04        0
2.274703e+04 -4.271420e+04        0
       0        0        0

8.099626e+05 6.094429e+04        0
6.094429e+04 -4.238866e+04        0
       0        0        0

5.665832e+05 8.957803e+04        0
8.957803e+04 -4.214000e+04        0
       0        0        0

3.232060e+05 1.086559e+05        0
1.086559e+05 -4.197068e+04        0
       0        0        0

7.982720e+04 1.181835e+05        0
1.181835e+05 -4.188171e+04        0
       0        0        0

-1.635563e+05 1.181649e+05        0
1.181649e+05 -4.187447e+04        0
       0        0        0

-4.069457e+05 1.086046e+05        0
1.086046e+05 -4.195008e+04        0
       0        0        0

-6.503417e+05 8.950753e+04        0
8.950753e+04 -4.210767e+04        0
       0        0        0

-8.937438e+05 6.087730e+04        0
6.087730e+04 -4.234382e+04        0
       0        0        0

-1.137148e+06 2.271526e+04        0
2.271526e+04 -4.265429e+04        0
       0        0        0

1.005683e+06 2.274539e+04        0
2.274539e+04 -4.736038e+04        0
       0        0        0

7.719394e+05 6.094219e+04        0
6.094219e+04 -4.696667e+04        0
       0        0        0

5.381756e+05 8.957681e+04        0
8.957681e+04 -4.666608e+04        0
       0        0        0

3.043894e+05 1.086553e+05        0
1.086553e+05 -4.646218e+04        0
       0        0        0

7.057816e+04 1.181832e+05        0
1.181832e+05 -4.635676e+04        0
       0        0        0

-1.632605e+05 1.181653e+05        0
1.181653e+05 -4.635058e+04        0
       0        0        0

-3.971278e+05 1.086060e+05        0
1.086060e+05 -4.644347e+04        0
       0        0        0

-6.310240e+05 8.950907e+04        0
8.950907e+04 -4.663394e+04        0
       0        0        0

-8.649473e+05 6.087783e+04        0
6.087783e+04 -4.691929e+04        0
       0        0        0

-1.098893e+06 2.271487e+04        0
2.271487e+04 -4.729637e+04        0
       0        0        0

9.579955e+05 2.274400e+04        0
2.274400e+04 -5.203381e+04        0
       0        0        0

7.338873e+05 6.093989e+04        0
6.093989e+04 -5.157525e+04        0
       0        0        0

5.097360e+05 8.957508e+04        0
8.957508e+04 -5.122566e+04        0
       0        0        0

2.855393e+05 1.086546e+05        0
1.086546e+05 -5.098880e+04        0
       0        0        0

6.129495e+04 1.181835e+05        0
1.181835e+05 -5.086675e+04        0
       0        0        0

-1.629989e+05 1.181663e+05        0
1.181663e+05 -5.086025e+04        0
       0        0        0

-3.873432e+05 1.086073e+05        0
1.086073e+05 -5.096887e+04        0
       0        0        0

-6.117373e+05 8.951011e+04        0
8.951011e+04 -5.119108e+04        0
       0        0        0

-8.361791e+05 6.087815e+04        0
6.087815e+04 -5.152449e+04        0
       0        0        0

-1.060664e+06 2.271473e+04        0
2.271473e+04 -5.196605e+04        0
       0        0        0

9.103102e+05 2.274290e+04        0
2.274290e+04 -5.670829e+04        0
       0        0        0

6.958326e+05 6.093780e+04        0
6.093780e+04 -5.618768e+04        0
       0        0        0

4.812907e+05 8.957328e+04        0
8.957328e+04 -5.579141e+04        0
       0        0        0

2.666817e+05 1.086537e+05        0
1.086537e+05 -5.552312e+04        0
       0        0        0

5.200354e+04 1.181835e+05        0
1.181835e+05 -5.538500e+04        0
       0        0        0

-1.627453e+05 1.181671e+05        0
1.181671e+05 -5.537790e+04        0
       0        0        0

-3.775653e+05 1.086084e+05        0
1.086084e+05 -5.550144e+04        0
       0        0        0

-5.924555e+05 8.951107e+04        0
8.951107e+04 -5.575422e+04        0
       0        0        0

-8.074137e+05 6.087870e+04        0
6.087870e+04 -5.613390e+04        0
       0        0        0

-1.022436e+06 2.271486e+04        0
2.271486e+04 -5.663735e+04        0
       0        0        0

8.626520e+05 2.274198e+04        0
2.274198e+04 -6.135878e+04        0
       0        0        0

6.578008e+05 6.093596e+04        0
6.093596e+04 -6.077882e+04        0
       0        0        0

4.528650e+05 8.957150e+04        0
8.957150e+04 -6.033795e+04        0
       0        0        0

2.478418e+05 1.086526e+05        0
1.086526e+05 -6.003971e+04        0
       0        0        0

4.272898e+04 1.181833e+05        0
1.181833e+05 -5.988630e+04        0
       0        0        0

-1.624747e+05 1.181676e+05        0
1.181676e+05 -5.987867e+04        0
       0        0        0

-3.677693e+05 1.086093e+05        0
1.086093e+05 -6.001656e+04        0
       0        0        0

-5.731539e+05 8.951206e+04        0
8.951206e+04 -6.029866e+04        0
       0        0        0

-7.786261e+05 6.087948e+04        0
6.087948e+04 -6.072266e+04        0
       0        0        0

-9.841819e+05 2.271520e+04        0
2.271520e+04 -6.128530e+04        0
       0        0        0

8.150447e+05 2.274119e+04        0
2.274119e+04 -6.596136e+04        0
       0        0        0

6.198157e+05 6.093429e+04        0
6.093429e+04 -6.532473e+04        0
       0        0        0

4.244830e+05 8.956978e+04        0
8.956978e+04 -6.484132e+04        0
       0        0        0

2.290436e+05 1.086514e+05        0
1.086514e+05 -6.451456e+04        0
       0        0        0

3.349528e+04 1.181828e+05        0
1.181828e+05 -6.434667e+04        0
       0        0        0

-1.621631e+05 1.181678e+05        0
1.181678e+05 -6.433865e+04        0
       0        0        0

-3.579315e+05 1.086101e+05        0
1.086101e+05 -6.449035e+04        0
       0        0        0

-5.538087e+05 8.951311e+04        0
8.951311e+04 -6.480052e+04        0
       0        0        0

-7.497925e+05 6.088043e+04        0
6.088043e+04 -6.526685e+04        0
       0        0        0

-9.458791e+05 2.271565e+04        0
2.271565e+04 -6.588596e+04        0
       0        0        0

7.675109e+05 2.274046e+04        0
2.274046e+04 -7.049318e+04        0
       0        0        0

5.819002e+05 6.093273e+04        0
6.093273e+04 -6.980260e+04        0
       0        0        0

3.961677e+05 8.956811e+04        0
8.956811e+04 -6.927870e+04        0
       0        0        0

2.103102e+05 1.086501e+05        0
1.086501e+05 -6.892486e+04        0
       0        0        0

2.432535e+04 1.181822e+05        0
1.181822e+05 -6.874327e+04        0
       0        0        0

-1.617877e+05 1.181679e+05        0
1.181679e+05 -6.873499e+04        0
       0        0        0

-3.480290e+05 1.086108e+05        0
1.086108e+05 -6.889993e+04        0
       0        0        0

-5.343973e+05 8.951420e+04        0
8.951420e+04 -6.923690e+04        0
       0        0        0

-7.208901e+05 6.088150e+04        0
6.088150e+04 -6.974356e+04        0
       0        0        0

-9.075041e+05 2.271617e+04        0
2.271617e+04 -7.041649e+04        0
       0        0        0

7.200723e+05 2.273978e+04        0
2.273978e+04 -7.493249e+04        0
       0        0        0

5.440762e+05 6.093125e+04        0
6.093125e+04 -7.419071e+04        0
       0        0        0

3.679410e+05 8.956648e+04        0
8.956648e+04 -7.362841e+04        0
       0        0        0

1.916633e+05 1.086488e+05        0
1.086488e+05 -7.324889e+04        0
       0        0        0

1.524098e+04 1.181815e+05        0
1.181815e+05 -7.305436e+04        0
       0        0        0

-1.613270e+05 1.181679e+05        0
1.181679e+05 -7.304590e+04        0
       0        0        0

-3.380404e+05 1.086115e+05        0
1.086115e+05 -7.322349e+04        0
       0        0        0

-5.148979e+05 8.951533e+04        0
8.951533e+04 -7.358598e+04        0
       0        0        0

-6.918973e+05 6.088265e+04        0
6.088265e+04 -7.413101e+04        0
       0        0        0

-8.690350e+05 2.271673e+04        0
2.271673e+04 -7.485511e+04        0
       0        0        0

6.727496e+05 2.273915e+04        0
2.273915e+04 -7.925863e+04        0
       0        0        0

5.063643e+05 6.092987e+04        0
6.092987e+04 -7.846843e+04        0
       0        0        0

3.398235e+05 8.956489e+04        0
8.956489e+04 -7.786983e+04        0
       0        0        0

1.731238e+05 1.086474e+05        0
1.086474e+05 -7.746605e+04        0
       0        0        0

6.262879e+03 1.181806e+05        0
1.181806e+05 -7.725929e+04        0
       0        0        0

-1.607601e+05 1.181679e+05        0
1.181679e+05 -7.725069e+04        0
       0        0        0

-3.279448e+05 1.086121e+05        0
1.086121e+05 -7.744030e+04        0
       0        0        0

-4.952900e+05 8.951651e+04        0
8.951651e+04 -7.782701e+04        0
       0        0        0

-6.627933e+05 6.088389e+04        0
6.088389e+04 -7.840849e+04        0
       0        0        0

-8.304513e+05 2.271735e+04        0
2.271735e+04 -7.918115e+04        0
       0        0        0

6.255623e+05 2.273859e+04        0
2.273859e+04 -8.345202e+04        0
       0        0        0

4.687842e+05 6.092860e+04        0
6.092860e+04 -8.261621e+04        0
       0        0        0

3.118350e+05 8.956335e+04        0
8.956335e+04 -8.198342e+04        0
       0        0        0

1.547113e+05 1.086460e+05        0
1.086460e+05 -8.155678e+04        0
       0        0        0

-2.589332e+03 1.181797e+05        0
1.181797e+05 -8.133849e+04        0
       0        0        0

-1.600676e+05 1.181676e+05        0
1.181676e+05 -8.132976e+04        0
       0        0        0

-3.177230e+05 1.086127e+05        0
1.086127e+05 -8.153073e+04        0
       0        0        0

-4.755540e+05 8.951773e+04        0
8.951773e+04 -8.194037e+04        0
       0        0        0

-6.335585e+05 6.088526e+04        0
6.088526e+04 -8.255636e+04        0
       0        0        0

-7.917331e+05 2.271804e+04        0
2.271804e+04 -8.337502e+04        0
       0        0        0

5.785286e+05 2.273817e+04        0
2.273817e+04 -8.749418e+04        0
       0        0        0

4.313542e+05 6.092752e+04        0
6.092752e+04 -8.661559e+04        0
       0        0        0

2.839942e+05 8.956185e+04        0
8.956185e+04 -8.595072e+04        0
       0        0        0

1.364444e+05 1.086444e+05        0
1.086444e+05 -8.550260e+04        0
       0        0        0

-1.129712e+04 1.181785e+05        0
1.181785e+05 -8.527347e+04        0
       0        0        0

-1.592310e+05 1.181672e+05        0
1.181672e+05 -8.526462e+04        0
       0        0        0

-3.073564e+05 1.086132e+05        0
1.086132e+05 -8.547630e+04        0
       0        0        0

-4.556717e+05 8.951900e+04        0
8.951900e+04 -8.590754e+04        0
       0        0        0

-6.041745e+05 6.088680e+04        0
6.088680e+04 -8.655609e+04        0
       0        0        0

-7.528619e+05 2.271886e+04        0
2.271886e+04 -8.741819e+04        0
       0        0        0

5.316658e+05 2.273795e+04        0
2.273795e+04 -9.136769e+04        0
       0        0        0

3.940921e+05 6.092663e+04        0
6.092663e+04 -9.044910e+04        0
       0        0        0

2.563184e+05 8.956035e+04        0
8.956035e+04 -8.975416e+04        0
       0        0        0

1.183407e+05 1.086427e+05        0
1.086427e+05 -8.928591e+04        0
       0        0        0

-1.984304e+04 1.181771e+05        0
1.181771e+05 -8.904673e+04        0
       0        0        0

-1.582329e+05 1.181665e+05        0
1.181665e+05 -8.903797e+04        0
       0        0        0

-2.968278e+05 1.086135e+05        0
1.086135e+05 -8.925978e+04        0
       0        0        0

-4.356257e+05 8.952026e+04        0
8.952026e+04 -8.971126e+04        0
       0        0        0

-5.746240e+05 6.088854e+04        0
6.088854e+04 -9.039032e+04        0
       0        0        0

-7.138200e+05 2.271989e+04        0
2.271989e+04 -9.129325e+04        0
       0        0        0

4.849900e+05 2.273796e+04        0
2.273796e+04 -9.505616e+04        0
       0        0        0

3.570143e+05 6.092577e+04        0
6.092577e+04 -9.410011e+04        0
       0        0        0

2.288244e+05 8.955862e+04        0
8.955862e+04 -9.337680e+04        0
       0        0        0

1.004164e+05 1.086409e+05        0
1.086409e+05 -9.288973e+04        0
       0        0        0

-2.821084e+04 1.181759e+05        0
1.181759e+05 -9.264170e+04        0
       0        0        0

-1.570570e+05 1.181660e+05        0
1.181660e+05 -9.263378e+04        0
       0        0        0

-2.861209e+05 1.086137e+05        0
1.086137e+05 -9.286554e+04        0
       0        0        0

-4.153999e+05 8.952130e+04        0
8.952130e+04 -9.333582e+04        0
       0        0        0

-5.448908e+05 6.089031e+04        0
6.089031e+04 -9.404299e+04        0
       0        0        0

-6.745908e+05 2.272114e+04        0
2.272114e+04 -9.498387e+04        0
       0        0        0

4.385165e+05 2.273798e+04        0
2.273798e+04 -9.854412e+04        0
       0        0        0

3.201365e+05 6.092413e+04        0
6.092413e+04 -9.755241e+04        0
       0        0        0

2.015270e+05 8.955604e+04        0
8.955604e+04 -9.680154e+04        0
       0        0        0

8.268605e+04 1.086393e+05        0
1.086393e+05 -9.629692e+04        0
       0        0        0

-3.638570e+04 1.181760e+05        0
1.181760e+05 -9.604233e+04        0
       0        0        0

-1.556878e+05 1.181669e+05        0
1.181669e+05 -9.603768e+04        0
       0        0        0

-2.752197e+05 1.086142e+05        0
1.086142e+05 -9.628030e+04        0
       0        0        0

-3.949789e+05 8.952148e+04        0
8.952148e+04 -9.676788e+04        0
       0        0        0

-5.149601e+05 6.089129e+04        0
6.089129e+04 -9.749979e+04        0
       0        0        0

-6.351590e+05 2.272241e+04        0
2.272241e+04 -9.847493e+04        0
       0        0        0

3.922608e+05 2.273705e+04        0
2.273705e+04 -1.018168e+05        0
       0        0        0

2.834737e+05 6.091918e+04        0
6.091918e+04 -1.007892e+05        0
       0        0        0

1.744389e+05 8.955103e+04        0
8.955103e+04 -1.000095e+05        0
       0        0        0

6.516112e+04 1.086394e+05        0
1.086394e+05 -9.948864e+04        0
       0        0        0

-4.435479e+04 1.181814e+05        0
1.181814e+05 -9.923256e+04        0
       0        0        0

-1.541098e+05 1.181730e+05        0
1.181730e+05 -9.923756e+04        0
       0        0        0

-2.641076e+05 1.086162e+05        0
1.086162e+05 -9.949471e+04        0
       0        0        0

-3.743470e+05 8.951924e+04        0
8.951924e+04 -9.999807e+04        0
       0        0        0

-4.848186e+05 6.088897e+04        0
6.088897e+04 -1.007491e+05        0
       0        0        0

-5.955116e+05 2.272272e+04        0
2.272272e+04 -1.017526e+05        0
       0        0        0

3.462408e+05 2.273213e+04        0
2.273213e+04 -1.048596e+05        0
       0        0        0

2.470402e+05 6.090435e+04        0
6.090435e+04 -1.037913e+05        0
       0        0        0

1.475679e+05 8.953998e+04        0
8.953998e+04 -1.029768e+05        0
       0        0        0

4.784706e+04 1.086446e+05        0
1.086446e+05 -1.024414e+05        0
       0        0        0

-5.210859e+04 1.182015e+05        0
1.182015e+05 -1.021950e+05        0
       0        0        0

-1.523066e+05 1.181938e+05        0
1.181938e+05 -1.022248e+05        0
       0        0        0

-2.527641e+05 1.086235e+05        0
1.086235e+05 -1.025064e+05        0
       0        0        0

-3.534861e+05 8.951095e+04        0
8.951095e+04 -1.030243e+05        0
       0        0        0

-4.544544e+05 6.087677e+04        0
6.087677e+04 -1.037842e+05        0
       0        0        0

-5.556397e+05 2.271905e+04        0
2.271905e+04 -1.048050e+05        0
       0        0        0

3.004822e+05 2.271539e+04        0
2.271539e+04 -1.076574e+05        0
       0        0        0

2.108493e+05 6.086437e+04        0
6.086437e+04 -1.065333e+05        0
       0        0        0

1.209111e+05 8.951546e+04        0
8.951546e+04 -1.056691e+05        0
       0        0        0

3.073692e+04 1.086641e+05        0
1.086641e+05 -1.051219e+05        0
       0        0        0

-5.964355e+04 1.182578e+05        0
1.182578e+05 -1.049091e+05        0
       0        0        0

-1.502580e+05 1.182508e+05        0
1.182508e+05 -1.049962e+05        0
       0        0        0

-2.411586e+05 1.086450e+05        0
1.086450e+05 -1.053249e+05        0
       0        0        0

-3.323700e+05 8.948920e+04        0
8.948920e+04 -1.058577e+05        0
       0        0        0

-4.238570e+05 6.083943e+04        0
6.083943e+04 -1.066065e+05        0
       0        0        0

-5.155448e+05 2.270357e+04        0
2.270357e+04 -1.076228e+05        0
       0        0        0

2.550302e+05 2.266861e+04        0
2.266861e+04 -1.101928e+05        0
       0        0        0

1.749112e+05 6.076689e+04        0
6.076689e+04 -1.089786e+05        0
       0        0        0

9.444394e+04 8.946363e+04        0
8.946363e+04 -1.080332e+05        0
       0        0        0

1.379929e+04 1.087177e+05        0
1.087177e+05 -1.074804e+05        0
       0        0        0

-6.696699e+04 1.183950e+05        0
1.183950e+05 -1.073481e+05        0
       0        0        0

-1.479345e+05 1.183887e+05        0
1.183887e+05 -1.075565e+05        0
       0        0        0

-2.292386e+05 1.087005e+05        0
1.087005e+05 -1.079789e+05        0
       0        0        0

-3.109536e+05 8.944014e+04        0
8.944014e+04 -1.085307e+05        0
       0        0        0

-3.930164e+05 6.074460e+04        0
6.074460e+04 -1.092323e+05        0
       0        0        0

-4.752498e+05 2.265805e+04        0
2.265805e+04 -1.102010e+05        0
       0        0        0

2.099707e+05 2.255312e+04        0
2.255312e+04 -1.124452e+05        0
       0        0        0

1.392276e+05 6.054966e+04        0
6.054966e+04 -1.110720e+05        0
       0        0        0

6.809783e+04 8.936201e+04        0
8.936201e+04 -1.099896e+05        0
       0        0        0

-3.042201e+03 1.088455e+05        0
1.088455e+05 -1.094456e+05        0
       0        0        0

-7.410476e+04 1.186961e+05        0
1.186961e+05 -1.094775e+05        0
       0        0        0

-1.452897e+05 1.186906e+05        0
1.186906e+05 -1.099193e+05        0
       0        0        0

-2.169085e+05 1.088304e+05        0
1.088304e+05 -1.105207e+05        0
       0        0        0

-2.891518e+05 8.934130e+04        0
8.934130e+04 -1.111065e+05        0
       0        0        0

-3.619182e+05 6.053005e+04        0
6.053005e+04 -1.117009e+05        0
       0        0        0

-4.348222e+05 2.254384e+04        0
2.254384e+04 -1.125421e+05        0
       0        0        0

1.654676e+05 2.229389e+04        0
2.229389e+04 -1.143894e+05        0
       0        0        0

1.037757e+05 6.010633e+04        0
6.010633e+04 -1.127378e+05        0
       0        0        0

4.172434e+04 8.918285e+04        0
8.918285e+04 -1.114369e+05        0
       0        0        0

-1.993674e+04 1.091211e+05        0
1.091211e+05 -1.109352e+05        0
       0        0        0

-8.111029e+04 1.192969e+05        0
1.192969e+05 -1.112604e+05        0
       0        0        0

-1.422485e+05 1.192922e+05        0
1.192922e+05 -1.121001e+05        0
       0        0        0

-2.040019e+05 1.091080e+05        0
1.091080e+05 -1.130150e+05        0
       0        0        0

-2.668047e+05 8.916493e+04        0
8.916493e+04 -1.136749e+05        0
       0        0        0

-3.305323e+05 6.008944e+04        0
6.008944e+04 -1.140806e+05        0
       0        0        0

-3.944153e+05 2.228592e+04        0
2.228592e+04 -1.146607e+05        0
       0        0        0

1.218143e+05 2.175987e+04        0
2.175987e+04 -1.160001e+05        0
       0        0        0

6.846991e+04 5.928775e+04        0
5.928775e+04 -1.139016e+05        0
       0        0        0

1.504776e+04 8.891653e+04        0
8.891653e+04 -1.123083e+05        0
       0        0        0

-3.712658e+04 1.096611e+05        0
1.096611e+05 -1.119237e+05        0
       0        0        0

-8.806576e+04 1.203706e+05        0
1.203706e+05 -1.126850e+05        0
       0        0        0

-1.387020e+05 1.203666e+05        0
1.203666e+05 -1.140839e+05        0
       0        0        0

-1.902583e+05 1.096500e+05        0
1.096500e+05 -1.154691e+05        0
       0        0        0

-2.436324e+05 8.890144e+04        0
8.890144e+04 -1.162985e+05        0
       0        0        0

-2.987810e+05 5.927361e+04        0
5.927361e+04 -1.164537e+05        0
       0        0        0

-3.543298e+05 2.175326e+04        0
2.175326e+04 -1.165894e+05        0
       0        0        0

7.947515e+04 2.075678e+04        0
2.075678e+04 -1.172821e+05        0
       0        0        0

3.307865e+04 5.797447e+04        0
5.797447e+04 -1.145899e+05        0
       0        0        0

-1.236393e+04 8.865059e+04        0
8.865059e+04 -1.127886e+05        0
       0        0        0

-5.490063e+04 1.106013e+05        0
1.106013e+05 -1.126577e+05        0
       0        0        0

-9.504947e+04 1.220074e+05        0
1.220074e+05 -1.138552e+05        0
       0        0        0

-1.345317e+05 1.220041e+05        0
1.220041e+05 -1.157267e+05        0
       0        0        0

-1.753639e+05 1.105923e+05        0
1.105923e+05 -1.176118e+05        0
       0        0        0

-2.192067e+05 8.863840e+04        0
8.863840e+04 -1.187962e+05        0
       0        0        0

-2.664683e+05 5.796312e+04        0
5.796312e+04 -1.188293e+05        0
       0        0        0

-3.150782e+05 2.075156e+04        0
2.075156e+04 -1.183719e+05        0
       0        0        0

3.901604e+04 1.910250e+04        0
1.910250e+04 -1.183311e+05        0
       0        0        0

-2.945801e+03 5.638064e+04        0
5.638064e+04 -1.153385e+05        0
       0        0        0

-4.097162e+04 8.874194e+04        0
8.874194e+04 -1.139163e+05        0
       0        0        0

-7.334316e+04 1.119428e+05        0
1.119428e+05 -1.141993e+05        0
       0        0        0

-1.020044e+05 1.238170e+05        0
1.238170e+05 -1.151847e+05        0
       0        0        0

-1.297257e+05 1.238146e+05        0
1.238146e+05 -1.165458e+05        0
       0        0        0

-1.591896e+05 1.119363e+05        0
1.119363e+05 -1.183359e+05        0
       0        0        0

-1.930733e+05 8.873286e+04        0
8.873286e+04 -1.201362e+05        0
       0        0        0

-2.331278e+05 5.637209e+04        0
5.637209e+04 -1.207525e+05        0
       0        0        0

-2.773664e+05 1.909865e+04        0
1.909865e+04 -1.200521e+05        0
       0        0        0

5.231885e+02 1.710271e+04        0
1.710271e+04 -1.199683e+05        0
       0        0        0

-4.055900e+04 5.592265e+04        0
5.592265e+04 -1.183223e+05        0
       0        0        0

-7.064224e+04 9.001307e+04        0
9.001307e+04 -1.192608e+05        0
       0        0        0

-9.160225e+04 1.128998e+05        0
1.128998e+05 -1.193451e+05        0
       0        0        0

-1.084793e+05 1.240404e+05        0
1.240404e+05 -1.176209e+05        0
       0        0        0

-1.246149e+05 1.240392e+05        0
1.240392e+05 -1.154734e+05        0
       0        0        0

-1.424954e+05 1.128964e+05        0
1.128964e+05 -1.147534e+05        0
       0        0        0

-1.653497e+05 9.000769e+04        0
9.000769e+04 -1.167341e+05        0
       0        0        0

-1.979384e+05 5.591692e+04        0
5.591692e+04 -1.201833e+05        0
       0        0        0

-2.416132e+05 1.710010e+04        0
1.710010e+04 -1.211410e+05        0
       0        0        0

-3.838756e+04 1.780089e+04        0
1.780089e+04 -1.241547e+05        0
       0        0        0

-8.056431e+04 6.133461e+04        0
6.133461e+04 -1.329179e+05        0
       0        0        0

-9.823377e+04 9.241439e+04        0
9.241439e+04 -1.376493e+05        0
       0        0        0

-1.069299e+05 1.101518e+05        0
1.101518e+05 -1.330247e+05        0
       0        0        0

-1.134903e+05 1.182691e+05        0
1.182691e+05 -1.226657e+05        0
       0        0        0

-1.199857e+05 1.182695e+05        0
1.182695e+05 -1.108102e+05        0
       0        0        0

-1.278480e+05 1.101525e+05        0
1.101525e+05 -1.017531e+05        0
       0        0        0

-1.390687e+05 9.241419e+04        0
9.241419e+04 -9.965328e+04        0
       0        0        0

-1.602170e+05 6.133242e+04        0
6.133242e+04 -1.078653e+05        0
       0        0        0

-2.060740e+05 1.779909e+04        0
1.779909e+04 -1.203165e+05        0
       0        0        0

-9.041227e+04 4.054631e+04        0
4.054631e+04 -1.562833e+05        0
       0        0        0

-1.138421e+05 7.593486e+04        0
7.593486e+04 -1.858539e+05        0
       0        0        0

-1.150718e+05 8.920336e+04        0
8.920336e+04 -1.817339e+05        0
       0        0        0

-1.153875e+05 9.571255e+04        0
9.571255e+04 -1.608397e+05        0
       0        0        0

-1.157489e+05 9.856239e+04        0
9.856239e+04 -1.317915e+05        0
       0        0        0

-1.168366e+05 9.856429e+04        0
9.856429e+04 -1.007937e+05        0
       0        0        0

-1.188659e+05 9.571771e+04        0
9.571771e+04 -7.341100e+04        0
       0        0        0

-1.225609e+05 8.921016e+04        0
8.921016e+04 -5.589328e+04        0
       0        0        0

-1.289065e+05 7.594047e+04        0
7.594047e+04 -5.688864e+04        0
       0        0        0

-1.586523e+05 4.054609e+04        0
4.054609e+04 -9.278138e+04        0
       0        0        0

POINT_DATA     451
VECTORS DISPLACEMENT_8.600000e-01 double
0.000000e+00    0.000000e+00    0.000000e+00
0.000000e+00    0.000000e+00    0.000000e+00
0.000000e+00    0.000000e+00    0.000000e+00
0.000000e+00    0.000000e+00    0.000000e+00
0.000000e+00    0.000000e+00    0.000000e+00
0.000000e+00    0.000000e+00    0.000000e+00
0.000000e+00    0.000000e+00    0.000000e+00
0.000000e+00    0.000000e+00    0.000000e+00
0.000000e+00    0.000000e+00    0.000000e+00
0.000000e+00    0.000000e+00    0.000000e+00
0.000000e+00    0.000000e+00    0.000000e+00
-1.141595e-06    -8.299605e-07    0.000000e+00
-7.233448e-07    -4.163094e-07    0.000000e+00
-5.161144e-07    -2.157261e-07    0.000000e+00
-3.332233e-07    -1.068318e-07    0.000000e+00
-1.642863e-07    -5.047426e-08    0.000000e+00
-3.462939e-20    -3.295145e-08    0.000000e+00
1.642863e-07    -5.047426e-08    0.000000e+00
3.332233e-07    -1.068318e-07    0.000000e+00
5.161144e-07    -2.157261e-07    0.000000e+00
7.233448e-07    -4.163094e-07    0.000000e+00
1.141595e-06    -8.299605e-07    0.000000e+00
-2.153941e-06    -1.380309e-06    0.000000e+00
-1.574436e-06    -9.987668e-07    0.000000e+00
-1.105093e-06    -7.015532e-07    0.000000e+00
-7.128292e-07    -5.177059e-07    0.000000e+00
-3.501023e-07    -4.175298e-07    0.000000e+00
-7.309630e-20    -3.857102e-07    0.000000e+00
3.501023e-07    -4.175298e-07    0.000000e+00
7.128292e-07    -5.177059e-07    0.000000e+00
1.105093e-06    -7.015532e-07    0.000000e+00
1.574436e-06    -9.987668e-07    0.000000e+00
2.153941e-06    -1.380309e-06    0.000000e+00
-3.132427e-06    -2.064634e-06    0.000000e+00
-2.394168e-06    -1.682257e-06    0.000000e+00
-1.722702e-06    -1.380761e-06    0.000000e+00
-1.115240e-06    -1.168096e-06    0.000000e+00
-5.487489e-07    -1.045521e-06    0.000000e+00
-1.151502e-19    -1.005593e-06    0.000000e+00
5.487489e-07    -1.045521e-06    0.000000e+00
1.115240e-06    -1.168096e-06    0.000000e+00
1.722702e-06    -1.380761e-06    0.000000e+00
2.394168e-06    -1.682257e-06    0.000000e+00
3.132427e-06    -2.064634e-06    0.000000e+00
-4.100076e-06    -2.909172e-06    0.000000e+00
-3.186876e-06    -2.535522e-06    0.000000e+00
-2.326958e-06    -2.239053e-06    0.000000e+00
-1.519408e-06    -2.025105e-06    0.000000e+00
-7.500557e-07    -1.896684e-06    0.000000e+00
-1.584746e-19    -1.854101e-06    0.000000e+00
7.500557e-07    -1.896684e-06    0.000000e+00
1.519408e-06    -2.025105e-06    0.000000e+00
2.326958e-06    -2.239053e-06    0.000000e+00
3.186876e-06    -2.535522e-06    0.000000e+00
4.100076e-06    -2.909172e-06    0.000000e+00
-5.051341e-06    -3.936654e-06    0.000000e+00
-3.956477e-06    -3.571725e-06    0.000000e+00
-2.911986e-06    -3.284208e-06    0.000000e+00
-1.912865e-06    -3.075889e-06    0.000000e+00
-9.475500e-07    -2.949778e-06    0.000000e+00
-2.031159e-19    -2.907564e-06    0.000000e+00
9.475500e-07    -2.949778e-06    0.000000e+00
1.912865e-06    -3.075889e-06    0.000000e+00
2.911986e-06    -3.284208e-06    0.000000e+00
3.956477e-06    -3.571725e-06    0.000000e+00
5.051341e-06    -3.936654e-06    0.000000e+00
-5.981873e-06    -5.149742e-06    0.000000e+00
-4.704513e-06    -4.794468e-06    0.000000e+00
-3.477740e-06    -4.516043e-06    0.000000e+00
-2.292922e-06    -4.315096e-06    0.000000e+00
-1.138484e-06    -4.193469e-06    0.000000e+00
-2.488292e-19    -4.152740e-06    0.000000e+00
1.138484e-06    -4.193469e-06    0.000000e+00
2.292922e-06    -4.315096e-06    0.000000e+00
3.477740e-06    -4.516043e-06    0.000000e+00
4.704513e-06    -4.794468e-06    0.000000e+00
5.981873e-06    -5.149742e-06    0.000000e+00
-6.888558e-06    -6.546376e-06    0.000000e+00
-5.431254e-06    -6.201154e-06    0.000000e+00
-4.025294e-06    -5.931590e-06    0.000000e+00
-2.659769e-06    -5.737829e-06    0.000000e+00
-1.322562e-06    -5.620886e-06    0.000000e+00
-2.919617e-19    -5.581769e-06    0.000000e+00
1.322562e-06    -5.620886e-06    0.000000e+00
2.659769e-06    -5.737829e-06    0.000000e+00
4.025294e-06    -5.931590e-06    0.000000e+00
5.431254e-06    -6.201154e-06    0.000000e+00
6.888558e-06    -6.546376e-06    0.000000e+00
-7.769676e-06    -8.122139e-06    0.000000e+00
-6.136609e-06    -7.787205e-06    0.000000e+00
-4.555509e-06    -7.526210e-06    0.000000e+00
-3.014226e-06    -7.339157e-06    0.000000e+00
-1.500173e-06    -7.226543e-06    0.000000e+00
-3.336780e-19    -7.188927e-06    0.000000e+00
1.500173e-06    -7.226543e-06    0.000000e+00
3.014226e-06    -7.339157e-06    0.000000e+00
4.555509e-06    -7.526210e-06    0.000000e+00
6.136609e-06    -7.787205e-06    0.000000e+00
7.769676e-06    -8.122139e-06    0.000000e+00
-8.624338e-06    -9.871838e-06    0.000000e+00
-6.820449e-06    -9.547301e-06    0.000000e+00
-5.068913e-06    -9.294676e-06    0.000000e+00
-3.356973e-06    -9.113935e-06    0.000000e+00
-1.671744e-06    -9.005300e-06    0.000000e+00
-3.773532e-19    -8.969049e-06    0.000000e+00
1.671744e-06    -9.005300e-06    0.000000e+00
3.356973e-06    -9.113935e-06    0.000000e+00
5.068913e-06    -9.294676e-06    0.000000e+00
6.820449e-06    -9.547301e-06    0.000000e+00
8.624338e-06    -9.871838e-06    0.000000e+00
-9.452128e-06    -1.179002e-05    0.000000e+00
-7.482678e-06    -1.147593e-05    0.000000e+00
-5.565791e-06    -1.123156e-05    0.000000e+00
-3.688437e-06    -1.105688e-05    0.000000e+00
-1.837569e-06    -1.095199e-05    0.000000e+00
-4.209224e-19    -1.091701e-05    0.000000e+00
1.837569e-06    -1.095199e-05    0.000000e+00
3.688437e-06    -1.105688e-05    0.000000e+00
5.565791e-06    -1.123156e-05    0.000000e+00
7.482678e-06    -1.147593e-05    0.000000e+00
9.452128e-06    -1.179002e-05    0.000000e+00
-1.025287e-05    -1.387120e-05    0.000000e+00
-8.123242e-06    -1.356758e-05    0.000000e+00
-6.046283e-06    -1.333140e-05    0.000000e+00
-4.008850e-06    -1.316265e-05    0.000000e+00
-1.997814e-06    -1.306137e-05    0.000000e+00
-4.593566e-19    -1.302760e-05    0.000000e+00
1.997814e-06    -1.306137e-05    0.000000e+00
4.008850e-06    -1.316265e-05    0.000000e+00
6.046283e-06    -1.333140e-05    0.000000e+00
8.123242e-06    -1.356758e-05    0.000000e+00
1.025287e-05    -1.387120e-05    0.000000e+00
-1.102648e-05    -1.610989e-05    0.000000e+00
-8.742113e-06    -1.581673e-05    0.000000e+00
-6.510452e-06    -1.558871e-05    0.000000e+00
-4.318325e-06    -1.542583e-05    0.000000e+00
-2.152566e-06    -1.532809e-05    0.000000e+00
-4.990083e-19    -1.529550e-05    0.000000e+00
2.152566e-06    -1.532809e-05    0.000000e+00
4.318325e-06    -1.542583e-05    0.000000e+00
6.510452e-06    -1.558871e-05    0.000000e+00
8.742113e-06    -1.581673e-05    0.000000e+00
1.102648e-05    -1.610989e-05    0.000000e+00
-1.177296e-05    -1.850062e-05    0.000000e+00
-9.339276e-06    -1.821793e-05    0.000000e+00
-6.958324e-06    -1.799806e-05    0.000000e+00
-4.616914e-06    -1.784101e-05    0.000000e+00
-2.301865e-06    -1.774678e-05    0.000000e+00
-5.481362e-19    -1.771537e-05    0.000000e+00
2.301865e-06    -1.774678e-05    0.000000e+00
4.616914e-06    -1.784101e-05    0.000000e+00
6.958324e-06    -1.799806e-05    0.000000e+00
9.339276e-06    -1.821793e-05    0.000000e+00
1.177296e-05    -1.850062e-05    0.000000e+00
-1.249228e-05    -2.103794e-05    0.000000e+00
-9.914727e-06    -2.076572e-05    0.000000e+00
-7.389909e-06    -2.055400e-05    0.000000e+00
-4.904637e-06    -2.040277e-05    0.000000e+00
-2.445728e-06    -2.031204e-05    0.000000e+00
-5.797941e-19    -2.028179e-05    0.000000e+00
2.445728e-06    -2.031204e-05    0.000000e+00
4.904637e-06    -2.040277e-05    0.000000e+00
7.389909e-06    -2.055400e-05    0.000000e+00
9.914727e-06    -2.076572e-05    0.000000e+00
1.249228e-05    -2.103794e-05    0.000000e+00
-1.318446e-05    -2.371642e-05    0.000000e+00
-1.046846e-05    -2.345467e-05    0.000000e+00
-7.805208e-06    -2.325109e-05    0.000000e+00
-5.181501e-06    -2.310568e-05    0.000000e+00
-2.584160e-06    -2.301844e-05    0.000000e+00
-6.050992e-19    -2.298935e-05    0.000000e+00
2.584160e-06    -2.301844e-05    0.000000e+00
5.181501e-06    -2.310568e-05    0.000000e+00
7.805208e-06    -2.325109e-05    0.000000e+00
1.046846e-05    -2.345467e-05    0.000000e+00
1.318446e-05    -2.371642e-05    0.000000e+00
-1.384949e-05    -2.653062e-05    0.000000e+00
-1.100049e-05    -2.627934e-05    0.000000e+00
-8.204222e-06    -2.608391e-05    0.000000e+00
-5.447509e-06    -2.594431e-05    0.000000e+00
-2.717163e-06    -2.586055e-05    0.000000e+00
-6.205575e-19    -2.583264e-05    0.000000e+00
2.717163e-06    -2.586055e-05    0.000000e+00
5.447509e-06    -2.594431e-05    0.000000e+00
8.204222e-06    -2.608391e-05    0.000000e+00
1.100049e-05    -2.627934e-05    0.000000e+00
1.384949e-05    -2.653062e-05    0.000000e+00
-1.448737e-05    -2.947511e-05    0.000000e+00
-1.151079e-05    -2.923430e-05    0.000000e+00
-8.586950e-06    -2.904701e-05    0.000000e+00
-5.702661e-06    -2.891323e-05    0.000000e+00
-2.844739e-06    -2.883296e-05    0.000000e+00
-6.255338e-19    -2.880621e-05    0.000000e+00
2.844739e-06    -2.883296e-05    0.000000e+00
5.702661e-06    -2.891323e-05    0.000000e+00
8.586950e-06    -2.904701e-05    0.000000e+00
1.151079e-05    -2.923430e-05    0.000000e+00
1.448737e-05    -2.947511e-05    0.000000e+00
-1.509811e-05    -3.254446e-05    0.000000e+00
-1.199938e-05    -3.231413e-05    0.000000e+00
-8.953392e-06    -3.213498e-05    0.000000e+00
-5.946955e-06    -3.200701e-05    0.000000e+00
-2.966886e-06    -3.193024e-05    0.000000e+00
-6.422627e-19    -3.190464e-05    0.000000e+00
2.966886e-06    -3.193024e-05    0.000000e+00
5.946955e-06    -3.200701e-05    0.000000e+00
8.953392e-06    -3.213498e-05    0.000000e+00
1.199938e-05    -3.231413e-05    0.000000e+00
1.509811e-05    -3.254446e-05    0.000000e+00
-1.568170e-05    -3.573325e-05    0.000000e+00
-1.246626e-05    -3.551338e-05    0.000000e+00
-9.303549e-06    -3.534238e-05    0.000000e+00
-6.180392e-06    -3.522023e-05    0.000000e+00
-3.083604e-06    -3.514694e-05    0.000000e+00
-6.715912e-19    -3.512251e-05    0.000000e+00
3.083604e-06    -3.514694e-05    0.000000e+00
6.180392e-06    -3.522023e-05    0.000000e+00
9.303549e-06    -3.534238e-05    0.000000e+00
1.246626e-05    -3.551338e-05    0.000000e+00
1.568170e-05    -3.573325e-05    0.000000e+00
-1.623815e-05    -3.903604e-05    0.000000e+00
-1.291142e-05    -3.882665e-05    0.000000e+00
-9.637419e-06    -3.866378e-05    0.000000e+00
-6.402972e-06    -3.854745e-05    0.000000e+00
-3.194894e-06    -3.847765e-05    0.000000e+00
-7.191310e-19    -3.845439e-05    0.000000e+00
3.194894e-06    -3.847765e-05    0.000000e+00
6.402972e-06    -3.854745e-05    0.000000e+00
9.637419e-06    -3.866378e-05    0.000000e+00
1.291142e-05    -3.882665e-05    0.000000e+00
1.623815e-05    -3.903604e-05    0.000000e+00
-1.676746e-05    -4.244741e-05    0.000000e+00
-1.333486e-05    -4.224848e-05    0.000000e+00
-9.955003e-06    -4.209376e-05    0.000000e+00
-6.614695e-06    -4.198325e-05    0.000000e+00
-3.300755e-06    -4.191694e-05    0.000000e+00
-7.868936e-19    -4.189484e-05    0.000000e+00
3.300755e-06    -4.191694e-05    0.000000e+00
6.614695e-06    -4.198325e-05    0.000000e+00
9.955003e-06    -4.209376e-05    0.000000e+00
1.333486e-05    -4.224848e-05    0.000000e+00
1.676746e-05    -4.244741e-05    0.000000e+00
-1.726962e-05    -4.596192e-05    0.000000e+00
-1.373659e-05    -4.577347e-05    0.000000e+00
-1.025630e-05    -4.562689e-05    0.000000e+00
-6.815560e-06    -4.552219e-05    0.000000e+00
-3.401188e-06    -4.545937e-05    0.000000e+00
-8.353862e-19    -4.543843e-05    0.000000e+00
3.401188e-06    -4.545937e-05    0.000000e+00
6.815560e-06    -4.552219e-05    0.000000e+00
1.025630e-05    -4.562689e-05    0.000000e+00
1.373659e-05    -4.577347e-05    0.000000e+00
1.726962e-05    -4.596192e-05    0.000000e+00
-1.774464e-05    -4.957415e-05    0.000000e+00
-1.411661e-05    -4.939617e-05    0.000000e+00
-1.054131e-05    -4.925773e-05    0.000000e+00
-7.005568e-06    -4.915885e-05    0.000000e+00
-3.496192e-06    -4.909952e-05    0.000000e+00
-8.694793e-19    -4.907975e-05    0.000000e+00
3.496192e-06    -4.909952e-05    0.000000e+00
7.005568e-06    -4.915885e-05    0.000000e+00
1.054131e-05    -4.925773e-05    0.000000e+00
1.411661e-05    -4.939617e-05    0.000000e+00
1.774464e-05    -4.957415e-05    0.000000e+00
-1.819252e-05    -5.327868e-05    0.000000e+00
-1.447491e-05    -5.311116e-05    0.000000e+00
-1.081004e-05    -5.298087e-05    0.000000e+00
-7.184718e-06    -5.288780e-05    0.000000e+00
-3.585767e-06    -5.283196e-05    0.000000e+00
-9.196660e-19    -5.281335e-05    0.000000e+00
3.585767e-06    -5.283196e-05    0.000000e+00
7.184718e-06    -5.288780e-05    0.000000e+00
1.081004e-05    -5.298087e-05    0.000000e+00
1.447491e-05    -5.311116e-05    0.000000e+00
1.819252e-05    -5.327868e-05    0.000000e+00
-1.861325e-05    -5.707006e-05    0.000000e+00
-1.481149e-05    -5.691301e-05    0.000000e+00
-1.106248e-05    -5.679086e-05    0.000000e+00
-7.353011e-06    -5.670361e-05    0.000000e+00
-3.669914e-06    -5.665126e-05    0.000000e+00
-9.361832e-19    -5.663381e-05    0.000000e+00
3.669914e-06    -5.665126e-05    0.000000e+00
7.353011e-06    -5.670361e-05    0.000000e+00
1.106248e-05    -5.679086e-05    0.000000e+00
1.481149e-05    -5.691301e-05    0.000000e+00
1.861325e-05    -5.707006e-05    0.000000e+00
-1.900683e-05    -6.094287e-05    0.000000e+00
-1.512636e-05    -6.079629e-05    0.000000e+00
-1.129863e-05    -6.068229e-05    0.000000e+00
-7.510448e-06    -6.060086e-05    0.000000e+00
-3.748633e-06    -6.055200e-05    0.000000e+00
-9.601118e-19    -6.053571e-05    0.000000e+00
3.748633e-06    -6.055200e-05    0.000000e+00
7.510448e-06    -6.060086e-05    0.000000e+00
1.129863e-05    -6.068229e-05    0.000000e+00
1.512636e-05    -6.079629e-05    0.000000e+00
1.900683e-05    -6.094287e-05    0.000000e+00
-1.937327e-05    -6.489169e-05    0.000000e+00
-1.541952e-05    -6.475558e-05    0.000000e+00
-1.151850e-05    -6.464972e-05    0.000000e+00
-7.657028e-06    -6.457410e-05    0.000000e+00
-3.821923e-06    -6.452873e-05    0.000000e+00
-9.704880e-19    -6.451361e-05    0.000000e+00
3.821923e-06    -6.452873e-05    0.000000e+00
7.657028e-06    -6.457410e-05    0.000000e+00
1.151850e-05    -6.464972e-05    0.000000e+00
1.541952e-05    -6.475558e-05    0.000000e+00
1.937327e-05    -6.489169e-05    0.000000e+00
-1.971256e-05    -6.891107e-05    0.000000e+00
-1.569095e-05    -6.878544e-05    0.000000e+00
-1.172208e-05    -6.868772e-05    0.000000e+00
-7.792750e-06    -6.861792e-05    0.000000e+00
-3.889784e-06    -6.857604e-05    0.000000e+00
-9.524885e-19    -6.856208e-05    0.000000e+00
3.889784e-06    -6.857604e-05    0.000000e+00
7.792750e-06    -6.861792e-05    0.000000e+00
1.172208e-05    -6.868772e-05    0.000000e+00
1.569095e-05    -6.878544e-05    0.000000e+00
1.971256e-05    -6.891107e-05    0.000000e+00
-2.002471e-05    -7.299559e-05    0.000000e+00
-1.594068e-05    -7.288043e-05    0.000000e+00
-1.190938e-05    -7.279086e-05    0.000000e+00
-7.917611e-06    -7.272688e-05    0.000000e+00
-3.952212e-06    -7.268851e-05    0.000000e+00
-9.446535e-19    -7.267572e-05    0.000000e+00
3.952212e-06    -7.268851e-05    0.000000e+00
7.917611e-06    -7.272688e-05    0.000000e+00
1.190938e-05    -7.279086e-05    0.000000e+00
1.594068e-05    -7.288043e-05    0.000000e+00
2.002471e-05    -7.299559e-05    0.000000e+00
-2.030971e-05    -7.713981e-05    0.000000e+00
-1.616869e-05    -7.703511e-05    0.000000e+00
-1.208038e-05    -7.695370e-05    0.000000e+00
-8.031599e-06    -7.689557e-05    0.000000e+00
-4.009198e-06    -7.686071e-05    0.000000e+00
-9.766290e-19    -7.684909e-05    0.000000e+00
4.009198e-06    -7.686071e-05    0.000000e+00
8.031599e-06    -7.689557e-05    0.000000e+00
1.208038e-05    -7.695370e-05    0.000000e+00
1.616869e-05    -7.703511e-05    0.000000e+00
2.030971e-05    -7.713981e-05    0.000000e+00
-2.056757e-05    -8.133827e-05    0.000000e+00
-1.637501e-05    -8.124404e-05    0.000000e+00
-1.223508e-05    -8.117079e-05    0.000000e+00
-8.134685e-06    -8.111855e-05    0.000000e+00
-4.060719e-06    -8.108725e-05    0.000000e+00
-1.026604e-18    -8.107682e-05    0.000000e+00
4.060719e-06    -8.108725e-05    0.000000e+00
8.134685e-06    -8.111855e-05    0.000000e+00
1.223508e-05    -8.117079e-05    0.000000e+00
1.637501e-05    -8.124404e-05    0.000000e+00
2.056757e-05    -8.133827e-05    0.000000e+00
-2.079833e-05    -8.558550e-05    0.000000e+00
-1.655963e-05    -8.550173e-05    0.000000e+00
-1.237344e-05    -8.543669e-05    0.000000e+00
-8.226802e-06    -8.539041e-05    0.000000e+00
-4.106724e-06    -8.536275e-05    0.000000e+00
-1.103260e-18    -8.535356e-05    0.000000e+00
4.106724e-06    -8.536275e-05    0.000000e+00
8.226802e-06    -8.539041e-05    0.000000e+00
1.237344e-05    -8.543669e-05    0.000000e+00
1.655963e-05    -8.550173e-05    0.000000e+00
2.079833e-05    -8.558550e-05    0.000000e+00
-2.100210e-05    -8.987603e-05    0.000000e+00
-1.672261e-05    -8.980269e-05    0.000000e+00
-1.249537e-05    -8.974594e-05    0.000000e+00
-8.307807e-06    -8.970578e-05    0.000000e+00
-4.147107e-06    -8.968192e-05    0.000000e+00
-1.171023e-18    -8.967401e-05    0.000000e+00
4.147107e-06    -8.968192e-05    0.000000e+00
8.307807e-06    -8.970578e-05    0.000000e+00
1.249537e-05    -8.974594e-05    0.000000e+00
1.672261e-05    -8.980269e-05    0.000000e+00
2.100210e-05    -8.987603e-05    0.000000e+00
-2.117912e-05    -9.420439e-05    0.000000e+00
-1.686399e-05    -9.414142e-05    0.000000e+00
-1.260070e-05    -9.409307e-05    0.000000e+00
-8.377428e-06    -9.405931e-05    0.000000e+00
-4.181679e-06    -9.403948e-05    0.000000e+00
-1.219304e-18    -9.403296e-05    0.000000e+00
4.181679e-06    -9.403948e-05    0.000000e+00
8.377428e-06    -9.405931e-05    0.000000e+00
1.260070e-05    -9.409307e-05    0.000000e+00
1.686399e-05    -9.414142e-05    0.000000e+00
2.117912e-05    -9.420439e-05    0.000000e+00
-2.132994e-05    -9.856523e-05    0.000000e+00
-1.698387e-05    -9.851248e-05    0.000000e+00
-1.268909e-05    -9.847276e-05    0.000000e+00
-8.435205e-06    -9.844575e-05    0.000000e+00
-4.210141e-06    -9.843026e-05    0.000000e+00
-1.286643e-18    -9.842523e-05    0.000000e+00
4.210141e-06    -9.843026e-05    0.000000e+00
8.435205e-06    -9.844575e-05    0.000000e+00
1.268909e-05    -9.847276e-05    0.000000e+00
1.698387e-05    -9.851248e-05    0.000000e+00
2.132994e-05    -9.856523e-05    0.000000e+00
-2.145562e-05    -1.029537e-04    0.000000e+00
-1.708235e-05    -1.029109e-04    0.000000e+00
-1.275997e-05    -1.028800e-04    0.000000e+00
-8.480517e-06    -1.028600e-04    0.000000e+00
-4.232143e-06    -1.028489e-04    0.000000e+00
-1.354406e-18    -1.028454e-04    0.000000e+00
4.232143e-06    -1.028489e-04    0.000000e+00
8.480517e-06    -1.028600e-04    0.000000e+00
1.275997e-05    -1.028800e-04    0.000000e+00
1.708235e-05    -1.029109e-04    0.000000e+00
2.145562e-05    -1.029537e-04    0.000000e+00
-2.155817e-05    -1.073660e-04    0.000000e+00
-1.715935e-05    -1.073327e-04    0.000000e+00
-1.281258e-05    -1.073105e-04    0.000000e+00
-8.512904e-06    -1.072970e-04    0.000000e+00
-4.247579e-06    -1.072895e-04    0.000000e+00
-1.299349e-18    -1.072870e-04    0.000000e+00
4.247579e-06    -1.072895e-04    0.000000e+00
8.512904e-06    -1.072970e-04    0.000000e+00
1.281258e-05    -1.073105e-04    0.000000e+00
1.715935e-05    -1.073327e-04    0.000000e+00
2.155817e-05    -1.073660e-04    0.000000e+00
-2.164067e-05    -1.118022e-04    0.000000e+00
-1.721429e-05    -1.117772e-04    0.000000e+00
-1.284670e-05    -1.117621e-04    0.000000e+00
-8.533270e-06    -1.117511e-04    0.000000e+00
-4.257281e-06    -1.117436e-04    0.000000e+00
-1.229892e-18    -1.117409e-04    0.000000e+00
4.257281e-06    -1.117436e-04    0.000000e+00
8.533270e-06    -1.117511e-04    0.000000e+00
1.284670e-05    -1.117621e-04    0.000000e+00
1.721429e-05    -1.117772e-04    0.000000e+00
2.164067e-05    -1.118022e-04    0.000000e+00
-2.170513e-05    -1.162704e-04    0.000000e+00
-1.724615e-05    -1.162523e-04    0.000000e+00
-1.286626e-05    -1.162338e-04    0.000000e+00
-8.546206e-06    -1.162132e-04    0.000000e+00
-4.263865e-06    -1.161978e-04    0.000000e+00
-1.232856e-18    -1.161922e-04    0.000000e+00
4.263865e-06    -1.161978e-04    0.000000e+00
8.546206e-06    -1.162132e-04    0.000000e+00
1.286626e-05    -1.162338e-04    0.000000e+00
1.724615e-05    -1.162523e-04    0.000000e+00
2.170513e-05    -1.162704e-04    0.000000e+00
-2.173924e-05    -1.208105e-04    0.000000e+00
-1.726634e-05    -1.207758e-04    0.000000e+00
-1.288608e-05    -1.207173e-04    0.000000e+00
-8.561321e-06    -1.206645e-04    0.000000e+00
-4.272039e-06    -1.206293e-04    0.000000e+00
-1.227139e-18    -1.206170e-04    0.000000e+00
4.272039e-06    -1.206293e-04    0.000000e+00
8.561321e-06    -1.206645e-04    0.000000e+00
1.288608e-05    -1.207173e-04    0.000000e+00
1.726634e-05    -1.207758e-04    0.000000e+00
2.173924e-05    -1.208105e-04    0.000000e+00

CELL_DATA      400
TENSORS Element_Stress8.600000e-01 double
1.820598e+06 2.551812e+05        0
2.551812e+05 4.163488e+05        0
       0        0        0

1.243720e+06 1.308538e+05        0
1.308538e+05 3.566178e+05        0
       0        0        0

8.651185e+05 4.301032e+04        0
4.301032e+04 2.749959e+05        0
       0        0        0

5.100063e+05 -3.578363e+03        0
-3.578363e+03 1.690094e+05        0
       0        0        0

1.688541e+05 -2.488323e+04        0
-2.488323e+04 5.694968e+04        0
       0        0        0

-1.688184e+05 -2.487711e+04        0
-2.487711e+04 -5.695775e+04        0
       0        0        0

-5.095306e+05 -3.579112e+03        0
-3.579112e+03 -1.688447e+05        0
       0        0        0

-8.637077e+05 4.293851e+04        0
4.293851e+04 -2.744671e+05        0
       0        0        0

-1.240734e+06 1.305652e+05        0
1.305652e+05 -3.554740e+05        0
       0        0        0

-1.814375e+06 2.543707e+05        0
2.543707e+05 -4.141970e+05        0
       0        0        0

1.642070e+06 4.159748e+04        0
4.159748e+04 4.234799e+03        0
       0        0        0

1.322354e+06 1.206454e+05        0
1.206454e+05 1.286843e+05        0
       0        0        0

9.082521e+05 9.900755e+04        0
9.900755e+04 1.315191e+05        0
       0        0        0

5.364025e+05 7.580678e+04        0
7.580678e+04 9.193311e+04        0
       0        0        0

1.768172e+05 6.321707e+04        0
6.321707e+04 3.207757e+04        0
       0        0        0

-1.778550e+05 6.319873e+04        0
6.319873e+04 -3.316896e+04        0
       0        0        0

-5.369363e+05 7.574133e+04        0
7.574133e+04 -9.284490e+04        0
       0        0        0

-9.077061e+05 9.886737e+04        0
9.886737e+04 -1.320379e+05        0
       0        0        0

-1.319830e+06 1.204079e+05        0
1.204079e+05 -1.284324e+05        0
       0        0        0

-1.637466e+06 4.151082e+04        0
4.151082e+04 -3.136555e+03        0
       0        0        0

1.584953e+06 1.541639e+04        0
1.541639e+04 6.615316e+03        0
       0        0        0

1.271591e+06 6.833109e+04        0
6.833109e+04 1.757728e+04        0
       0        0        0

9.146413e+05 1.015639e+05        0
1.015639e+05 4.237686e+04        0
       0        0        0

5.430826e+05 1.074765e+05        0
1.074765e+05 3.592346e+04        0
       0        0        0

1.791459e+05 1.074054e+05        0
1.074054e+05 1.272037e+04        0
       0        0        0

-1.824790e+05 1.073775e+05        0
1.073775e+05 -1.611190e+04        0
       0        0        0

-5.458838e+05 1.073933e+05        0
1.073933e+05 -3.912503e+04        0
       0        0        0

-9.163117e+05 1.014348e+05        0
1.014348e+05 -4.515293e+04        0
       0        0        0

-1.271565e+06 6.821622e+04        0
6.821622e+04 -1.966893e+04        0
       0        0        0

-1.582978e+06 1.538448e+04        0
1.538448e+04 -7.911807e+03        0
       0        0        0

1.546129e+06 1.427370e+04        0
1.427370e+04 -3.975752e+03        0
       0        0        0

1.226683e+06 5.548208e+04        0
5.548208e+04 -1.953361e+03        0
       0        0        0

8.865538e+05 9.245024e+04        0
9.245024e+04 2.933168e+03        0
       0        0        0

5.331314e+05 1.146030e+05        0
1.146030e+05 5.877770e+03        0
       0        0        0

1.753740e+05 1.233579e+05        0
1.233579e+05 6.880625e+02        0
       0        0        0

-1.820438e+05 1.233283e+05        0
1.233283e+05 -7.415933e+03        0
       0        0        0

-5.392752e+05 1.145213e+05        0
1.145213e+05 -1.241206e+04        0
       0        0        0

-8.916350e+05 9.234262e+04        0
9.234262e+04 -9.058365e+03        0
       0        0        0

-1.230189e+06 5.539388e+04        0
5.539388e+04 -3.528931e+03        0
       0        0        0

-1.547532e+06 1.424568e+04        0
1.424568e+04 -5.504384e+02        0
       0        0        0

1.509427e+06 1.713063e+04        0
1.713063e+04 -5.567249e+03        0
       0        0        0

1.185340e+06 5.448733e+04        0
5.448733e+04 -8.577651e+03        0
       0        0        0

8.541561e+05 8.905469e+04        0
8.905469e+04 -8.329305e+03        0
       0        0        0

5.137340e+05 1.136408e+05        0
1.136408e+05 -6.745280e+03        0
       0        0        0

1.681056e+05 1.258450e+05        0
1.258450e+05 -5.639044e+03        0
       0        0        0

-1.789903e+05 1.258166e+05        0
1.258166e+05 -5.300819e+03        0
       0        0        0

-5.241237e+05 1.135646e+05        0
1.135646e+05 -4.010288e+03        0
       0        0        0

-8.635542e+05 8.895612e+04        0
8.895612e+04 -2.042812e+03        0
       0        0        0

-1.193244e+06 5.440409e+04        0
5.440409e+04 -1.179541e+03        0
       0        0        0

-1.515273e+06 1.709766e+04        0
1.709766e+04 -3.264824e+03        0
       0        0        0

1.469671e+06 1.958963e+04        0
1.958963e+04 -7.911531e+03        0
       0        0        0

1.147077e+06 5.644559e+04        0
5.644559e+04 -1.054799e+04        0
       0        0        0

8.224151e+05 8.838594e+04        0
8.838594e+04 -1.192774e+04        0
       0        0        0

4.928620e+05 1.117722e+05        0
1.117722e+05 -1.113898e+04        0
       0        0        0

1.594065e+05 1.239614e+05        0
1.239614e+05 -9.157848e+03        0
       0        0        0

-1.752704e+05 1.239347e+05        0
1.239347e+05 -6.757342e+03        0
       0        0        0

-5.082716e+05 1.117003e+05        0
1.117003e+05 -4.611022e+03        0
       0        0        0

-8.369138e+05 8.829171e+04        0
8.829171e+04 -3.479956e+03        0
       0        0        0

-1.160194e+06 5.636191e+04        0
5.636191e+04 -4.312364e+03        0
       0        0        0

-1.480879e+06 1.955284e+04        0
1.955284e+04 -6.139554e+03        0
       0        0        0

1.427069e+06 2.114429e+04        0
2.114429e+04 -1.052964e+04        0
       0        0        0

1.109854e+06 5.834958e+04        0
5.834958e+04 -1.236661e+04        0
       0        0        0

7.924051e+05 8.864128e+04        0
8.864128e+04 -1.362108e+04        0
       0        0        0

4.726277e+05 1.103428e+05        0
1.103428e+05 -1.337050e+04        0
       0        0        0

1.506199e+05 1.216735e+05        0
1.216735e+05 -1.181697e+04        0
       0        0        0

-1.721469e+05 1.216483e+05        0
1.216483e+05 -9.757740e+03        0
       0        0        0

-4.937482e+05 1.102742e+05        0
1.102742e+05 -8.067258e+03        0
       0        0        0

-8.127094e+05 8.854973e+04        0
8.854973e+04 -7.533908e+03        0
       0        0        0

-1.128918e+06 5.826553e+04        0
5.826553e+04 -8.339735e+03        0
       0        0        0

-1.444434e+06 2.110561e+04        0
2.110561e+04 -9.528609e+03        0
       0        0        0

1.382471e+06 2.200181e+04        0
2.200181e+04 -1.363722e+04        0
       0        0        0

1.072891e+06 5.961398e+04        0
5.961398e+04 -1.472183e+04        0
       0        0        0

7.635785e+05 8.901007e+04        0
8.901007e+04 -1.557414e+04        0
       0        0        0

4.533125e+05 1.094858e+05        0
1.094858e+05 -1.552412e+04        0
       0        0        0

1.419522e+05 1.200358e+05        0
1.200358e+05 -1.458784e+04        0
       0        0        0

-1.697603e+05 1.200117e+05        0
1.200117e+05 -1.326479e+04        0
       0        0        0

-4.807667e+05 1.094198e+05        0
1.094198e+05 -1.222641e+04        0
       0        0        0

-7.903212e+05 8.892090e+04        0
8.892090e+04 -1.196593e+04        0
       0        0        0

-1.098554e+06 5.953060e+04        0
5.953060e+04 -1.248635e+04        0
       0        0        0

-1.406666e+06 2.196271e+04        0
2.196271e+04 -1.309846e+04        0
       0        0        0

1.336650e+06 2.243103e+04        0
2.243103e+04 -1.712975e+04        0
       0        0        0

1.035846e+06 6.032508e+04        0
6.032508e+04 -1.770734e+04        0
       0        0        0

7.353690e+05 8.928001e+04        0
8.928001e+04 -1.819357e+04        0
       0        0        0

4.345842e+05 1.090314e+05        0
1.090314e+05 -1.820574e+04        0
       0        0        0

1.333510e+05 1.190751e+05        0
1.190751e+05 -1.770719e+04        0
       0        0        0

-1.679948e+05 1.190519e+05        0
1.190519e+05 -1.697818e+04        0
       0        0        0

-4.689286e+05 1.089678e+05        0
1.089678e+05 -1.641605e+04        0
       0        0        0

-7.691116e+05 8.919329e+04        0
8.919329e+04 -1.629667e+04        0
       0        0        0

-1.068676e+06 6.024325e+04        0
6.024325e+04 -1.657480e+04        0
       0        0        0

-1.368246e+06 2.239236e+04        0
2.239236e+04 -1.685617e+04        0
       0        0        0

1.290108e+06 2.262769e+04        0
2.262769e+04 -2.093370e+04        0
       0        0        0

9.986145e+05 6.068320e+04        0
6.068320e+04 -2.119241e+04        0
       0        0        0

7.073840e+05 8.943847e+04        0
8.943847e+04 -2.142407e+04        0
       0        0        0

4.161153e+05 1.088122e+05        0
1.088122e+05 -2.143279e+04        0
       0        0        0

1.247137e+05 1.185759e+05        0
1.185759e+05 -2.118594e+04        0
       0        0        0

-1.666835e+05 1.185536e+05        0
1.185536e+05 -2.082274e+04        0
       0        0        0

-4.578408e+05 1.087507e+05        0
1.087507e+05 -2.055219e+04        0
       0        0        0

-7.486181e+05 8.935433e+04        0
8.935433e+04 -2.051028e+04        0
       0        0        0

-1.039104e+06 6.060345e+04        0
6.060345e+04 -2.065826e+04        0
       0        0        0

-1.329592e+06 2.258991e+04        0
2.258991e+04 -2.079207e+04        0
       0        0        0

1.243138e+06 2.270943e+04        0
2.270943e+04 -2.498210e+04        0
       0        0        0

9.611829e+05 6.084707e+04        0
6.084707e+04 -2.504187e+04        0
       0        0        0

6.794119e+05 8.952007e+04        0
8.952007e+04 -2.510676e+04        0
       0        0        0

3.976942e+05 1.087151e+05        0
1.087151e+05 -2.508705e+04        0
       0        0        0

1.159751e+05 1.183403e+05        0
1.183403e+05 -2.496213e+04        0
       0        0        0

-1.656966e+05 1.183187e+05        0
1.183187e+05 -2.479576e+04        0
       0        0        0

-4.472257e+05 1.086557e+05        0
1.086557e+05 -2.468699e+04        0
       0        0        0

-7.285608e+05 8.943859e+04        0
8.943859e+04 -2.469694e+04        0
       0        0        0

-1.009752e+06 6.076971e+04        0
6.076971e+04 -2.480000e+04        0
       0        0        0

-1.290922e+06 2.267274e+04        0
2.267274e+04 -2.489961e+04        0
       0        0        0

1.195902e+06 2.273919e+04        0
2.273919e+04 -2.922324e+04        0
       0        0        0

9.235708e+05 6.091458e+04        0
6.091458e+04 -2.915047e+04        0
       0        0        0

6.513590e+05 8.955767e+04        0
8.955767e+04 -2.910387e+04        0
       0        0        0

3.792147e+05 1.086759e+05        0
1.086759e+05 -2.904718e+04        0
       0        0        0

1.071092e+05 1.182389e+05        0
1.182389e+05 -2.896999e+04        0
       0        0        0

-1.649443e+05 1.182180e+05        0
1.182180e+05 -2.889900e+04        0
       0        0        0

-4.369126e+05 1.086185e+05        0
1.086185e+05 -2.887696e+04        0
       0        0        0

-7.087800e+05 8.947891e+04        0
8.947891e+04 -2.892824e+04        0
       0        0        0

-9.805709e+05 6.083975e+04        0
6.083975e+04 -2.903784e+04        0
       0        0        0

-1.252330e+06 2.270369e+04        0
2.270369e+04 -2.916302e+04        0
       0        0        0

1.148491e+06 2.274763e+04        0
2.274763e+04 -3.361527e+04        0
       0        0        0

8.858087e+05 6.093851e+04        0
6.093851e+04 -3.344415e+04        0
       0        0        0

6.231974e+05 8.957284e+04        0
8.957284e+04 -3.331675e+04        0
       0        0        0

3.606384e+05 1.086618e+05        0
1.086618e+05 -3.322145e+04        0
       0        0        0

9.811734e+04 1.181997e+05        0
1.181997e+05 -3.315416e+04        0
       0        0        0

-1.643651e+05 1.181796e+05        0
1.181796e+05 -3.312513e+04        0
       0        0        0

-4.268000e+05 1.086064e+05        0
1.086064e+05 -3.315081e+04        0
       0        0        0

-6.891844e+05 8.949683e+04        0
8.949683e+04 -3.323922e+04        0
       0        0        0

-9.515284e+05 6.086627e+04        0
6.086627e+04 -3.338182e+04        0
       0        0        0

-1.213844e+06 2.271337e+04        0
2.271337e+04 -3.356049e+04        0
       0        0        0

1.100960e+06 2.274841e+04        0
2.274841e+04 -3.812278e+04        0
       0        0        0

8.479289e+05 6.094459e+04        0
6.094459e+04 -3.787019e+04        0
       0        0        0

5.949322e+05 8.957762e+04        0
8.957762e+04 -3.767803e+04        0
       0        0        0

3.419635e+05 1.086573e+05        0
1.086573e+05 -3.754494e+04        0
       0        0        0

8.901558e+04 1.181867e+05        0
1.181867e+05 -3.747027e+04        0
       0        0        0

-1.639142e+05 1.181674e+05        0
1.181674e+05 -3.745768e+04        0
       0        0        0

-4.168253e+05 1.086039e+05        0
1.086039e+05 -3.751247e+04        0
       0        0        0

-6.697180e+05 8.950436e+04        0
8.950436e+04 -3.763608e+04        0
       0        0        0

-9.225952e+05 6.087498e+04        0
6.087498e+04 -3.782343e+04        0
       0        0        0

-1.175457e+06 2.271539e+04        0
2.271539e+04 -3.806658e+04        0
       0        0        0

1.053347e+06 2.274703e+04        0
2.274703e+04 -4.271420e+04        0
       0        0        0

8.099626e+05 6.094429e+04        0
6.094429e+04 -4.238866e+04        0
       0        0        0

5.665832e+05 8.957803e+04        0
8.957803e+04 -4.214000e+04        0
       0        0        0

3.232060e+05 1.086559e+05        0
1.086559e+05 -4.197068e+04        0
       0        0        0

7.982720e+04 1.181835e+05        0
1.181835e+05 -4.188171e+04        0
       0        0        0

-1.635563e+05 1.181649e+05        0
1.181649e+05 -4.187447e+04        0
       0        0        0

-4.069457e+05 1.086046e+05        0
1.086046e+05 -4.195008e+04        0
       0        0        0

-6.503417e+05 8.950753e+04        0
8.950753e+04 -4.210767e+04        0
       0        0        0

-8.937438e+05 6.087730e+04        0
6.087730e+04 -4.234382e+04        0
       0        0        0

-1.137148e+06 2.271526e+04        0
2.271526e+04 -4.265429e+04        0
       0        0        0

1.005683e+06 2.274539e+04        0
2.274539e+04 -4.736038e+04        0
       0        0        0

7.719394e+05 6.094219e+04        0
6.094219e+04 -4.696667e+04        0
       0        0        0

5.381756e+05 8.957681e+04        0
8.957681e+04 -4.666608e+04        0
       0        0        0

3.043894e+05 1.086553e+05        0
1.086553e+05 -4.646218e+04        0
       0        0        0

7.057816e+04 1.181832e+05        0
1.181832e+05 -4.635676e+04        0
       0        0        0

-1.632605e+05 1.181653e+05        0
1.181653e+05 -4.635058e+04        0
       0        0        0

-3.971278e+05 1.086060e+05        0
1.086060e+05 -4.644347e+04        0
       0        0        0

-6.310240e+05 8.950907e+04        0
8.950907e+04 -4.663394e+04        0
       0        0        0

-8.649473e+05 6.087783e+04        0
6.087783e+04 -4.691929e+04        0
       0        0        0

-1.098893e+06 2.271487e+04        0
2.271487e+04 -4.729637e+04        0
       0        0        0

9.579955e+05 2.274400e+04        0
2.274400e+04 -5.203381e+04        0
       0        0        0

7.338873e+05 6.093989e+04        0
6.093989e+04 -5.157525e+04        0
       0        0        0

5.097360e+05 8.957508e+04        0
8.957508e+04 -5.122566e+04        0
       0        0        0

2.855393e+05 1.086546e+05        0
1.086546e+05 -5.098880e+04        0
       0        0        0

6.129495e+04 1.181835e+05        0
1.181835e+05 -5.086675e+04        0
       0        0        0

-1.629989e+05 1.181663e+05        0
1.181663e+05 -5.086025e+04        0
       0        0        0

-3.873432e+05 1.086073e+05        0
1.086073e+05 -5.096887e+04        0
       0        0        0

-6.117373e+05 8.951011e+04        0
8.951011e+04 -5.119108e+04        0
       0        0        0

-8.361791e+05 6.087815e+04        0
6.087815e+04 -5.152449e+04        0
       0        0        0

-1.060664e+06 2.271473e+04        0
2.271473e+04 -5.196605e+04        0
       0        0        0

9.103102e+05 2.274290e+04        0
2.274290e+04 -5.670829e+04        0
       0        0        0

6.958326e+05 6.093780e+04        0
6.093780e+04 -5.618768e+04        0
       0        0        0

4.812907e+05 8.957328e+04        0
8.957328e+04 -5.579141e+04        0
       0        0        0

2.666817e+05 1.086537e+05        0
1.086537e+05 -5.552312e+04        0
       0        0        0

5.200354e+04 1.181835e+05        0
1.181835e+05 -5.538500e+04        0
       0        0        0

-1.627453e+05 1.181671e+05        0
1.181671e+05 -5.537790e+04        0
       0        0        0

-3.775653e+05 1.086084e+05        0
1.086084e+05 -5.550144e+04        0
       0        0        0

-5.924555e+05 8.951107e+04        0
8.951107e+04 -5.575422e+04        0
       0        0        0

-8.074137e+05 6.087870e+04        0
6.087870e+04 -5.613390e+04        0
       0        0        0

-1.022436e+06 2.271486e+04        0
2.271486e+04 -5.663735e+04        0
       0        0        0

8.626520e+05 2.274198e+04        0
2.274198e+04 -6.135878e+04        0
       0        0        0

6.578008e+05 6.093596e+04        0
6.093596e+04 -6.077882e+04        0
       0        0        0

4.528650e+05 8.957150e+04        0
8.957150e+04 -6.033795e+04        0
       0        0        0

2.478418e+05 1.086526e+05        0
1.086526e+05 -6.003971e+04        0
       0        0        0

4.272898e+04 1.181833e+05        0
1.181833e+05 -5.988630e+04        0
       0        0        0

-1.624747e+05 1.181676e+05        0
1.181676e+05 -5.987867e+04        0
       0        0        0

-3.677693e+05 1.086093e+05        0
1.086093e+05 -6.001656e+04        0
       0        0        0

-5.731539e+05 8.951206e+04        0
8.951206e+04 -6.029866e+04        0
       0        0        0

-7.786261e+05 6.087948e+04        0
6.087948e+04 -6.072266e+04        0
       0        0        0

-9.841819e+05 2.271520e+04        0
2.271520e+04 -6.128530e+04        0
       0        0        0

8.150447e+05 2.274119e+04        0
2.274119e+04 -6.596136e+04        0
       0        0        0

6.198157e+05 6.093429e+04        0
6.093429e+04 -6.532473e+04        0
       0        0        0

4.244830e+05 8.956978e+04        0
8.956978e+04 -6.484132e+04        0
       0        0        0

2.290436e+05 1.086514e+05        0
1.086514e+05 -6.451456e+04        0
       0        0        0

3.349528e+04 1.181828e+05        0
1.181828e+05 -6.434667e+04        0
       0        0        0

-1.621631e+05 1.181678e+05        0
1.181678e+05 -6.433865e+04        0
       0        0        0

-3.579315e+05 1.086101e+05        0
1.086101e+05 -6.449035e+04        0
       0        0        0

-5.538087e+05 8.951311e+04        0
8.951311e+04 -6.480052e+04        0
       0        0        0

-7.497925e+05 6.088043e+04        0
6.088043e+04 -6.526685e+04        0
       0        0        0

-9.458791e+05 2.271565e+04        0
2.271565e+04 -6.588596e+04        0
       0        0        0

7.675109e+05 2.274046e+04        0
2.274046e+04 -7.049318e+04        0
       0        0        0

5.819002e+05 6.093273e+04        0
6.093273e+04 -6.980260e+04        0
       0        0        0

3.961677e+05 8.956811e+04        0
8.956811e+04 -6.927870e+04        0
       0        0        0

2.103102e+05 1.086501e+05        0
1.086501e+05 -6.892486e+04        0
       0        0        0

2.432535e+04 1.181822e+05        0
1.181822e+05 -6.874327e+04        0
       0        0        0

-1.617877e+05 1.181679e+05        0
1.181679e+05 -6.873499e+04        0
       0        0        0

-3.480290e+05 1.086108e+05        0
1.086108e+05 -6.889993e+04        0
       0        0        0

-5.343973e+05 8.951420e+04        0
8.951420e+04 -6.923690e+04        0
       0        0        0

-7.208901e+05 6.088150e+04        0
6.088150e+04 -6.974356e+04        0
       0        0        0

-9.075041e+05 2.271617e+04        0
2.271617e+04 -7.041649e+04        0
       0        0        0

7.200723e+05 2.273978e+04        0
2.273978e+04 -7.493249e+04        0
       0        0        0

5.440762e+05 6.093125e+04        0
6.093125e+04 -7.419071e+04        0
       0        0        0

3.679410e+05 8.956648e+04        0
8.956648e+04 -7.362841e+04        0
       0        0        0

1.916633e+05 1.086488e+05        0
1.086488e+05 -7.324889e+04        0
       0        0        0

1.524098e+04 1.181815e+05        0
1.181815e+05 -7.305436e+04        0
       0        0        0

-1.613270e+05 1.181679e+05        0
1.181679e+05 -7.304590e+04        0
       0        0        0

-3.380404e+05 1.086115e+05        0
1.086115e+05 -7.322349e+04        0
       0        0        0

-5.148979e+05 8.951533e+04        0
8.951533e+04 -7.358598e+04        0
       0        0        0

-6.918973e+05 6.088265e+04        0
6.088265e+04 -7.413101e+04        0
       0        0        0

-8.690350e+05 2.271673e+04        0
2.271673e+04 -7.485511e+04        0
       0        0        0

6.727496e+05 2.273915e+04        0
2.273915e+04 -7.925863e+04        0
       0        0        0

5.063643e+05 6.092987e+04        0
6.092987e+04 -7.846843e+04        0
       0        0        0

3.398235e+05 8.956489e+04        0
8.956489e+04 -7.786983e+04        0
       0        0        0

1.731238e+05 1.086474e+05        0
1.086474e+05 -7.746605e+04        0
       0        0        0

6.262879e+03 1.181806e+05        0
1.181806e+05 -7.725929e+04        0
       0        0        0

-1.607601e+05 1.181679e+05        0
1.181679e+05 -7.725069e+04        0
       0        0        0

-3.279448e+05 1.086121e+05        0
1.086121e+05 -7.744030e+04        0
       0        0        0

-4.952900e+05 8.951651e+04        0
8.951651e+04 -7.782701e+04        0
       0        0        0

-6.627933e+05 6.088389e+04        0
6.088389e+04 -7.840849e+04        0
       0        0        0

-8.304513e+05 2.271735e+04        0
2.271735e+04 -7.918115e+04        0
       0        0        0

6.255623e+05 2.273859e+04        0
2.273859e+04 -8.345202e+04        0
       0        0        0

4.687842e+05 6.092860e+04        0
6.092860e+04 -8.261621e+04        0
       0        0        0

3.118350e+05 8.956335e+04        0
8.956335e+04 -8.198342e+04        0
       0        0        0

1.547113e+05 1.086460e+05        0
1.086460e+05 -8.155678e+04        0
       0        0        0

-2.589332e+03 1.181797e+05        0
1.181797e+05 -8.133849e+04        0
       0        0        0

-1.600676e+05 1.181676e+05        0
1.181676e+05 -8.132976e+04        0
       0        0        0

-3.177230e+05 1.086127e+05        0
1.086127e+05 -8.153073e+04        0
       0        0        0

-4.755540e+05 8.951773e+04        0
8.951773e+04 -8.194037e+04        0
       0        0        0

-6.335585e+05 6.088526e+04        0
6.088526e+04 -8.255636e+04        0
       0        0        0

-7.917331e+05 2.271804e+04        0
2.271804e+04 -8.337502e+04        0
       0        0        0

5.785286e+05 2.273817e+04        0
2.273817e+04 -8.749418e+04        0
       0        0        0

4.313542e+05 6.092752e+04        0
6.092752e+04 -8.661559e+04        0
       0        0        0

2.839942e+05 8.956185e+04        0
8.956185e+04 -8.595072e+04        0
       0        0        0

1.364444e+05 1.086444e+05        0
1.086444e+05 -8.550260e+04        0
       0        0        0

-1.129712e+04 1.181785e+05        0
1.181785e+05 -8.527347e+04        0
       0        0        0

-1.592310e+05 1.181672e+05        0
1.181672e+05 -8.526462e+04        0
       0        0        0

-3.073564e+05 1.086132e+05        0
1.086132e+05 -8.547630e+04        0
       0        0        0

-4.556717e+05 8.951900e+04        0
8.951900e+04 -8.590754e+04        0
       0        0        0

-6.041745e+05 6.088680e+04        0
6.088680e+04 -8.655609e+04        0
       0        0        0

-7.528619e+05 2.271886e+04        0
2.271886e+04 -8.741819e+04        0
       0        0        0

5.316658e+05 2.273795e+04        0
2.273795e+04 -9.136769e+04        0
       0        0        0

3.940921e+05 6.092663e+04        0
6.092663e+04 -9.044910e+04        0
       0        0        0

2.563184e+05 8.956035e+04        0
8.956035e+04 -8.975416e+04        0
       0        0        0

1.183407e+05 1.086427e+05        0
1.086427e+05 -8.928591e+04        0
       0        0        0

-1.984304e+04 1.181771e+05        0
1.181771e+05 -8.904673e+04        0
       0        0        0

-1.582329e+05 1.181665e+05        0
1.181665e+05 -8.903797e+04        0
       0        0        0

-2.968278e+05 1.086135e+05        0
1.086135e+05 -8.925978e+04        0
       0        0        0

-4.356257e+05 8.952026e+04        0
8.952026e+04 -8.971126e+04        0
       0        0        0

-5.746240e+05 6.088854e+04        0
6.088854e+04 -9.039032e+04        0
       0        0        0

-7.138200e+05 2.271989e+04        0
2.271989e+04 -9.129325e+04        0
       0        0        0

4.849900e+05 2.273796e+04        0
2.273796e+04 -9.505616e+04        0
       0        0        0

3.570143e+05 6.092577e+04        0
6.092577e+04 -9.410011e+04        0
       0        0        0

2.288244e+05 8.955862e+04        0
8.955862e+04 -9.337680e+04        0
       0        0        0

1.004164e+05 1.086409e+05        0
1.086409e+05 -9.288973e+04        0
       0        0        0

-2.821084e+04 1.181759e+05        0
1.181759e+05 -9.264170e+04        0
       0        0        0

-1.570570e+05 1.181660e+05        0
1.181660e+05 -9.263378e+04        0
       0        0        0

-2.861209e+05 1.086137e+05        0
1.086137e+05 -9.286554e+04        0
       0        0        0

-4.153999e+05 8.952130e+04        0
8.952130e+04 -9.333582e+04        0
       0        0        0

-5.448908e+05 6.089031e+04        0
6.089031e+04 -9.404299e+04        0
       0        0        0

-6.745908e+05 2.272114e+04        0
2.272114e+04 -9.498387e+04        0
       0        0        0

4.385165e+05 2.273798e+04        0
2.273798e+04 -9.854412e+04        0
       0        0        0

3.201365e+05 6.092413e+04        0
6.092413e+04 -9.755241e+04        0
       0        0        0

2.015270e+05 8.955604e+04        0
8.955604e+04 -9.680154e+04        0
       0        0        0

8.268605e+04 1.086393e+05        0
1.086393e+05 -9.629692e+04        0
       0        0        0

-3.638570e+04 1.181760e+05        0
1.181760e+05 -9.604233e+04        0
       0        0        0

-1.556878e+05 1.181669e+05        0
1.181669e+05 -9.603768e+04        0
       0        0        0

-2.752197e+05 1.086142e+05        0
1.086142e+05 -9.628030e+04        0
       0        0        0

-3.949789e+05 8.952148e+04        0
8.952148e+04 -9.676788e+04        0
       0        0        0

-5.149601e+05 6.089129e+04        0
6.089129e+04 -9.749979e+04        0
       0        0        0

-6.351590e+05 2.272241e+04        0
2.272241e+04 -9.847493e+04        0
       0        0        0

3.922608e+05 2.273705e+04        0
2.273705e+04 -1.018168e+05        0
       0        0        0

2.834737e+05 6.091918e+04        0
6.091918e+04 -1.007892e+05        0
       0        0        0

1.744389e+05 8.955103e+04        0
8.955103e+04 -1.000095e+05        0
       0        0        0

6.516112e+04 1.086394e+05        0
1.086394e+05 -9.948864e+04        0
       0        0        0

-4.435479e+04 1.181814e+05        0
1.181814e+05 -9.923256e+04        0
       0        0        0

-1.541098e+05 1.181730e+05        0
1.181730e+05 -9.923756e+04        0
       0        0        0

-2.641076e+05 1.086162e+05        0
1.086162e+05 -9.949471e+04        0
       0        0        0

-3.743470e+05 8.951924e+04        0
8.951924e+04 -9.999807e+04        0
       0        0        0

-4.848186e+05 6.088897e+04        0
6.088897e+04 -1.007491e+05        0
       0        0        0

-5.955116e+05 2.272272e+04        0
2.272272e+04 -1.017526e+05        0
       0        0        0

3.462408e+05 2.273213e+04        0
2.273213e+04 -1.048596e+05        0
       0        0        0

2.470402e+05 6.090435e+04        0
6.090435e+04 -1.037913e+05        0
       0        0        0

1.475679e+05 8.953998e+04        0
8.953998e+04 -1.029768e+05        0
       0        0        0

4.784706e+04 1.086446e+05        0
1.086446e+05 -1.024414e+05        0
       0        0        0

-5.210859e+04 1.182015e+05        0
1.182015e+05 -1.021950e+05        0
       0        0        0

-1.523066e+05 1.181938e+05        0
1.181938e+05 -1.022248e+05        0
       0        0        0

-2.527641e+05 1.086235e+05        0
1.086235e+05 -1.025064e+05        0
       0        0        0

-3.534861e+05 8.951095e+04        0
8.951095e+04 -1.030243e+05        0
       0        0        0

-4.544544e+05 6.087677e+04        0
6.087677e+04 -1.037842e+05        0
       0        0        0

-5.556397e+05 2.271905e+04        0
2.271905e+04 -1.048050e+05        0
       0        0        0

3.004822e+05 2.271539e+04        0
2.271539e+04 -1.076574e+05        0
       0        0        0

2.108493e+05 6.086437e+04        0
6.086437e+04 -1.065333e+05        0
       0        0        0

1.209111e+05 8.951546e+04        0
8.951546e+04 -1.056691e+05        0
       0        0        0

3.073692e+04 1.086641e+05        0
1.086641e+05 -1.051219e+05        0
       0        0        0

-5.964355e+04 1.182578e+05        0
1.182578e+05 -1.049091e+05        0
       0        0        0

-1.502580e+05 1.182508e+05        0
1.182508e+05 -1.049962e+05        0
       0        0        0

-2.411586e+05 1.086450e+05        0
1.086450e+05 -1.053249e+05        0
       0        0        0

-3.323700e+05 8.948920e+04        0
8.948920e+04 -1.058577e+05        0
       0        0        0

-4.238570e+05 6.083943e+04        0
6.083943e+04 -1.066065e+05        0
       0        0        0

-5.155448e+05 2.270357e+04        0
2.270357e+04 -1.076228e+05        0
       0        0        0

2.550302e+05 2.266861e+04        0
2.266861e+04 -1.101928e+05        0
       0        0        0

1.749112e+05 6.076689e+04        0
6.076689e+04 -1.089786e+05        0
       0        0        0

9.444394e+04 8.946363e+04        0
8.946363e+04 -1.080332e+05        0
       0        0        0

1.379929e+04 1.087177e+05        0
1.087177e+05 -1.074804e+05        0
       0        0        0

-6.696699e+04 1.183950e+05        0
1.183950e+05 -1.073481e+05        0
       0        0        0

-1.479345e+05 1.183887e+05        0
1.183887e+05 -1.075565e+05        0
       0        0        0

-2.292386e+05 1.087005e+05        0
1.087005e+05 -1.079789e+05        0
       0        0        0

-3.109536e+05 8.944014e+04        0
8.944014e+04 -1.085307e+05        0
       0        0        0

-3.930164e+05 6.074460e+04        0
6.074460e+04 -1.092323e+05        0
       0        0        0

-4.752498e+05 2.265805e+04        0
2.265805e+04 -1.102010e+05        0
       0        0        0

2.099707e+05 2.255312e+04        0
2.255312e+04 -1.124452e+05        0
       0        0        0

1.392276e+05 6.054966e+04        0
6.054966e+04 -1.110720e+05        0
       0        0        0

6.809783e+04 8.936201e+04        0
8.936201e+04 -1.099896e+05        0
       0        0        0

-3.042201e+03 1.088455e+05        0
1.088455e+05 -1.094456e+05        0
       0        0        0

-7.410476e+04 1.186961e+05        0
1.186961e+05 -1.094775e+05        0
       0        0        0

-1.452897e+05 1.186906e+05        0
1.186906e+05 -1.099193e+05        0
       0        0        0

-2.169085e+05 1.088304e+05        0
1.088304e+05 -1.105207e+05        0
       0        0        0

-2.891518e+05 8.934130e+04        0
8.934130e+04 -1.111065e+05        0
       0        0        0

-3.619182e+05 6.053005e+04        0
6.053005e+04 -1.117009e+05        0
       0        0        0

-4.348222e+05 2.254384e+04        0
2.254384e+04 -1.125421e+05        0
       0        0        0

1.654676e+05 2.229389e+04        0
2.229389e+04 -1.143894e+05        0
       0        0        0

1.037757e+05 6.010633e+04        0
6.010633e+04 -1.127378e+05        0
       0        0        0

4.172434e+04 8.918285e+04        0
8.918285e+04 -1.114369e+05        0
       0        0        0

-1.993674e+04 1.091211e+05        0
1.091211e+05 -1.109352e+05        0
       0        0        0

-8.111029e+04 1.192969e+05        0
1.192969e+05 -1.112604e+05        0
       0        0        0

-1.422485e+05 1.192922e+05        0
1.192922e+05 -1.121001e+05        0
       0        0        0

-2.040019e+05 1.091080e+05        0
1.091080e+05 -1.130150e+05        0
       0        0        0

-2.668047e+05 8.916493e+04        0
8.916493e+04 -1.136749e+05        0
       0        0        0

-3.305323e+05 6.008944e+04        0
6.008944e+04 -1.140806e+05        0
       0        0        0

-3.944153e+05 2.228592e+04        0
2.228592e+04 -1.146607e+05        0
       0        0        0

1.218143e+05 2.175987e+04        0
2.175987e+04 -1.160001e+05        0
       0        0        0

6.846991e+04 5.928775e+04        0
5.928775e+04 -1.139016e+05        0
       0        0        0

1.504776e+04 8.891653e+04        0
8.891653e+04 -1.123083e+05        0
       0        0        0

-3.712658e+04 1.096611e+05        0
1.096611e+05 -1.119237e+05        0
       0        0        0

-8.806576e+04 1.203706e+05        0
1.203706e+05 -1.126850e+05        0
       0        0        0

-1.387020e+05 1.203666e+05        0
1.203666e+05 -1.140839e+05        0
       0        0        0

-1.902583e+05 1.096500e+05        0
1.096500e+05 -1.154691e+05        0
       0        0        0

-2.436324e+05 8.890144e+04        0
8.890144e+04 -1.162985e+05        0
       0        0        0

-2.987810e+05 5.927361e+04        0
5.927361e+04 -1.164537e+05        0
       0        0        0

-3.543298e+05 2.175326e+04        0
2.175326e+04 -1.165894e+05        0
       0        0        0

7.947515e+04 2.075678e+04        0
2.075678e+04 -1.172821e+05        0
       0        0        0

3.307865e+04 5.797447e+04        0
5.797447e+04 -1.145899e+05        0
       0        0        0

-1.236393e+04 8.865059e+04        0
8.865059e+04 -1.127886e+05        0
       0        0        0

-5.490063e+04 1.106013e+05        0
1.106013e+05 -1.126577e+05        0
       0        0        0

-9.504947e+04 1.220074e+05        0
1.220074e+05 -1.138552e+05        0
       0        0        0

-1.345317e+05 1.220041e+05        0
1.220041e+05 -1.157267e+05        0
       0        0        0

-1.753639e+05 1.105923e+05        0
1.105923e+05 -1.176118e+05        0
       0        0        0

-2.192067e+05 8.863840e+04        0
8.863840e+04 -1.187962e+05        0
       0        0        0

-2.664683e+05 5.796312e+04        0
5.796312e+04 -1.188293e+05        0
       0        0        0

-3.150782e+05 2.075156e+04        0
2.075156e+04 -1.183719e+05        0
       0        0        0

3.901604e+04 1.910250e+04        0
1.910250e+04 -1.183311e+05        0
       0        0        0

-2.945801e+03 5.638064e+04        0
5.638064e+04 -1.153385e+05        0
       0        0        0

-4.097162e+04 8.874194e+04        0
8.874194e+04 -1.139163e+05        0
       0        0        0

-7.334316e+04 1.119428e+05        0
1.119428e+05 -1.141993e+05        0
       0        0        0

-1.020044e+05 1.238170e+05        0
1.238170e+05 -1.151847e+05        0
       0        0        0

-1.297257e+05 1.238146e+05        0
1.238146e+05 -1.165458e+05        0
       0        0        0

-1.591896e+05 1.119363e+05        0
1.119363e+05 -1.183359e+05        0
       0        0        0

-1.930733e+05 8.873286e+04        0
8.873286e+04 -1.201362e+05        0
       0        0        0

-2.331278e+05 5.637209e+04        0
5.637209e+04 -1.207525e+05        0
       0        0        0

-2.773664e+05 1.909865e+04        0
1.909865e+04 -1.200521e+05        0
       0        0        0

5.231885e+02 1.710271e+04        0
1.710271e+04 -1.199683e+05        0
       0        0        0

-4.055900e+04 5.592265e+04        0
5.592265e+04 -1.183223e+05        0
       0        0        0

-7.064224e+04 9.001307e+04        0
9.001307e+04 -1.192608e+05        0
       0        0        0

-9.160225e+04 1.128998e+05        0
1.128998e+05 -1.193451e+05        0
       0        0        0

-1.084793e+05 1.240404e+05        0
1.240404e+05 -1.176209e+05        0
       0        0        0

-1.246149e+05 1.240392e+05        0
1.240392e+05 -1.154734e+05        0
       0        0        0

-1.424954e+05 1.128964e+05        0
1.128964e+05 -1.147534e+05        0
       0        0        0

-1.653497e+05 9.000769e+04        0
9.000769e+04 -1.167341e+05        0
       0        0        0

-1.979384e+05 5.591692e+04        0
5.591692e+04 -1.201833e+05        0
       0        0        0

-2.416132e+05 1.710010e+04        0
1.710010e+04 -1.211410e+05        0
       0        0        0

-3.838756e+04 1.780089e+04        0
1.780089e+04 -1.241547e+05        0
       0        0        0

-8.056431e+04 6.133461e+04        0
6.133461e+04 -1.329179e+05        0
       0        0        0

-9.823377e+04 9.241439e+04        0
9.241439e+04 -1.376493e+05        0
       0        0        0

-1.069299e+05 1.101518e+05        0
1.101518e+05 -1.330247e+05        0
       0        0        0

-1.134903e+05 1.182691e+05        0
1.182691e+05 -1.226657e+05        0
       0        0        0

-1.199857e+05 1.182695e+05        0
1.182695e+05 -1.108102e+05        0
       0        0        0

-1.278480e+05 1.101525e+05        0
1.101525e+05 -1.017531e+05        0
       0        0        0

-1.390687e+05 9.241419e+04        0
9.241419e+04 -9.965328e+04        0
       0        0        0

-1.602170e+05 6.133242e+04        0
6.133242e+04 -1.078653e+05        0
       0        0        0

-2.060740e+05 1.779909e+04        0
1.779909e+04 -1.203165e+05        0
       0        0        0

-9.041227e+04 4.054631e+04        0
4.054631e+04 -1.562833e+05        0
       0        0        0

-1.138421e+05 7.593486e+04        0
7.593486e+04 -1.858539e+05        0
       0        0        0

-1.150718e+05 8.920336e+04        0
8.920336e+04 -1.817339e+05        0
       0        0        0

-1.153875e+05 9.571255e+04        0
9.571255e+04 -1.608397e+05        0
       0        0        0

-1.157489e+05 9.856239e+04        0
9.856239e+04 -1.317915e+05        0
       0        0        0

-1.168366e+05 9.856429e+04        0
9.856429e+04 -1.007937e+05        0
       0        0        0

-1.188659e+05 9.571771e+04        0
9.571771e+04 -7.341100e+04        0
       0        0        0

-1.225609e+05 8.921016e+04        0
8.921016e+04 -5.589328e+04        0
       0        0        0

-1.289065e+05 7.594047e+04        0
7.594047e+04 -5.688864e+04        0
       0        0        0

-1.586523e+05 4.054609e+04        0
4.054609e+04 -9.278138e+04        0
       0        0        0

POINT_DATA     451
VECTORS DISPLACEMENT_8.800000e-01 double
0.000000e+00    0.000000e+00    0.000000e+00
0.000000e+00    0.000000e+00    0.000000e+00
0.000000e+00    0.000000e+00    0.000000e+00
0.000000e+00    0.000000e+00    0.000000e+00
0.000000e+00    0.000000e+00    0.000000e+00
0.000000e+00    0.000000e+00    0.000000e+00
0.000000e+00    0.000000e+00    0.000000e+00
0.000000e+00    0.000000e+00    0.000000e+00
0.000000e+00    0.000000e+00    0.000000e+00
0.000000e+00    0.000000e+00    0.000000e+00
0.000000e+00    0.000000e+00    0.000000e+00
-1.141595e-06    -8.299605e-07    0.000000e+00
-7.233448e-07    -4.163094e-07    0.000000e+00
-5.161144e-07    -2.157261e-07    0.000000e+00
-3.332233e-07    -1.068318e-07    0.000000e+00
-1.642863e-07    -5.047426e-08    0.000000e+00
-3.187157e-20    -3.295145e-08    0.000000e+00
1.642863e-07    -5.047426e-08    0.000000e+00
3.332233e-07    -1.068318e-07    0.000000e+00
5.161144e-07    -2.157261e-07    0.000000e+00
7.233448e-07    -4.163094e-07    0.000000e+00
1.141595e-06    -8.299605e-07    0.000000e+00
-2.153941e-06    -1.380309e-06    0.000000e+00
-1.574436e-06    -9.987668e-07    0.000000e+00
-1.105093e-06    -7.015532e-07    0.000000e+00
-7.128292e-07    -5.177059e-07    0.000000e+00
-3.501023e-07    -4.175298e-07    0.000000e+00
-6.731100e-20    -3.857102e-07    0.000000e+00
3.501023e-07    -4.175298e-07    0.000000e+00
7.128292e-07    -5.177059e-07    0.000000e+00
1.105093e-06    -7.015532e-07    0.000000e+00
1.574436e-06    -9.987668e-07    0.000000e+00
2.153941e-06    -1.380309e-06    0.000000e+00
-3.132427e-06    -2.064634e-06    0.000000e+00
-2.394168e-06    -1.682257e-06    0.000000e+00
-1.722702e-06    -1.380761e-06    0.000000e+00
-1.115240e-06    -1.168096e-06    0.000000e+00
-5.487489e-07    -1.045521e-06    0.000000e+00
-1.059354e-19    -1.005593e-06    0.000000e+00
5.487489e-07    -1.045521e-06    0.000000e+00
1.115240e-06    -1.168096e-06    0.000000e+00
1.722702e-06    -1.380761e-06    0.000000e+00
2.394168e-06    -1.682257e-06    0.000000e+00
3.132427e-06    -2.064634e-06    0.000000e+00
-4.100076e-06    -2.909172e-06    0.000000e+00
-3.186876e-06    -2.535522e-06    0.000000e+00
-2.326958e-06    -2.239053e-06    0.000000e+00
-1.519408e-06    -2.025105e-06    0.000000e+00
-7.500557e-07    -1.896684e-06    0.000000e+00
-1.460338e-19    -1.854101e-06    0.000000e+00
7.500557e-07    -1.896684e-06    0.000000e+00
1.519408e-06    -2.025105e-06    0.000000e+00
2.326958e-06    -2.239053e-06    0.000000e+00
3.186876e-06    -2.535522e-06    0.000000e+00
4.100076e-06    -2.909172e-06    0.000000e+00
-5.051341e-06    -3.936654e-06    0.000000e+00
-3.956477e-06    -3.571725e-06    0.000000e+00
-2.911986e-06    -3.284208e-06    0.000000e+00
-1.912865e-06    -3.075889e-06    0.000000e+00
-9.475500e-07    -2.949778e-06    0.000000e+00
-1.873796e-19    -2.907564e-06    0.000000e+00
9.475500e-07    -2.949778e-06    0.000000e+00
1.912865e-06    -3.075889e-06    0.000000e+00
2.911986e-06    -3.284208e-06    0.000000e+00
3.956477e-06    -3.571725e-06    0.000000e+00
5.051341e-06    -3.936654e-06    0.000000e+00
-5.981873e-06    -5.149742e-06    0.000000e+00
-4.704513e-06    -4.794468e-06    0.000000e+00
-3.477740e-06    -4.516043e-06    0.000000e+00
-2.292922e-06    -4.315096e-06    0.000000e+00
-1.138484e-06    -4.193469e-06    0.000000e+00
-2.287518e-19    -4.152740e-06    0.000000e+00
1.138484e-06    -4.193469e-06    0.000000e+00
2.292922e-06    -4.315096e-06    0.000000e+00
3.477740e-06    -4.516043e-06    0.000000e+00
4.704513e-06    -4.794468e-06    0.000000e+00
5.981873e-06    -5.149742e-06    0.000000e+00
-6.888558e-06    -6.546376e-06    0.000000e+00
-5.431254e-06    -6.201154e-06    0.000000e+00
-4.025294e-06    -5.931590e-06    0.000000e+00
-2.659769e-06    -5.737829e-06    0.000000e+00
-1.322562e-06    -5.620886e-06    0.000000e+00
-2.678212e-19    -5.581769e-06    0.000000e+00
1.322562e-06    -5.620886e-06    0.000000e+00
2.659769e-06    -5.737829e-06    0.000000e+00
4.025294e-06    -5.931590e-06    0.000000e+00
5.431254e-06    -6.201154e-06    0.000000e+00
6.888558e-06    -6.546376e-06    0.000000e+00
-7.769676e-06    -8.122139e-06    0.000000e+00
-6.136609e-06    -7.787205e-06    0.000000e+00
-4.555509e-06    -7.526210e-06    0.000000e+00
-3.014226e-06    -7.339157e-06    0.000000e+00
-1.500173e-06    -7.226543e-06    0.000000e+00
-3.054877e-19    -7.188927e-06    0.000000e+00
1.500173e-06    -7.226543e-06    0.000000e+00
3.014226e-06    -7.339157e-06    0.000000e+00
4.555509e-06    -7.526210e-06    0.000000e+00
6.136609e-06    -7.787205e-06    0.000000e+00
7.769676e-06    -8.122139e-06    0.000000e+00
-8.624338e-06    -9.871838e-06    0.000000e+00
-6.820449e-06    -9.547301e-06    0.000000e+00
-5.068913e-06    -9.294676e-06    0.000000e+00
-3.356973e-06    -9.113935e-06    0.000000e+00
-1.671744e-06    -9.005300e-06    0.000000e+00
-3.446630e-19    -8.969049e-06    0.000000e+00
1.671744e-06    -9.005300e-06    0.000000e+00
3.356973e-06    -9.113935e-06    0.000000e+00
5.068913e-06    -9.294676e-06    0.000000e+00
6.820449e-06    -9.547301e-06    0.000000e+00
8.624338e-06    -9.871838e-06    0.000000e+00
-9.452128e-06    -1.179002e-05    0.000000e+00
-7.482678e-06    -1.147593e-05    0.000000e+00
-5.565791e-06    -1.123156e-05    0.000000e+00
-3.688437e-06    -1.105688e-05    0.000000e+00
-1.837569e-06    -1.095199e-05    0.000000e+00
-3.846059e-19    -1.091701e-05    0.000000e+00
1.837569e-06    -1.095199e-05    0.000000e+00
3.688437e-06    -1.105688e-05    0.000000e+00
5.565791e-06    -1.123156e-05    0.000000e+00
7.482678e-06    -1.147593e-05    0.000000e+00
9.452128e-06    -1.179002e-05    0.000000e+00
-1.025287e-05    -1.387120e-05    0.000000e+00
-8.123242e-06    -1.356758e-05    0.000000e+00
-6.046283e-06    -1.333140e-05    0.000000e+00
-4.008850e-06    -1.316265e-05    0.000000e+00
-1.997814e-06    -1.306137e-05    0.000000e+00
-4.170049e-19    -1.302760e-05    0.000000e+00
1.997814e-06    -1.306137e-05    0.000000e+00
4.008850e-06    -1.316265e-05    0.000000e+00
6.046283e-06    -1.333140e-05    0.000000e+00
8.123242e-06    -1.356758e-05    0.000000e+00
1.025287e-05    -1.387120e-05    0.000000e+00
-1.102648e-05    -1.610989e-05    0.000000e+00
-8.742113e-06    -1.581673e-05    0.000000e+00
-6.510452e-06    -1.558871e-05    0.000000e+00
-4.318325e-06    -1.542583e-05    0.000000e+00
-2.152566e-06    -1.532809e-05    0.000000e+00
-4.514156e-19    -1.529550e-05    0.000000e+00
2.152566e-06    -1.532809e-05    0.000000e+00
4.318325e-06    -1.542583e-05    0.000000e+00
6.510452e-06    -1.558871e-05    0.000000e+00
8.742113e-06    -1.581673e-05    0.000000e+00
1.102648e-05    -1.610989e-05    0.000000e+00
-1.177296e-05    -1.850062e-05    0.000000e+00
-9.339276e-06    -1.821793e-05    0.000000e+00
-6.958324e-06    -1.799806e-05    0.000000e+00
-4.616914e-06    -1.784101e-05    0.000000e+00
-2.301865e-06    -1.774678e-05    0.000000e+00
-4.915967e-19    -1.771537e-05    0.000000e+00
2.301865e-06    -1.774678e-05    0.000000e+00
4.616914e-06    -1.784101e-05    0.000000e+00
6.958324e-06    -1.799806e-05    0.000000e+00
9.339276e-06    -1.821793e-05    0.000000e+00
1.177296e-05    -1.850062e-05    0.000000e+00
-1.249228e-05    -2.103794e-05    0.000000e+00
-9.914727e-06    -2.076572e-05    0.000000e+00
-7.389909e-06    -2.055400e-05    0.000000e+00
-4.904637e-06    -2.040277e-05    0.000000e+00
-2.445728e-06    -2.031204e-05    0.000000e+00
-5.151019e-19    -2.028179e-05    0.000000e+00
2.445728e-06    -2.031204e-05    0.000000e+00
4.904637e-06    -2.040277e-05    0.000000e+00
7.389909e-06    -2.055400e-05    0.000000e+00
9.914727e-06    -2.076572e-05    0.000000e+00
1.249228e-05    -2.103794e-05    0.000000e+00
-1.318446e-05    -2.371642e-05    0.000000e+00
-1.046846e-05    -2.345467e-05    0.000000e+00
-7.805208e-06    -2.325109e-05    0.000000e+00
-5.181501e-06    -2.310568e-05    0.000000e+00
-2.584160e-06    -2.301844e-05    0.000000e+00
-5.361719e-19    -2.298935e-05    0.000000e+00
2.584160e-06    -2.301844e-05    0.000000e+00
5.181501e-06    -2.310568e-05    0.000000e+00
7.805208e-06    -2.325109e-05    0.000000e+00
1.046846e-05    -2.345467e-05    0.000000e+00
1.318446e-05    -2.371642e-05    0.000000e+00
-1.384949e-05    -2.653062e-05    0.000000e+00
-1.100049e-05    -2.627934e-05    0.000000e+00
-8.204222e-06    -2.608391e-05    0.000000e+00
-5.447509e-06    -2.594431e-05    0.000000e+00
-2.717163e-06    -2.586055e-05    0.000000e+00
-5.525831e-19    -2.583264e-05    0.000000e+00
2.717163e-06    -2.586055e-05    0.000000e+00
5.447509e-06    -2.594431e-05    0.000000e+00
8.204222e-06    -2.608391e-05    0.000000e+00
1.100049e-05    -2.627934e-05    0.000000e+00
1.384949e-05    -2.653062e-05    0.000000e+00
-1.448737e-05    -2.947511e-05    0.000000e+00
-1.151079e-05    -2.923430e-05    0.000000e+00
-8.586950e-06    -2.904701e-05    0.000000e+00
-5.702661e-06    -2.891323e-05    0.000000e+00
-2.844739e-06    -2.883296e-05    0.000000e+00
-5.543831e-19    -2.880621e-05    0.000000e+00
2.844739e-06    -2.883296e-05    0.000000e+00
5.702661e-06    -2.891323e-05    0.000000e+00
8.586950e-06    -2.904701e-05    0.000000e+00
1.151079e-05    -2.923430e-05    0.000000e+00
1.448737e-05    -2.947511e-05    0.000000e+00
-1.509811e-05    -3.254446e-05    0.000000e+00
-1.199938e-05    -3.231413e-05    0.000000e+00
-8.953392e-06    -3.213498e-05    0.000000e+00
-5.946955e-06    -3.200701e-05    0.000000e+00
-2.966886e-06    -3.193024e-05    0.000000e+00
-5.691003e-19    -3.190464e-05    0.000000e+00
2.966886e-06    -3.193024e-05    0.000000e+00
5.946955e-06    -3.200701e-05    0.000000e+00
8.953392e-06    -3.213498e-05    0.000000e+00
1.199938e-05    -3.231413e-05    0.000000e+00
1.509811e-05    -3.254446e-05    0.000000e+00
-1.568170e-05    -3.573325e-05    0.000000e+00
-1.246626e-05    -3.551338e-05    0.000000e+00
-9.303549e-06    -3.534238e-05    0.000000e+00
-6.180392e-06    -3.522023e-05    0.000000e+00
-3.083604e-06    -3.514694e-05    0.000000e+00
-5.960994e-19    -3.512251e-05    0.000000e+00
3.083604e-06    -3.514694e-05    0.000000e+00
6.180392e-06    -3.522023e-05    0.000000e+00
9.303549e-06    -3.534238e-05    0.000000e+00
1.246626e-05    -3.551338e-05    0.000000e+00
1.568170e-05    -3.573325e-05    0.000000e+00
-1.623815e-05    -3.903604e-05    0.000000e+00
-1.291142e-05    -3.882665e-05    0.000000e+00
-9.637419e-06    -3.866378e-05    0.000000e+00
-6.402972e-06    -3.854745e-05    0.000000e+00
-3.194894e-06    -3.847765e-05    0.000000e+00
-6.399334e-19    -3.845439e-05    0.000000e+00
3.194894e-06    -3.847765e-05    0.000000e+00
6.402972e-06    -3.854745e-05    0.000000e+00
9.637419e-06    -3.866378e-05    0.000000e+00
1.291142e-05    -3.882665e-05    0.000000e+00
1.623815e-05    -3.903604e-05    0.000000e+00
-1.676746e-05    -4.244741e-05    0.000000e+00
-1.333486e-05    -4.224848e-05    0.000000e+00
-9.955003e-06    -4.209376e-05    0.000000e+00
-6.614695e-06    -4.198325e-05    0.000000e+00
-3.300755e-06    -4.191694e-05    0.000000e+00
-6.988022e-19    -4.189484e-05    0.000000e+00
3.300755e-06    -4.191694e-05    0.000000e+00
6.614695e-06    -4.198325e-05    0.000000e+00
9.955003e-06    -4.209376e-05    0.000000e+00
1.333486e-05    -4.224848e-05    0.000000e+00
1.676746e-05    -4.244741e-05    0.000000e+00
-1.726962e-05    -4.596192e-05    0.000000e+00
-1.373659e-05    -4.577347e-05    0.000000e+00
-1.025630e-05    -4.562689e-05    0.000000e+00
-6.815560e-06    -4.552219e-05    0.000000e+00
-3.401188e-06    -4.545937e-05    0.000000e+00
-7.405186e-19    -4.543843e-05    0.000000e+00
3.401188e-06    -4.545937e-05    0.000000e+00
6.815560e-06    -4.552219e-05    0.000000e+00
1.025630e-05    -4.562689e-05    0.000000e+00
1.373659e-05    -4.577347e-05    0.000000e+00
1.726962e-05    -4.596192e-05    0.000000e+00
-1.774464e-05    -4.957415e-05    0.000000e+00
-1.411661e-05    -4.939617e-05    0.000000e+00
-1.054131e-05    -4.925773e-05    0.000000e+00
-7.005568e-06    -4.915885e-05    0.000000e+00
-3.496192e-06    -4.909952e-05    0.000000e+00
-7.735528e-19    -4.907975e-05    0.000000e+00
3.496192e-06    -4.909952e-05    0.000000e+00
7.005568e-06    -4.915885e-05    0.000000e+00
1.054131e-05    -4.925773e-05    0.000000e+00
1.411661e-05    -4.939617e-05    0.000000e+00
1.774464e-05    -4.957415e-05    0.000000e+00
-1.819252e-05    -5.327868e-05    0.000000e+00
-1.447491e-05    -5.311116e-05    0.000000e+00
-1.081004e-05    -5.298087e-05    0.000000e+00
-7.184718e-06    -5.288780e-05    0.000000e+00
-3.585767e-06    -5.283196e-05    0.000000e+00
-8.169633e-19    -5.281335e-05    0.000000e+00
3.585767e-06    -5.283196e-05    0.000000e+00
7.184718e-06    -5.288780e-05    0.000000e+00
1.081004e-05    -5.298087e-05    0.000000e+00
1.447491e-05    -5.311116e-05    0.000000e+00
1.819252e-05    -5.327868e-05    0.000000e+00
-1.861325e-05    -5.707006e-05    0.000000e+00
-1.481149e-05    -5.691301e-05    0.000000e+00
-1.106248e-05    -5.679086e-05    0.000000e+00
-7.353011e-06    -5.670361e-05    0.000000e+00
-3.669914e-06    -5.665126e-05    0.000000e+00
-8.330569e-19    -5.663381e-05    0.000000e+00
3.669914e-06    -5.665126e-05    0.000000e+00
7.353011e-06    -5.670361e-05    0.000000e+00
1.106248e-05    -5.679086e-05    0.000000e+00
1.481149e-05    -5.691301e-05    0.000000e+00
1.861325e-05    -5.707006e-05    0.000000e+00
-1.900683e-05    -6.094287e-05    0.000000e+00
-1.512636e-05    -6.079629e-05    0.000000e+00
-1.129863e-05    -6.068229e-05    0.000000e+00
-7.510448e-06    -6.060086e-05    0.000000e+00
-3.748633e-06    -6.055200e-05    0.000000e+00
-8.544445e-19    -6.053571e-05    0.000000e+00
3.748633e-06    -6.055200e-05    0.000000e+00
7.510448e-06    -6.060086e-05    0.000000e+00
1.129863e-05    -6.068229e-05    0.000000e+00
1.512636e-05    -6.079629e-05    0.000000e+00
1.900683e-05    -6.094287e-05    0.000000e+00
-1.937327e-05    -6.489169e-05    0.000000e+00
-1.541952e-05    -6.475558e-05    0.000000e+00
-1.151850e-05    -6.464972e-05    0.000000e+00
-7.657028e-06    -6.457410e-05    0.000000e+00
-3.821923e-06    -6.452873e-05    0.000000e+00
-8.660912e-19    -6.451361e-05    0.000000e+00
3.821923e-06    -6.452873e-05    0.000000e+00
7.657028e-06    -6.457410e-05    0.000000e+00
1.151850e-05    -6.464972e-05    0.000000e+00
1.541952e-05    -6.475558e-05    0.000000e+00
1.937327e-05    -6.489169e-05    0.000000e+00
-1.971256e-05    -6.891107e-05    0.000000e+00
-1.569095e-05    -6.878544e-05    0.000000e+00
-1.172208e-05    -6.868772e-05    0.000000e+00
-7.792750e-06    -6.861792e-05    0.000000e+00
-3.889784e-06    -6.857604e-05    0.000000e+00
-8.531739e-19    -6.856208e-05    0.000000e+00
3.889784e-06    -6.857604e-05    0.000000e+00
7.792750e-06    -6.861792e-05    0.000000e+00
1.172208e-05    -6.868772e-05    0.000000e+00
1.569095e-05    -6.878544e-05    0.000000e+00
1.971256e-05    -6.891107e-05    0.000000e+00
-2.002471e-05    -7.299559e-05    0.000000e+00
-1.594068e-05    -7.288043e-05    0.000000e+00
-1.190938e-05    -7.279086e-05    0.000000e+00
-7.917611e-06    -7.272688e-05    0.000000e+00
-3.952212e-06    -7.268851e-05    0.000000e+00
-8.478800e-19    -7.267572e-05    0.000000e+00
3.952212e-06    -7.268851e-05    0.000000e+00
7.917611e-06    -7.272688e-05    0.000000e+00
1.190938e-05    -7.279086e-05    0.000000e+00
1.594068e-05    -7.288043e-05    0.000000e+00
2.002471e-05    -7.299559e-05    0.000000e+00
-2.030971e-05    -7.713981e-05    0.000000e+00
-1.616869e-05    -7.703511e-05    0.000000e+00
-1.208038e-05    -7.695370e-05    0.000000e+00
-8.031599e-06    -7.689557e-05    0.000000e+00
-4.009198e-06    -7.686071e-05    0.000000e+00
-8.758321e-19    -7.684909e-05    0.000000e+00
4.009198e-06    -7.686071e-05    0.000000e+00
8.031599e-06    -7.689557e-05    0.000000e+00
1.208038e-05    -7.695370e-05    0.000000e+00
1.616869e-05    -7.703511e-05    0.000000e+00
2.030971e-05    -7.713981e-05    0.000000e+00
-2.056757e-05    -8.133827e-05    0.000000e+00
-1.637501e-05    -8.124404e-05    0.000000e+00
-1.223508e-05    -8.117079e-05    0.000000e+00
-8.134685e-06    -8.111855e-05    0.000000e+00
-4.060719e-06    -8.108725e-05    0.000000e+00
-9.114075e-19    -8.107682e-05    0.000000e+00
4.060719e-06    -8.108725e-05    0.000000e+00
8.134685e-06    -8.111855e-05    0.000000e+00
1.223508e-05    -8.117079e-05    0.000000e+00
1.637501e-05    -8.124404e-05    0.000000e+00
2.056757e-05    -8.133827e-05    0.000000e+00
-2.079833e-05    -8.558550e-05    0.000000e+00
-1.655963e-05    -8.550173e-05    0.000000e+00
-1.237344e-05    -8.543669e-05    0.000000e+00
-8.226802e-06    -8.539041e-05    0.000000e+00
-4.106724e-06    -8.536275e-05    0.000000e+00
-9.778995e-19    -8.535356e-05    0.000000e+00
4.106724e-06    -8.536275e-05    0.000000e+00
8.226802e-06    -8.539041e-05    0.000000e+00
1.237344e-05    -8.543669e-05    0.000000e+00
1.655963e-05    -8.550173e-05    0.000000e+00
2.079833e-05    -8.558550e-05    0.000000e+00
-2.100210e-05    -8.987603e-05    0.000000e+00
-1.672261e-05    -8.980269e-05    0.000000e+00
-1.249537e-05    -8.974594e-05    0.000000e+00
-8.307807e-06    -8.970578e-05    0.000000e+00
-4.147107e-06    -8.968192e-05    0.000000e+00
-1.041003e-18    -8.967401e-05    0.000000e+00
4.147107e-06    -8.968192e-05    0.000000e+00
8.307807e-06    -8.970578e-05    0.000000e+00
1.249537e-05    -8.974594e-05    0.000000e+00
1.672261e-05    -8.980269e-05    0.000000e+00
2.100210e-05    -8.987603e-05    0.000000e+00
-2.117912e-05    -9.420439e-05    0.000000e+00
-1.686399e-05    -9.414142e-05    0.000000e+00
-1.260070e-05    -9.409307e-05    0.000000e+00
-8.377428e-06    -9.405931e-05    0.000000e+00
-4.181679e-06    -9.403948e-05    0.000000e+00
-1.068109e-18    -9.403296e-05    0.000000e+00
4.181679e-06    -9.403948e-05    0.000000e+00
8.377428e-06    -9.405931e-05    0.000000e+00
1.260070e-05    -9.409307e-05    0.000000e+00
1.686399e-05    -9.414142e-05    0.000000e+00
2.117912e-05    -9.420439e-05    0.000000e+00
-2.132994e-05    -9.856523e-05    0.000000e+00
-1.698387e-05    -9.851248e-05    0.000000e+00
-1.268909e-05    -9.847276e-05    0.000000e+00
-8.435205e-06    -9.844575e-05    0.000000e+00
-4.210141e-06    -9.843026e-05    0.000000e+00
-1.120201e-18    -9.842523e-05    0.000000e+00
4.210141e-06    -9.843026e-05    0.000000e+00
8.435205e-06    -9.844575e-05    0.000000e+00
1.268909e-05    -9.847276e-05    0.000000e+00
1.698387e-05    -9.851248e-05    0.000000e+00
2.132994e-05    -9.856523e-05    0.000000e+00
-2.145562e-05    -1.029537e-04    0.000000e+00
-1.708235e-05    -1.029109e-04    0.000000e+00
-1.275997e-05    -1.028800e-04    0.000000e+00
-8.480517e-06    -1.028600e-04    0.000000e+00
-4.232143e-06    -1.028489e-04    0.000000e+00
-1.166788e-18    -1.028454e-04    0.000000e+00
4.232143e-06    -1.028489e-04    0.000000e+00
8.480517e-06    -1.028600e-04    0.000000e+00
1.275997e-05    -1.028800e-04    0.000000e+00
1.708235e-05    -1.029109e-04    0.000000e+00
2.145562e-05    -1.029537e-04    0.000000e+00
-2.155817e-05    -1.073660e-04    0.000000e+00
-1.715935e-05    -1.073327e-04    0.000000e+00
-1.281258e-05    -1.073105e-04    0.000000e+00
-8.512904e-06    -1.072970e-04    0.000000e+00
-4.247579e-06    -1.072895e-04    0.000000e+00
-1.116813e-18    -1.072870e-04    0.000000e+00
4.247579e-06    -1.072895e-04    0.000000e+00
8.512904e-06    -1.072970e-04    0.000000e+00
1.281258e-05    -1.073105e-04    0.000000e+00
1.715935e-05    -1.073327e-04    0.000000e+00
2.155817e-05    -1.073660e-04    0.000000e+00
-2.164067e-05    -1.118022e-04    0.000000e+00
-1.721429e-05    -1.117772e-04    0.000000e+00
-1.284670e-05    -1.117621e-04    0.000000e+00
-8.533270e-06    -1.117511e-04    0.000000e+00
-4.257281e-06    -1.117436e-04    0.000000e+00
-1.030839e-18    -1.117409e-04    0.000000e+00
4.257281e-06    -1.117436e-04    0.000000e+00
8.533270e-06    -1.117511e-04    0.000000e+00
1.284670e-05    -1.117621e-04    0.000000e+00
1.721429e-05    -1.117772e-04    0.000000e+00
2.164067e-05    -1.118022e-04    0.000000e+00
-2.170513e-05    -1.162704e-04    0.000000e+00
-1.724615e-05    -1.162523e-04    0.000000e+00
-1.286626e-05    -1.162338e-04    0.000000e+00
-8.546206e-06    -1.162132e-04    0.000000e+00
-4.263865e-06    -1.161978e-04    0.000000e+00
-1.027451e-18    -1.161922e-04    0.000000e+00
4.263865e-06    -1.161978e-04    0.000000e+00
8.546206e-06    -1.162132e-04    0.000000e+00
1.286626e-05    -1.162338e-04    0.000000e+00
1.724615e-05    -1.162523e-04    0.000000e+00
2.170513e-05    -1.162704e-04    0.000000e+00
-2.173924e-05    -1.208105e-04    0.000000e+00
-1.726634e-05    -1.207758e-04    0.000000e+00
-1.288608e-05    -1.207173e-04    0.000000e+00
-8.561321e-06    -1.206645e-04    0.000000e+00
-4.272039e-06    -1.206293e-04    0.000000e+00
-1.031898e-18    -1.206170e-04    0.000000e+00
4.272039e-06    -1.206293e-04    0.000000e+00
8.561321e-06    -1.206645e-04    0.000000e+00
1.288608e-05    -1.207173e-04    0.000000e+00
1.726634e-05    -1.207758e-04    0.000000e+00
2.173924e-05    -1.208105e-04    0.000000e+00

CELL_DATA      400
TENSORS Element_Stress8.800000e-01 double
1.820598e+06 2.551812e+05        0
2.551812e+05 4.163488e+05        0
       0        0        0

1.243720e+06 1.308538e+05        0
1.308538e+05 3.566178e+05        0
       0        0        0

8.651185e+05 4.301032e+04        0
4.301032e+04 2.749959e+05        0
       0        0        0

5.100063e+05 -3.578363e+03        0
-3.578363e+03 1.690094e+05        0
       0        0        0

1.688541e+05 -2.488323e+04        0
-2.488323e+04 5.694968e+04        0
       0        0        0

-1.688184e+05 -2.487711e+04        0
-2.487711e+04 -5.695775e+04        0
       0        0        0

-5.095306e+05 -3.579112e+03        0
-3.579112e+03 -1.688447e+05        0
       0        0        0

-8.637077e+05 4.293851e+04        0
4.293851e+04 -2.744671e+05        0
       0        0        0

-1.240734e+06 1.305652e+05        0
1.305652e+05 -3.554740e+05        0
       0        0        0

-1.814375e+06 2.543707e+05        0
2.543707e+05 -4.141970e+05        0
       0        0        0

1.642070e+06 4.159748e+04        0
4.159748e+04 4.234799e+03        0
       0        0        0

1.322354e+06 1.206454e+05        0
1.206454e+05 1.286843e+05        0
       0        0        0

9.082521e+05 9.900755e+04        0
9.900755e+04 1.315191e+05        0
       0        0        0

5.364025e+05 7.580678e+04        0
7.580678e+04 9.193311e+04        0
       0        0        0

1.768172e+05 6.321707e+04        0
6.321707e+04 3.207757e+04        0
       0        0        0

-1.778550e+05 6.319873e+04        0
6.319873e+04 -3.316896e+04        0
       0        0        0

-5.369363e+05 7.574133e+04        0
7.574133e+04 -9.284490e+04        0
       0        0        0

-9.077061e+05 9.886737e+04        0
9.886737e+04 -1.320379e+05        0
       0        0        0

-1.319830e+06 1.204079e+05        0
1.204079e+05 -1.284324e+05        0
       0        0        0

-1.637466e+06 4.151082e+04        0
4.151082e+04 -3.136555e+03        0
       0        0        0

1.584953e+06 1.541639e+04        0
1.541639e+04 6.615316e+03        0
       0        0        0

1.271591e+06 6.833109e+04        0
6.833109e+04 1.757728e+04        0
       0        0        0

9.146413e+05 1.015639e+05        0
1.015639e+05 4.237686e+04        0
       0        0        0

5.430826e+05 1.074765e+05        0
1.074765e+05 3.592346e+04        0
       0        0        0

1.791459e+05 1.074054e+05        0
1.074054e+05 1.272037e+04        0
       0        0        0

-1.824790e+05 1.073775e+05        0
1.073775e+05 -1.611190e+04        0
       0        0        0

-5.458838e+05 1.073933e+05        0
1.073933e+05 -3.912503e+04        0
       0        0        0

-9.163117e+05 1.014348e+05        0
1.014348e+05 -4.515293e+04        0
       0        0        0

-1.271565e+06 6.821622e+04        0
6.821622e+04 -1.966893e+04        0
       0        0        0

-1.582978e+06 1.538448e+04        0
1.538448e+04 -7.911807e+03        0
       0        0        0

1.546129e+06 1.427370e+04        0
1.427370e+04 -3.975752e+03        0
       0        0        0

1.226683e+06 5.548208e+04        0
5.548208e+04 -1.953361e+03        0
       0        0        0

8.865538e+05 9.245024e+04        0
9.245024e+04 2.933168e+03        0
       0        0        0

5.331314e+05 1.146030e+05        0
1.146030e+05 5.877770e+03        0
       0        0        0

1.753740e+05 1.233579e+05        0
1.233579e+05 6.880625e+02        0
       0        0        0

-1.820438e+05 1.233283e+05        0
1.233283e+05 -7.415933e+03        0
       0        0        0

-5.392752e+05 1.145213e+05        0
1.145213e+05 -1.241206e+04        0
       0        0        0

-8.916350e+05 9.234262e+04        0
9.234262e+04 -9.058365e+03        0
       0        0        0

-1.230189e+06 5.539388e+04        0
5.539388e+04 -3.528931e+03        0
       0        0        0

-1.547532e+06 1.424568e+04        0
1.424568e+04 -5.504384e+02        0
       0        0        0

1.509427e+06 1.713063e+04        0
1.713063e+04 -5.567249e+03        0
       0        0        0

1.185340e+06 5.448733e+04        0
5.448733e+04 -8.577651e+03        0
       0        0        0

8.541561e+05 8.905469e+04        0
8.905469e+04 -8.329305e+03        0
       0        0        0

5.137340e+05 1.136408e+05        0
1.136408e+05 -6.745280e+03        0
       0        0        0

1.681056e+05 1.258450e+05        0
1.258450e+05 -5.639044e+03        0
       0        0        0

-1.789903e+05 1.258166e+05        0
1.258166e+05 -5.300819e+03        0
       0        0        0

-5.241237e+05 1.135646e+05        0
1.135646e+05 -4.010288e+03        0
       0        0        0

-8.635542e+05 8.895612e+04        0
8.895612e+04 -2.042812e+03        0
       0        0        0

-1.193244e+06 5.440409e+04        0
5.440409e+04 -1.179541e+03        0
       0        0        0

-1.515273e+06 1.709766e+04        0
1.709766e+04 -3.264824e+03        0
       0        0        0

1.469671e+06 1.958963e+04        0
1.958963e+04 -7.911531e+03        0
       0        0        0

1.147077e+06 5.644559e+04        0
5.644559e+04 -1.054799e+04        0
       0        0        0

8.224151e+05 8.838594e+04        0
8.838594e+04 -1.192774e+04        0
       0        0        0

4.928620e+05 1.117722e+05        0
1.117722e+05 -1.113898e+04        0
       0        0        0

1.594065e+05 1.239614e+05        0
1.239614e+05 -9.157848e+03        0
       0        0        0

-1.752704e+05 1.239347e+05        0
1.239347e+05 -6.757342e+03        0
       0        0        0

-5.082716e+05 1.117003e+05        0
1.117003e+05 -4.611022e+03        0
       0        0        0

-8.369138e+05 8.829171e+04        0
8.829171e+04 -3.479956e+03        0
       0        0        0

-1.160194e+06 5.636191e+04        0
5.636191e+04 -4.312364e+03        0
       0        0        0

-1.480879e+06 1.955284e+04        0
1.955284e+04 -6.139554e+03        0
       0        0        0

1.427069e+06 2.114429e+04        0
2.114429e+04 -1.052964e+04        0
       0        0        0

1.109854e+06 5.834958e+04        0
5.834958e+04 -1.236661e+04        0
       0        0        0

7.924051e+05 8.864128e+04        0
8.864128e+04 -1.362108e+04        0
       0        0        0

4.726277e+05 1.103428e+05        0
1.103428e+05 -1.337050e+04        0
       0        0        0

1.506199e+05 1.216735e+05        0
1.216735e+05 -1.181697e+04        0
       0        0        0

-1.721469e+05 1.216483e+05        0
1.216483e+05 -9.757740e+03        0
       0        0        0

-4.937482e+05 1.102742e+05        0
1.102742e+05 -8.067258e+03        0
       0        0        0

-8.127094e+05 8.854973e+04        0
8.854973e+04 -7.533908e+03        0
       0        0        0

-1.128918e+06 5.826553e+04        0
5.826553e+04 -8.339735e+03        0
       0        0        0

-1.444434e+06 2.110561e+04        0
2.110561e+04 -9.528609e+03        0
       0        0        0

1.382471e+06 2.200181e+04        0
2.200181e+04 -1.363722e+04        0
       0        0        0

1.072891e+06 5.961398e+04        0
5.961398e+04 -1.472183e+04        0
       0        0        0

7.635785e+05 8.901007e+04        0
8.901007e+04 -1.557414e+04        0
       0        0        0

4.533125e+05 1.094858e+05        0
1.094858e+05 -1.552412e+04        0
       0        0        0

1.419522e+05 1.200358e+05        0
1.200358e+05 -1.458784e+04        0
       0        0        0

-1.697603e+05 1.200117e+05        0
1.200117e+05 -1.326479e+04        0
       0        0        0

-4.807667e+05 1.094198e+05        0
1.094198e+05 -1.222641e+04        0
       0        0        0

-7.903212e+05 8.892090e+04        0
8.892090e+04 -1.196593e+04        0
       0        0        0

-1.098554e+06 5.953060e+04        0
5.953060e+04 -1.248635e+04        0
       0        0        0

-1.406666e+06 2.196271e+04        0
2.196271e+04 -1.309846e+04        0
       0        0        0

1.336650e+06 2.243103e+04        0
2.243103e+04 -1.712975e+04        0
       0        0        0

1.035846e+06 6.032508e+04        0
6.032508e+04 -1.770734e+04        0
       0        0        0

7.353690e+05 8.928001e+04        0
8.928001e+04 -1.819357e+04        0
       0        0        0

4.345842e+05 1.090314e+05        0
1.090314e+05 -1.820574e+04        0
       0        0        0

1.333510e+05 1.190751e+05        0
1.190751e+05 -1.770719e+04        0
       0        0        0

-1.679948e+05 1.190519e+05        0
1.190519e+05 -1.697818e+04        0
       0        0        0

-4.689286e+05 1.089678e+05        0
1.089678e+05 -1.641605e+04        0
       0        0        0

-7.691116e+05 8.919329e+04        0
8.919329e+04 -1.629667e+04        0
       0        0        0

-1.068676e+06 6.024325e+04        0
6.024325e+04 -1.657480e+04        0
       0        0        0

-1.368246e+06 2.239236e+04        0
2.239236e+04 -1.685617e+04        0
       0        0        0

1.290108e+06 2.262769e+04        0
2.262769e+04 -2.093370e+04        0
       0        0        0

9.986145e+05 6.068320e+04        0
6.068320e+04 -2.119241e+04        0
       0        0        0

7.073840e+05 8.943847e+04        0
8.943847e+04 -2.142407e+04        0
       0        0        0

4.161153e+05 1.088122e+05        0
1.088122e+05 -2.143279e+04        0
       0        0        0

1.247137e+05 1.185759e+05        0
1.185759e+05 -2.118594e+04        0
       0        0        0

-1.666835e+05 1.185536e+05        0
1.185536e+05 -2.082274e+04        0
       0        0        0

-4.578408e+05 1.087507e+05        0
1.087507e+05 -2.055219e+04        0
       0        0        0

-7.486181e+05 8.935433e+04        0
8.935433e+04 -2.051028e+04        0
       0        0        0

-1.039104e+06 6.060345e+04        0
6.060345e+04 -2.065826e+04        0
       0        0        0

-1.329592e+06 2.258991e+04        0
2.258991e+04 -2.079207e+04        0
       0        0        0

1.243138e+06 2.270943e+04        0
2.270943e+04 -2.498210e+04        0
       0        0        0

9.611829e+05 6.084707e+04        0
6.084707e+04 -2.504187e+04        0
       0        0        0

6.794119e+05 8.952007e+04        0
8.952007e+04 -2.510676e+04        0
       0        0        0

3.976942e+05 1.087151e+05        0
1.087151e+05 -2.508705e+04        0
       0        0        0

1.159751e+05 1.183403e+05        0
1.183403e+05 -2.496213e+04        0
       0        0        0

-1.656966e+05 1.183187e+05        0
1.183187e+05 -2.479576e+04        0
       0        0        0

-4.472257e+05 1.086557e+05        0
1.086557e+05 -2.468699e+04        0
       0        0        0

-7.285608e+05 8.943859e+04        0
8.943859e+04 -2.469694e+04        0
       0        0        0

-1.009752e+06 6.076971e+04        0
6.076971e+04 -2.480000e+04        0
       0        0        0

-1.290922e+06 2.267274e+04        0
2.267274e+04 -2.489961e+04        0
       0        0        0

1.195902e+06 2.273919e+04        0
2.273919e+04 -2.922324e+04        0
       0        0        0

9.235708e+05 6.091458e+04        0
6.091458e+04 -2.915047e+04        0
       0        0        0

6.513590e+05 8.955767e+04        0
8.955767e+04 -2.910387e+04        0
       0        0        0

3.792147e+05 1.086759e+05        0
1.086759e+05 -2.904718e+04        0
       0        0        0

1.071092e+05 1.182389e+05        0
1.182389e+05 -2.896999e+04        0
       0        0        0

-1.649443e+05 1.182180e+05        0
1.182180e+05 -2.889900e+04        0
       0        0        0

-4.369126e+05 1.086185e+05        0
1.086185e+05 -2.887696e+04        0
       0        0        0

-7.087800e+05 8.947891e+04        0
8.947891e+04 -2.892824e+04        0
       0        0        0

-9.805709e+05 6.083975e+04        0
6.083975e+04 -2.903784e+04        0
       0        0        0

-1.252330e+06 2.270369e+04        0
2.270369e+04 -2.916302e+04        0
       0        0        0

1.148491e+06 2.274763e+04        0
2.274763e+04 -3.361527e+04        0
       0        0        0

8.858087e+05 6.093851e+04        0
6.093851e+04 -3.344415e+04        0
       0        0        0

6.231974e+05 8.957284e+04        0
8.957284e+04 -3.331675e+04        0
       0        0        0

3.606384e+05 1.086618e+05        0
1.086618e+05 -3.322145e+04        0
       0        0        0

9.811734e+04 1.181997e+05        0
1.181997e+05 -3.315416e+04        0
       0        0        0

-1.643651e+05 1.181796e+05        0
1.181796e+05 -3.312513e+04        0
       0        0        0

-4.268000e+05 1.086064e+05        0
1.086064e+05 -3.315081e+04        0
       0        0        0

-6.891844e+05 8.949683e+04        0
8.949683e+04 -3.323922e+04        0
       0        0        0

-9.515284e+05 6.086627e+04        0
6.086627e+04 -3.338182e+04        0
       0        0        0

-1.213844e+06 2.271337e+04        0
2.271337e+04 -3.356049e+04        0
       0        0        0

1.100960e+06 2.274841e+04        0
2.274841e+04 -3.812278e+04        0
       0        0        0

8.479289e+05 6.094459e+04        0
6.094459e+04 -3.787019e+04        0
       0        0        0

5.949322e+05 8.957762e+04        0
8.957762e+04 -3.767803e+04        0
       0        0        0

3.419635e+05 1.086573e+05        0
1.086573e+05 -3.754494e+04        0
       0        0        0

8.901558e+04 1.181867e+05        0
1.181867e+05 -3.747027e+04        0
       0        0        0

-1.639142e+05 1.181674e+05        0
1.181674e+05 -3.745768e+04        0
       0        0        0

-4.168253e+05 1.086039e+05        0
1.086039e+05 -3.751247e+04        0
       0        0        0

-6.697180e+05 8.950436e+04        0
8.950436e+04 -3.763608e+04        0
       0        0        0

-9.225952e+05 6.087498e+04        0
6.087498e+04 -3.782343e+04        0
       0        0        0

-1.175457e+06 2.271539e+04        0
2.271539e+04 -3.806658e+04        0
       0        0        0

1.053347e+06 2.274703e+04        0
2.274703e+04 -4.271420e+04        0
       0        0        0

8.099626e+05 6.094429e+04        0
6.094429e+04 -4.238866e+04        0
       0        0        0

5.665832e+05 8.957803e+04        0
8.957803e+04 -4.214000e+04        0
       0        0        0

3.232060e+05 1.086559e+05        0
1.086559e+05 -4.197068e+04        0
       0        0        0

7.982720e+04 1.181835e+05        0
1.181835e+05 -4.188171e+04        0
       0        0        0

-1.635563e+05 1.181649e+05        0
1.181649e+05 -4.187447e+04        0
       0        0        0

-4.069457e+05 1.086046e+05        0
1.086046e+05 -4.195008e+04        0
       0        0        0

-6.503417e+05 8.950753e+04        0
8.950753e+04 -4.210767e+04        0
       0        0        0

-8.937438e+05 6.087730e+04        0
6.087730e+04 -4.234382e+04        0
       0        0        0

-1.137148e+06 2.271526e+04        0
2.271526e+04 -4.265429e+04        0
       0        0        0

1.005683e+06 2.274539e+04        0
2.274539e+04 -4.736038e+04        0
       0        0        0

7.719394e+05 6.094219e+04        0
6.094219e+04 -4.696667e+04        0
       0        0        0

5.381756e+05 8.957681e+04        0
8.957681e+04 -4.666608e+04        0
       0        0        0

3.043894e+05 1.086553e+05        0
1.086553e+05 -4.646218e+04        0
       0        0        0

7.057816e+04 1.181832e+05        0
1.181832e+05 -4.635676e+04        0
       0        0        0

-1.632605e+05 1.181653e+05        0
1.181653e+05 -4.635058e+04        0
       0        0        0

-3.971278e+05 1.086060e+05        0
1.086060e+05 -4.644347e+04        0
       0        0        0

-6.310240e+05 8.950907e+04        0
8.950907e+04 -4.663394e+04        0
       0        0        0

-8.649473e+05 6.087783e+04        0
6.087783e+04 -4.691929e+04        0
       0        0        0

-1.098893e+06 2.271487e+04        0
2.271487e+04 -4.729637e+04        0
       0        0        0

9.579955e+05 2.274400e+04        0
2.274400e+04 -5.203381e+04        0
       0        0        0

7.338873e+05 6.093989e+04        0
6.093989e+04 -5.157525e+04        0
       0        0        0

5.097360e+05 8.957508e+04        0
8.957508e+04 -5.122566e+04        0
       0        0        0

2.855393e+05 1.086546e+05        0
1.086546e+05 -5.098880e+04        0
       0        0        0

6.129495e+04 1.181835e+05        0
1.181835e+05 -5.086675e+04        0
       0        0        0

-1.629989e+05 1.181663e+05        0
1.181663e+05 -5.086025e+04        0
       0        0        0

-3.873432e+05 1.086073e+05        0
1.086073e+05 -5.096887e+04        0
       0        0        0

-6.117373e+05 8.951011e+04        0
8.951011e+04 -5.119108e+04        0
       0        0        0

-8.361791e+05 6.087815e+04        0
6.087815e+04 -5.152449e+04        0
       0        0        0

-1.060664e+06 2.271473e+04        0
2.271473e+04 -5.196605e+04        0
       0        0        0

9.103102e+05 2.274290e+04        0
2.274290e+04 -5.670829e+04        0
       0        0        0

6.958326e+05 6.093780e+04        0
6.093780e+04 -5.618768e+04        0
       0        0        0

4.812907e+05 8.957328e+04        0
8.957328e+04 -5.579141e+04        0
       0        0        0

2.666817e+05 1.086537e+05        0
1.086537e+05 -5.552312e+04        0
       0        0        0

5.200354e+04 1.181835e+05        0
1.181835e+05 -5.538500e+04        0
       0        0        0

-1.627453e+05 1.181671e+05        0
1.181671e+05 -5.537790e+04        0
       0        0        0

-3.775653e+05 1.086084e+05        0
1.086084e+05 -5.550144e+04        0
       0        0        0

-5.924555e+05 8.951107e+04        0
8.951107e+04 -5.575422e+04        0
       0        0        0

-8.074137e+05 6.087870e+04        0
6.087870e+04 -5.613390e+04        0
       0        0        0

-1.022436e+06 2.271486e+04        0
2.271486e+04 -5.663735e+04        0
       0        0        0

8.626520e+05 2.274198e+04        0
2.274198e+04 -6.135878e+04        0
       0        0        0

6.578008e+05 6.093596e+04        0
6.093596e+04 -6.077882e+04        0
       0        0        0

4.528650e+05 8.957150e+04        0
8.957150e+04 -6.033795e+04        0
       0        0        0

2.478418e+05 1.086526e+05        0
1.086526e+05 -6.003971e+04        0
       0        0        0

4.272898e+04 1.181833e+05        0
1.181833e+05 -5.988630e+04        0
       0        0        0

-1.624747e+05 1.181676e+05        0
1.181676e+05 -5.987867e+04        0
       0        0        0

-3.677693e+05 1.086093e+05        0
1.086093e+05 -6.001656e+04        0
       0        0        0

-5.731539e+05 8.951206e+04        0
8.951206e+04 -6.029866e+04        0
       0        0        0

-7.786261e+05 6.087948e+04        0
6.087948e+04 -6.072266e+04        0
       0        0        0

-9.841819e+05 2.271520e+04        0
2.271520e+04 -6.128530e+04        0
       0        0        0

8.150447e+05 2.274119e+04        0
2.274119e+04 -6.596136e+04        0
       0        0        0

6.198157e+05 6.093429e+04        0
6.093429e+04 -6.532473e+04        0
       0        0        0

4.244830e+05 8.956978e+04        0
8.956978e+04 -6.484132e+04        0
       0        0        0

2.290436e+05 1.086514e+05        0
1.086514e+05 -6.451456e+04        0
       0        0        0

3.349528e+04 1.181828e+05        0
1.181828e+05 -6.434667e+04        0
       0        0        0

-1.621631e+05 1.181678e+05        0
1.181678e+05 -6.433865e+04        0
       0        0        0

-3.579315e+05 1.086101e+05        0
1.086101e+05 -6.449035e+04        0
       0        0        0

-5.538087e+05 8.951311e+04        0
8.951311e+04 -6.480052e+04        0
       0        0        0

-7.497925e+05 6.088043e+04        0
6.088043e+04 -6.526685e+04        0
       0        0        0

-9.458791e+05 2.271565e+04        0
2.271565e+04 -6.588596e+04        0
       0        0        0

7.675109e+05 2.274046e+04        0
2.274046e+04 -7.049318e+04        0
       0        0        0

5.819002e+05 6.093273e+04        0
6.093273e+04 -6.980260e+04        0
       0        0        0

3.961677e+05 8.956811e+04        0
8.956811e+04 -6.927870e+04        0
       0        0        0

2.103102e+05 1.086501e+05        0
1.086501e+05 -6.892486e+04        0
       0        0        0

2.432535e+04 1.181822e+05        0
1.181822e+05 -6.874327e+04        0
       0        0        0

-1.617877e+05 1.181679e+05        0
1.181679e+05 -6.873499e+04        0
       0        0        0

-3.480290e+05 1.086108e+05        0
1.086108e+05 -6.889993e+04        0
       0        0        0

-5.343973e+05 8.951420e+04        0
8.951420e+04 -6.923690e+04        0
       0        0        0

-7.208901e+05 6.088150e+04        0
6.088150e+04 -6.974356e+04        0
       0        0        0

-9.075041e+05 2.271617e+04        0
2.271617e+04 -7.041649e+04        0
       0        0        0

7.200723e+05 2.273978e+04        0
2.273978e+04 -7.493249e+04        0
       0        0        0

5.440762e+05 6.093125e+04        0
6.093125e+04 -7.419071e+04        0
       0        0        0

3.679410e+05 8.956648e+04        0
8.956648e+04 -7.362841e+04        0
       0        0        0

1.916633e+05 1.086488e+05        0
1.086488e+05 -7.324889e+04        0
       0        0        0

1.524098e+04 1.181815e+05        0
1.181815e+05 -7.305436e+04        0
       0        0        0

-1.613270e+05 1.181679e+05        0
1.181679e+05 -7.304590e+04        0
       0        0        0

-3.380404e+05 1.086115e+05        0
1.086115e+05 -7.322349e+04        0
       0        0        0

-5.148979e+05 8.951533e+04        0
8.951533e+04 -7.358598e+04        0
       0        0        0

-6.918973e+05 6.088265e+04        0
6.088265e+04 -7.413101e+04        0
       0        0        0

-8.690350e+05 2.271673e+04        0
2.271673e+04 -7.485511e+04        0
       0        0        0

6.727496e+05 2.273915e+04        0
2.273915e+04 -7.925863e+04        0
       0        0        0

5.063643e+05 6.092987e+04        0
6.092987e+04 -7.846843e+04        0
       0        0        0

3.398235e+05 8.956489e+04        0
8.956489e+04 -7.786983e+04        0
       0        0        0

1.731238e+05 1.086474e+05        0
1.086474e+05 -7.746605e+04        0
       0        0        0

6.262879e+03 1.181806e+05        0
1.181806e+05 -7.725929e+04        0
       0        0        0

-1.607601e+05 1.181679e+05        0
1.181679e+05 -7.725069e+04        0
       0        0        0

-3.279448e+05 1.086121e+05        0
1.086121e+05 -7.744030e+04        0
       0        0        0

-4.952900e+05 8.951651e+04        0
8.951651e+04 -7.782701e+04        0
       0        0        0

-6.627933e+05 6.088389e+04        0
6.088389e+04 -7.840849e+04        0
       0        0        0

-8.304513e+05 2.271735e+04        0
2.271735e+04 -7.918115e+04        0
       0        0        0

6.255623e+05 2.273859e+04        0
2.273859e+04 -8.345202e+04        0
       0        0        0

4.687842e+05 6.092860e+04        0
6.092860e+04 -8.261621e+04        0
       0        0        0

3.118350e+05 8.956335e+04        0
8.956335e+04 -8.198342e+04        0
       0        0        0

1.547113e+05 1.086460e+05        0
1.086460e+05 -8.155678e+04        0
       0        0        0

-2.589332e+03 1.181797e+05        0
1.181797e+05 -8.133849e+04        0
       0        0        0

-1.600676e+05 1.181676e+05        0
1.181676e+05 -8.132976e+04        0
       0        0        0

-3.177230e+05 1.086127e+05        0
1.086127e+05 -8.153073e+04        0
       0        0        0

-4.755540e+05 8.951773e+04        0
8.951773e+04 -8.194037e+04        0
       0        0        0

-6.335585e+05 6.088526e+04        0
6.088526e+04 -8.255636e+04        0
       0        0        0

-7.917331e+05 2.271804e+04        0
2.271804e+04 -8.337502e+04        0
       0        0        0

5.785286e+05 2.273817e+04        0
2.273817e+04 -8.749418e+04        0
       0        0        0

4.313542e+05 6.092752e+04        0
6.092752e+04 -8.661559e+04        0
       0        0        0

2.839942e+05 8.956185e+04        0
8.956185e+04 -8.595072e+04        0
       0        0        0

1.364444e+05 1.086444e+05        0
1.086444e+05 -8.550260e+04        0
       0        0        0

-1.129712e+04 1.181785e+05        0
1.181785e+05 -8.527347e+04        0
       0        0        0

-1.592310e+05 1.181672e+05        0
1.181672e+05 -8.526462e+04        0
       0        0        0

-3.073564e+05 1.086132e+05        0
1.086132e+05 -8.547630e+04        0
       0        0        0

-4.556717e+05 8.951900e+04        0
8.951900e+04 -8.590754e+04        0
       0        0        0

-6.041745e+05 6.088680e+04        0
6.088680e+04 -8.655609e+04        0
       0        0        0

-7.528619e+05 2.271886e+04        0
2.271886e+04 -8.741819e+04        0
       0        0        0

5.316658e+05 2.273795e+04        0
2.273795e+04 -9.136769e+04        0
       0        0        0

3.940921e+05 6.092663e+04        0
6.092663e+04 -9.044910e+04        0
       0        0        0

2.563184e+05 8.956035e+04        0
8.956035e+04 -8.975416e+04        0
       0        0        0

1.183407e+05 1.086427e+05        0
1.086427e+05 -8.928591e+04        0
       0        0        0

-1.984304e+04 1.181771e+05        0
1.181771e+05 -8.904673e+04        0
       0        0        0

-1.582329e+05 1.181665e+05        0
1.181665e+05 -8.903797e+04        0
       0        0        0

-2.968278e+05 1.086135e+05        0
1.086135e+05 -8.925978e+04        0
       0        0        0

-4.356257e+05 8.952026e+04        0
8.952026e+04 -8.971126e+04        0
       0        0        0

-5.746240e+05 6.088854e+04        0
6.088854e+04 -9.039032e+04        0
       0        0        0

-7.138200e+05 2.271989e+04        0
2.271989e+04 -9.129325e+04        0
       0        0        0

4.849900e+05 2.273796e+04        0
2.273796e+04 -9.505616e+04        0
       0        0        0

3.570143e+05 6.092577e+04        0
6.092577e+04 -9.410011e+04        0
       0        0        0

2.288244e+05 8.955862e+04        0
8.955862e+04 -9.337680e+04        0
       0        0        0

1.004164e+05 1.086409e+05        0
1.086409e+05 -9.288973e+04        0
       0        0        0

-2.821084e+04 1.181759e+05        0
1.181759e+05 -9.264170e+04        0
       0        0        0

-1.570570e+05 1.181660e+05        0
1.181660e+05 -9.263378e+04        0
       0        0        0

-2.861209e+05 1.086137e+05        0
1.086137e+05 -9.286554e+04        0
       0        0        0

-4.153999e+05 8.952130e+04        0
8.952130e+04 -9.333582e+04        0
       0        0        0

-5.448908e+05 6.089031e+04        0
6.089031e+04 -9.404299e+04        0
       0        0        0

-6.745908e+05 2.272114e+04        0
2.272114e+04 -9.498387e+04        0
       0        0        0

4.385165e+05 2.273798e+04        0
2.273798e+04 -9.854412e+04        0
       0        0        0

3.201365e+05 6.092413e+04        0
6.092413e+04 -9.755241e+04        0
       0        0        0

2.015270e+05 8.955604e+04        0
8.955604e+04 -9.680154e+04        0
       0        0        0

8.268605e+04 1.086393e+05        0
1.086393e+05 -9.629692e+04        0
       0        0        0

-3.638570e+04 1.181760e+05        0
1.181760e+05 -9.604233e+04        0
       0        0        0

-1.556878e+05 1.181669e+05        0
1.181669e+05 -9.603768e+04        0
       0        0        0

-2.752197e+05 1.086142e+05        0
1.086142e+05 -9.628030e+04        0
       0        0        0

-3.949789e+05 8.952148e+04        0
8.952148e+04 -9.676788e+04        0
       0        0        0

-5.149601e+05 6.089129e+04        0
6.089129e+04 -9.749979e+04        0
       0        0        0

-6.351590e+05 2.272241e+04        0
2.272241e+04 -9.847493e+04        0
       0        0        0

3.922608e+05 2.273705e+04        0
2.273705e+04 -1.018168e+05        0
       0        0        0

2.834737e+05 6.091918e+04        0
6.091918e+04 -1.007892e+05        0
       0        0        0

1.744389e+05 8.955103e+04        0
8.955103e+04 -1.000095e+05        0
       0        0        0

6.516112e+04 1.086394e+05        0
1.086394e+05 -9.948864e+04        0
       0        0        0

-4.435479e+04 1.181814e+05        0
1.181814e+05 -9.923256e+04        0
       0        0        0

-1.541098e+05 1.181730e+05        0
1.181730e+05 -9.923756e+04        0
       0        0        0

-2.641076e+05 1.086162e+05        0
1.086162e+05 -9.949471e+04        0
       0        0        0

-3.743470e+05 8.951924e+04        0
8.951924e+04 -9.999807e+04        0
       0        0        0

-4.848186e+05 6.088897e+04        0
6.088897e+04 -1.007491e+05        0
       0        0        0

-5.955116e+05 2.272272e+04        0
2.272272e+04 -1.017526e+05        0
       0        0        0

3.462408e+05 2.273213e+04        0
2.273213e+04 -1.048596e+05        0
       0        0        0

2.470402e+05 6.090435e+04        0
6.090435e+04 -1.037913e+05        0
       0        0        0

1.475679e+05 8.953998e+04        0
8.953998e+04 -1.029768e+05        0
       0        0        0

4.784706e+04 1.086446e+05        0
1.086446e+05 -1.024414e+05        0
       0        0        0

-5.210859e+04 1.182015e+05        0
1.182015e+05 -1.021950e+05        0
       0        0        0

-1.523066e+05 1.181938e+05        0
1.181938e+05 -1.022248e+05        0
       0        0        0

-2.527641e+05 1.086235e+05        0
1.086235e+05 -1.025064e+05        0
       0        0        0

-3.534861e+05 8.951095e+04        0
8.951095e+04 -1.030243e+05        0
       0        0        0

-4.544544e+05 6.087677e+04        0
6.087677e+04 -1.037842e+05        0
       0        0        0

-5.556397e+05 2.271905e+04        0
2.271905e+04 -1.048050e+05        0
       0        0        0

3.004822e+05 2.271539e+04        0
2.271539e+04 -1.076574e+05        0
       0        0        0

2.108493e+05 6.086437e+04        0
6.086437e+04 -1.065333e+05        0
       0        0        0

1.209111e+05 8.951546e+04        0
8.951546e+04 -1.056691e+05        0
       0        0        0

3.073692e+04 1.086641e+05        0
1.086641e+05 -1.051219e+05        0
       0        0        0

-5.964355e+04 1.182578e+05        0
1.182578e+05 -1.049091e+05        0
       0        0        0

-1.502580e+05 1.182508e+05        0
1.182508e+05 -1.049962e+05        0
       0        0        0

-2.411586e+05 1.086450e+05        0
1.086450e+05 -1.053249e+05        0
       0        0        0

-3.323700e+05 8.948920e+04        0
8.948920e+04 -1.058577e+05        0
       0        0        0

-4.238570e+05 6.083943e+04        0
6.083943e+04 -1.066065e+05        0
       0        0        0

-5.155448e+05 2.270357e+04        0
2.270357e+04 -1.076228e+05        0
       0        0        0

2.550302e+05 2.266861e+04        0
2.266861e+04 -1.101928e+05        0
       0        0        0

1.749112e+05 6.076689e+04        0
6.076689e+04 -1.089786e+05        0
       0        0        0

9.444394e+04 8.946363e+04        0
8.946363e+04 -1.080332e+05        0
       0        0        0

1.379929e+04 1.087177e+05        0
1.087177e+05 -1.074804e+05        0
       0        0        0

-6.696699e+04 1.183950e+05        0
1.183950e+05 -1.073481e+05        0
       0        0        0

-1.479345e+05 1.183887e+05        0
1.183887e+05 -1.075565e+05        0
       0        0        0

-2.292386e+05 1.087005e+05        0
1.087005e+05 -1.079789e+05        0
       0        0        0

-3.109536e+05 8.944014e+04        0
8.944014e+04 -1.085307e+05        0
       0        0        0

-3.930164e+05 6.074460e+04        0
6.074460e+04 -1.092323e+05        0
       0        0        0

-4.752498e+05 2.265805e+04        0
2.265805e+04 -1.102010e+05        0
       0        0        0

2.099707e+05 2.255312e+04        0
2.255312e+04 -1.124452e+05        0
       0        0        0

1.392276e+05 6.054966e+04        0
6.054966e+04 -1.110720e+05        0
       0        0        0

6.809783e+04 8.936201e+04        0
8.936201e+04 -1.099896e+05        0
       0        0        0

-3.042201e+03 1.088455e+05        0
1.088455e+05 -1.094456e+05        0
       0        0        0

-7.410476e+04 1.186961e+05        0
1.186961e+05 -1.094775e+05        0
       0        0        0

-1.452897e+05 1.186906e+05        0
1.186906e+05 -1.099193e+05        0
       0        0        0

-2.169085e+05 1.088304e+05        0
1.088304e+05 -1.105207e+05        0
       0        0        0

-2.891518e+05 8.934130e+04        0
8.934130e+04 -1.111065e+05        0
       0        0        0

-3.619182e+05 6.053005e+04        0
6.053005e+04 -1.117009e+05        0
       0        0        0

-4.348222e+05 2.254384e+04        0
2.254384e+04 -1.125421e+05        0
       0        0        0

1.654676e+05 2.229389e+04        0
2.229389e+04 -1.143894e+05        0
       0        0        0

1.037757e+05 6.010633e+04        0
6.010633e+04 -1.127378e+05        0
       0        0        0

4.172434e+04 8.918285e+04        0
8.918285e+04 -1.114369e+05        0
       0        0        0

-1.993674e+04 1.091211e+05        0
1.091211e+05 -1.109352e+05        0
       0        0        0

-8.111029e+04 1.192969e+05        0
1.192969e+05 -1.112604e+05        0
       0        0        0

-1.422485e+05 1.192922e+05        0
1.192922e+05 -1.121001e+05        0
       0        0        0

-2.040019e+05 1.091080e+05        0
1.091080e+05 -1.130150e+05        0
       0        0        0

-2.668047e+05 8.916493e+04        0
8.916493e+04 -1.136749e+05        0
       0        0        0

-3.305323e+05 6.008944e+04        0
6.008944e+04 -1.140806e+05        0
       0        0        0

-3.944153e+05 2.228592e+04        0
2.228592e+04 -1.146607e+05        0
       0        0        0

1.218143e+05 2.175987e+04        0
2.175987e+04 -1.160001e+05        0
       0        0        0

6.846991e+04 5.928775e+04        0
5.928775e+04 -1.139016e+05        0
       0        0        0

1.504776e+04 8.891653e+04        0
8.891653e+04 -1.123083e+05        0
       0        0        0

-3.712658e+04 1.096611e+05        0
1.096611e+05 -1.119237e+05        0
       0        0        0

-8.806576e+04 1.203706e+05        0
1.203706e+05 -1.126850e+05        0
       0        0        0

-1.387020e+05 1.203666e+05        0
1.203666e+05 -1.140839e+05        0
       0        0        0

-1.902583e+05 1.096500e+05        0
1.096500e+05 -1.154691e+05        0
       0        0        0

-2.436324e+05 8.890144e+04        0
8.890144e+04 -1.162985e+05        0
       0        0        0

-2.987810e+05 5.927361e+04        0
5.927361e+04 -1.164537e+05        0
       0        0        0

-3.543298e+05 2.175326e+04        0
2.175326e+04 -1.165894e+05        0
       0        0        0

7.947515e+04 2.075678e+04        0
2.075678e+04 -1.172821e+05        0
       0        0        0

3.307865e+04 5.797447e+04        0
5.797447e+04 -1.145899e+05        0
       0        0        0

-1.236393e+04 8.865059e+04        0
8.865059e+04 -1.127886e+05        0
       0        0        0

-5.490063e+04 1.106013e+05        0
1.106013e+05 -1.126577e+05        0
       0        0        0

-9.504947e+04 1.220074e+05        0
1.220074e+05 -1.138552e+05        0
       0        0        0

-1.345317e+05 1.220041e+05        0
1.220041e+05 -1.157267e+05        0
       0        0        0

-1.753639e+05 1.105923e+05        0
1.105923e+05 -1.176118e+05        0
       0        0        0

-2.192067e+05 8.863840e+04        0
8.863840e+04 -1.187962e+05        0
       0        0        0

-2.664683e+05 5.796312e+04        0
5.796312e+04 -1.188293e+05        0
       0        0        0

-3.150782e+05 2.075156e+04        0
2.075156e+04 -1.183719e+05        0
       0        0        0

3.901604e+04 1.910250e+04        0
1.910250e+04 -1.183311e+05        0
       0        0        0

-2.945801e+03 5.638064e+04        0
5.638064e+04 -1.153385e+05        0
       0        0        0

-4.097162e+04 8.874194e+04        0
8.874194e+04 -1.139163e+05        0
       0        0        0

-7.334316e+04 1.119428e+05        0
1.119428e+05 -1.141993e+05        0
       0        0        0

-1.020044e+05 1.238170e+05        0
1.238170e+05 -1.151847e+05        0
       0        0        0

-1.297257e+05 1.238146e+05        0
1.238146e+05 -1.165458e+05        0
       0        0        0

-1.591896e+05 1.119363e+05        0
1.119363e+05 -1.183359e+05        0
       0        0        0

-1.930733e+05 8.873286e+04        0
8.873286e+04 -1.201362e+05        0
       0        0        0

-2.331278e+05 5.637209e+04        0
5.637209e+04 -1.207525e+05        0
       0        0        0

-2.773664e+05 1.909865e+04        0
1.909865e+04 -1.200521e+05        0
       0        0        0

5.231885e+02 1.710271e+04        0
1.710271e+04 -1.199683e+05        0
       0        0        0

-4.055900e+04 5.592265e+04        0
5.592265e+04 -1.183223e+05        0
       0        0        0

-7.064224e+04 9.001307e+04        0
9.001307e+04 -1.192608e+05        0
       0        0        0

-9.160225e+04 1.128998e+05        0
1.128998e+05 -1.193451e+05        0
       0        0        0

-1.084793e+05 1.240404e+05        0
1.240404e+05 -1.176209e+05        0
       0        0        0

-1.246149e+05 1.240392e+05        0
1.240392e+05 -1.154734e+05        0
       0        0        0

-1.424954e+05 1.128964e+05        0
1.128964e+05 -1.147534e+05        0
       0        0        0

-1.653497e+05 9.000769e+04        0
9.000769e+04 -1.167341e+05        0
       0        0        0

-1.979384e+05 5.591692e+04        0
5.591692e+04 -1.201833e+05        0
       0        0        0

-2.416132e+05 1.710010e+04        0
1.710010e+04 -1.211410e+05        0
       0        0        0

-3.838756e+04 1.780089e+04        0
1.780089e+04 -1.241547e+05        0
       0        0        0

-8.056431e+04 6.133461e+04        0
6.133461e+04 -1.329179e+05        0
       0        0        0

-9.823377e+04 9.241439e+04        0
9.241439e+04 -1.376493e+05        0
       0        0        0

-1.069299e+05 1.101518e+05        0
1.101518e+05 -1.330247e+05        0
       0        0        0

-1.134903e+05 1.182691e+05        0
1.182691e+05 -1.226657e+05        0
       0        0        0

-1.199857e+05 1.182695e+05        0
1.182695e+05 -1.108102e+05        0
       0        0        0

-1.278480e+05 1.101525e+05        0
1.101525e+05 -1.017531e+05        0
       0        0        0

-1.390687e+05 9.241419e+04        0
9.241419e+04 -9.965328e+04        0
       0        0        0

-1.602170e+05 6.133242e+04        0
6.133242e+04 -1.078653e+05        0
       0        0        0

-2.060740e+05 1.779909e+04        0
1.779909e+04 -1.203165e+05        0
       0        0        0

-9.041227e+04 4.054631e+04        0
4.054631e+04 -1.562833e+05        0
       0        0        0

-1.138421e+05 7.593486e+04        0
7.593486e+04 -1.858539e+05        0
       0        0        0

-1.150718e+05 8.920336e+04        0
8.920336e+04 -1.817339e+05        0
       0        0        0

-1.153875e+05 9.571255e+04        0
9.571255e+04 -1.608397e+05        0
       0        0        0

-1.157489e+05 9.856239e+04        0
9.856239e+04 -1.317915e+05        0
       0        0        0

-1.168366e+05 9.856429e+04        0
9.856429e+04 -1.007937e+05        0
       0        0        0

-1.188659e+05 9.571771e+04        0
9.571771e+04 -7.341100e+04        0
       0        0        0

-1.225609e+05 8.921016e+04        0
8.921016e+04 -5.589328e+04        0
       0        0        0

-1.289065e+05 7.594047e+04        0
7.594047e+04 -5.688864e+04        0
       0        0        0

-1.586523e+05 4.054609e+04        0
4.054609e+04 -9.278138e+04        0
       0        0        0

POINT_DATA     451
VECTORS DISPLACEMENT_9.000000e-01 double
0.000000e+00    0.000000e+00    0.000000e+00
0.000000e+00    0.000000e+00    0.000000e+00
0.000000e+00    0.000000e+00    0.000000e+00
0.000000e+00    0.000000e+00    0.000000e+00
0.000000e+00    0.000000e+00    0.000000e+00
0.000000e+00    0.000000e+00    0.000000e+00
0.000000e+00    0.000000e+00    0.000000e+00
0.000000e+00    0.000000e+00    0.000000e+00
0.000000e+00    0.000000e+00    0.000000e+00
0.000000e+00    0.000000e+00    0.000000e+00
0.000000e+00    0.000000e+00    0.000000e+00
-1.141595e-06    -8.299605e-07    0.000000e+00
-7.233448e-07    -4.163094e-07    0.000000e+00
-5.161144e-07    -2.157261e-07    0.000000e+00
-3.332233e-07    -1.068318e-07    0.000000e+00
-1.642863e-07    -5.047426e-08    0.000000e+00
-4.102350e-20    -3.295145e-08    0.000000e+00
1.642863e-07    -5.047426e-08    0.000000e+00
3.332233e-07    -1.068318e-07    0.000000e+00
5.161144e-07    -2.157261e-07    0.000000e+00
7.233448e-07    -4.163094e-07    0.000000e+00
1.141595e-06    -8.299605e-07    0.000000e+00
-2.153941e-06    -1.380309e-06    0.000000e+00
-1.574436e-06    -9.987668e-07    0.000000e+00
-1.105093e-06    -7.015532e-07    0.000000e+00
-7.128292e-07    -5.177059e-07    0.000000e+00
-3.501023e-07    -4.175298e-07    0.000000e+00
-8.673402e-20    -3.857102e-07    0.000000e+00
3.501023e-07    -4.175298e-07    0.000000e+00
7.128292e-07    -5.177059e-07    0.000000e+00
1.105093e-06    -7.015532e-07    0.000000e+00
1.574436e-06    -9.987668e-07    0.000000e+00
2.153941e-06    -1.380309e-06    0.000000e+00
-3.132427e-06    -2.064634e-06    0.000000e+00
-2.394168e-06    -1.682257e-06    0.000000e+00
-1.722702e-06    -1.380761e-06    0.000000e+00
-1.115240e-06    -1.168096e-06    0.000000e+00
-5.487489e-07    -1.045521e-06    0.000000e+00
-1.366403e-19    -1.005593e-06    0.000000e+00
5.487489e-07    -1.045521e-06    0.000000e+00
1.115240e-06    -1.168096e-06    0.000000e+00
1.722702e-06    -1.380761e-06    0.000000e+00
2.394168e-06    -1.682257e-06    0.000000e+00
3.132427e-06    -2.064634e-06    0.000000e+00
-4.100076e-06    -2.909172e-06    0.000000e+00
-3.186876e-06    -2.535522e-06    0.000000e+00
-2.326958e-06    -2.239053e-06    0.000000e+00
-1.519408e-06    -2.025105e-06    0.000000e+00
-7.500557e-07    -1.896684e-06    0.000000e+00
-1.885839e-19    -1.854101e-06    0.000000e+00
7.500557e-07    -1.896684e-06    0.000000e+00
1.519408e-06    -2.025105e-06    0.000000e+00
2.326958e-06    -2.239053e-06    0.000000e+00
3.186876e-06    -2.535522e-06    0.000000e+00
4.100076e-06    -2.909172e-06    0.000000e+00
-5.051341e-06    -3.936654e-06    0.000000e+00
-3.956477e-06    -3.571725e-06    0.000000e+00
-2.911986e-06    -3.284208e-06    0.000000e+00
-1.912865e-06    -3.075889e-06    0.000000e+00
-9.475500e-07    -2.949778e-06    0.000000e+00
-2.419867e-19    -2.907564e-06    0.000000e+00
9.475500e-07    -2.949778e-06    0.000000e+00
1.912865e-06    -3.075889e-06    0.000000e+00
2.911986e-06    -3.284208e-06    0.000000e+00
3.956477e-06    -3.571725e-06    0.000000e+00
5.051341e-06    -3.936654e-06    0.000000e+00
-5.981873e-06    -5.149742e-06    0.000000e+00
-4.704513e-06    -4.794468e-06    0.000000e+00
-3.477740e-06    -4.516043e-06    0.000000e+00
-2.292922e-06    -4.315096e-06    0.000000e+00
-1.138484e-06    -4.193469e-06    0.000000e+00
-2.965012e-19    -4.152740e-06    0.000000e+00
1.138484e-06    -4.193469e-06    0.000000e+00
2.292922e-06    -4.315096e-06    0.000000e+00
3.477740e-06    -4.516043e-06    0.000000e+00
4.704513e-06    -4.794468e-06    0.000000e+00
5.981873e-06    -5.149742e-06    0.000000e+00
-6.888558e-06    -6.546376e-06    0.000000e+00
-5.431254e-06    -6.201154e-06    0.000000e+00
-4.025294e-06    -5.931590e-06    0.000000e+00
-2.659769e-06    -5.737829e-06    0.000000e+00
-1.322562e-06    -5.620886e-06    0.000000e+00
-3.481305e-19    -5.581769e-06    0.000000e+00
1.322562e-06    -5.620886e-06    0.000000e+00
2.659769e-06    -5.737829e-06    0.000000e+00
4.025294e-06    -5.931590e-06    0.000000e+00
5.431254e-06    -6.201154e-06    0.000000e+00
6.888558e-06    -6.546376e-06    0.000000e+00
-7.769676e-06    -8.122139e-06    0.000000e+00
-6.136609e-06    -7.787205e-06    0.000000e+00
-4.555509e-06    -7.526210e-06    0.000000e+00
-3.014226e-06    -7.339157e-06    0.000000e+00
-1.500173e-06    -7.226543e-06    0.000000e+00
-3.990319e-19    -7.188927e-06    0.000000e+00
1.500173e-06    -7.226543e-06    0.000000e+00
3.014226e-06    -7.339157e-06    0.000000e+00
4.555509e-06    -7.526210e-06    0.000000e+00
6.136609e-06    -7.787205e-06    0.000000e+00
7.769676e-06    -8.122139e-06    0.000000e+00
-8.624338e-06    -9.871838e-06    0.000000e+00
-6.820449e-06    -9.547301e-06    0.000000e+00
-5.068913e-06    -9.294676e-06    0.000000e+00
-3.356973e-06    -9.113935e-06    0.000000e+00
-1.671744e-06    -9.005300e-06    0.000000e+00
-4.509656e-19    -8.969049e-06    0.000000e+00
1.671744e-06    -9.005300e-06    0.000000e+00
3.356973e-06    -9.113935e-06    0.000000e+00
5.068913e-06    -9.294676e-06    0.000000e+00
6.820449e-06    -9.547301e-06    0.000000e+00
8.624338e-06    -9.871838e-06    0.000000e+00
-9.452128e-06    -1.179002e-05    0.000000e+00
-7.482678e-06    -1.147593e-05    0.000000e+00
-5.565791e-06    -1.123156e-05    0.000000e+00
-3.688437e-06    -1.105688e-05    0.000000e+00
-1.837569e-06    -1.095199e-05    0.000000e+00
-5.033493e-19    -1.091701e-05    0.000000e+00
1.837569e-06    -1.095199e-05    0.000000e+00
3.688437e-06    -1.105688e-05    0.000000e+00
5.565791e-06    -1.123156e-05    0.000000e+00
7.482678e-06    -1.147593e-05    0.000000e+00
9.452128e-06    -1.179002e-05    0.000000e+00
-1.025287e-05    -1.387120e-05    0.000000e+00
-8.123242e-06    -1.356758e-05    0.000000e+00
-6.046283e-06    -1.333140e-05    0.000000e+00
-4.008850e-06    -1.316265e-05    0.000000e+00
-1.997814e-06    -1.306137e-05    0.000000e+00
-5.494597e-19    -1.302760e-05    0.000000e+00
1.997814e-06    -1.306137e-05    0.000000e+00
4.008850e-06    -1.316265e-05    0.000000e+00
6.046283e-06    -1.333140e-05    0.000000e+00
8.123242e-06    -1.356758e-05    0.000000e+00
1.025287e-05    -1.387120e-05    0.000000e+00
-1.102648e-05    -1.610989e-05    0.000000e+00
-8.742113e-06    -1.581673e-05    0.000000e+00
-6.510452e-06    -1.558871e-05    0.000000e+00
-4.318325e-06    -1.542583e-05    0.000000e+00
-2.152566e-06    -1.532809e-05    0.000000e+00
-5.975288e-19    -1.529550e-05    0.000000e+00
2.152566e-06    -1.532809e-05    0.000000e+00
4.318325e-06    -1.542583e-05    0.000000e+00
6.510452e-06    -1.558871e-05    0.000000e+00
8.742113e-06    -1.581673e-05    0.000000e+00
1.102648e-05    -1.610989e-05    0.000000e+00
-1.177296e-05    -1.850062e-05    0.000000e+00
-9.339276e-06    -1.821793e-05    0.000000e+00
-6.958324e-06    -1.799806e-05    0.000000e+00
-4.616914e-06    -1.784101e-05    0.000000e+00
-2.301865e-06    -1.774678e-05    0.000000e+00
-6.515801e-19    -1.771537e-05    0.000000e+00
2.301865e-06    -1.774678e-05    0.000000e+00
4.616914e-06    -1.784101e-05    0.000000e+00
6.958324e-06    -1.799806e-05    0.000000e+00
9.339276e-06    -1.821793e-05    0.000000e+00
1.177296e-05    -1.850062e-05    0.000000e+00
-1.249228e-05    -2.103794e-05    0.000000e+00
-9.914727e-06    -2.076572e-05    0.000000e+00
-7.389909e-06    -2.055400e-05    0.000000e+00
-4.904637e-06    -2.040277e-05    0.000000e+00
-2.445728e-06    -2.031204e-05    0.000000e+00
-6.891672e-19    -2.028179e-05    0.000000e+00
2.445728e-06    -2.031204e-05    0.000000e+00
4.904637e-06    -2.040277e-05    0.000000e+00
7.389909e-06    -2.055400e-05    0.000000e+00
9.914727e-06    -2.076572e-05    0.000000e+00
1.249228e-05    -2.103794e-05    0.000000e+00
-1.318446e-05    -2.371642e-05    0.000000e+00
-1.046846e-05    -2.345467e-05    0.000000e+00
-7.805208e-06    -2.325109e-05    0.000000e+00
-5.181501e-06    -2.310568e-05    0.000000e+00
-2.584160e-06    -2.301844e-05    0.000000e+00
-7.242132e-19    -2.298935e-05    0.000000e+00
2.584160e-06    -2.301844e-05    0.000000e+00
5.181501e-06    -2.310568e-05    0.000000e+00
7.805208e-06    -2.325109e-05    0.000000e+00
1.046846e-05    -2.345467e-05    0.000000e+00
1.318446e-05    -2.371642e-05    0.000000e+00
-1.384949e-05    -2.653062e-05    0.000000e+00
-1.100049e-05    -2.627934e-05    0.000000e+00
-8.204222e-06    -2.608391e-05    0.000000e+00
-5.447509e-06    -2.594431e-05    0.000000e+00
-2.717163e-06    -2.586055e-05    0.000000e+00
-7.550240e-19    -2.583264e-05    0.000000e+00
2.717163e-06    -2.586055e-05    0.000000e+00
5.447509e-06    -2.594431e-05    0.000000e+00
8.204222e-06    -2.608391e-05    0.000000e+00
1.100049e-05    -2.627934e-05    0.000000e+00
1.384949e-05    -2.653062e-05    0.000000e+00
-1.448737e-05    -2.947511e-05    0.000000e+00
-1.151079e-05    -2.923430e-05    0.000000e+00
-8.586950e-06    -2.904701e-05    0.000000e+00
-5.702661e-06    -2.891323e-05    0.000000e+00
-2.844739e-06    -2.883296e-05    0.000000e+00
-7.660354e-19    -2.880621e-05    0.000000e+00
2.844739e-06    -2.883296e-05    0.000000e+00
5.702661e-06    -2.891323e-05    0.000000e+00
8.586950e-06    -2.904701e-05    0.000000e+00
1.151079e-05    -2.923430e-05    0.000000e+00
1.448737e-05    -2.947511e-05    0.000000e+00
-1.509811e-05    -3.254446e-05    0.000000e+00
-1.199938e-05    -3.231413e-05    0.000000e+00
-8.953392e-06    -3.213498e-05    0.000000e+00
-5.946955e-06    -3.200701e-05    0.000000e+00
-2.966886e-06    -3.193024e-05    0.000000e+00
-7.892229e-19    -3.190464e-05    0.000000e+00
2.966886e-06    -3.193024e-05    0.000000e+00
5.946955e-06    -3.200701e-05    0.000000e+00
8.953392e-06    -3.213498e-05    0.000000e+00
1.199938e-05    -3.231413e-05    0.000000e+00
1.509811e-05    -3.254446e-05    0.000000e+00
-1.568170e-05    -3.573325e-05    0.000000e+00
-1.246626e-05    -3.551338e-05    0.000000e+00
-9.303549e-06    -3.534238e-05    0.000000e+00
-6.180392e-06    -3.522023e-05    0.000000e+00
-3.083604e-06    -3.514694e-05    0.000000e+00
-8.295629e-19    -3.512251e-05    0.000000e+00
3.083604e-06    -3.514694e-05    0.000000e+00
6.180392e-06    -3.522023e-05    0.000000e+00
9.303549e-06    -3.534238e-05    0.000000e+00
1.246626e-05    -3.551338e-05    0.000000e+00
1.568170e-05    -3.573325e-05    0.000000e+00
-1.623815e-05    -3.903604e-05    0.000000e+00
-1.291142e-05    -3.882665e-05    0.000000e+00
-9.637419e-06    -3.866378e-05    0.000000e+00
-6.402972e-06    -3.854745e-05    0.000000e+00
-3.194894e-06    -3.847765e-05    0.000000e+00
-8.851494e-19    -3.845439e-05    0.000000e+00
3.194894e-06    -3.847765e-05    0.000000e+00
6.402972e-06    -3.854745e-05    0.000000e+00
9.637419e-06    -3.866378e-05    0.000000e+00
1.291142e-05    -3.882665e-05    0.000000e+00
1.623815e-05    -3.903604e-05    0.000000e+00
-1.676746e-05    -4.244741e-05    0.000000e+00
-1.333486e-05    -4.224848e-05    0.000000e+00
-9.955003e-06    -4.209376e-05    0.000000e+00
-6.614695e-06    -4.198325e-05    0.000000e+00
-3.300755e-06    -4.191694e-05    0.000000e+00
-9.558767e-19    -4.189484e-05    0.000000e+00
3.300755e-06    -4.191694e-05    0.000000e+00
6.614695e-06    -4.198325e-05    0.000000e+00
9.955003e-06    -4.209376e-05    0.000000e+00
1.333486e-05    -4.224848e-05    0.000000e+00
1.676746e-05    -4.244741e-05    0.000000e+00
-1.726962e-05    -4.596192e-05    0.000000e+00
-1.373659e-05    -4.577347e-05    0.000000e+00
-1.025630e-05    -4.562689e-05    0.000000e+00
-6.815560e-06    -4.552219e-05    0.000000e+00
-3.401188e-06    -4.545937e-05    0.000000e+00
-1.008181e-18    -4.543843e-05    0.000000e+00
3.401188e-06    -4.545937e-05    0.000000e+00
6.815560e-06    -4.552219e-05    0.000000e+00
1.025630e-05    -4.562689e-05    0.000000e+00
1.373659e-05    -4.577347e-05    0.000000e+00
1.726962e-05    -4.596192e-05    0.000000e+00
-1.774464e-05    -4.957415e-05    0.000000e+00
-1.411661e-05    -4.939617e-05    0.000000e+00
-1.054131e-05    -4.925773e-05    0.000000e+00
-7.005568e-06    -4.915885e-05    0.000000e+00
-3.496192e-06    -4.909952e-05    0.000000e+00
-1.052227e-18    -4.907975e-05    0.000000e+00
3.496192e-06    -4.909952e-05    0.000000e+00
7.005568e-06    -4.915885e-05    0.000000e+00
1.054131e-05    -4.925773e-05    0.000000e+00
1.411661e-05    -4.939617e-05    0.000000e+00
1.774464e-05    -4.957415e-05    0.000000e+00
-1.819252e-05    -5.327868e-05    0.000000e+00
-1.447491e-05    -5.311116e-05    0.000000e+00
-1.081004e-05    -5.298087e-05    0.000000e+00
-7.184718e-06    -5.288780e-05    0.000000e+00
-3.585767e-06    -5.283196e-05    0.000000e+00
-1.102625e-18    -5.281335e-05    0.000000e+00
3.585767e-06    -5.283196e-05    0.000000e+00
7.184718e-06    -5.288780e-05    0.000000e+00
1.081004e-05    -5.298087e-05    0.000000e+00
1.447491e-05    -5.311116e-05    0.000000e+00
1.819252e-05    -5.327868e-05    0.000000e+00
-1.861325e-05    -5.707006e-05    0.000000e+00
-1.481149e-05    -5.691301e-05    0.000000e+00
-1.106248e-05    -5.679086e-05    0.000000e+00
-7.353011e-06    -5.670361e-05    0.000000e+00
-3.669914e-06    -5.665126e-05    0.000000e+00
-1.124436e-18    -5.663381e-05    0.000000e+00
3.669914e-06    -5.665126e-05    0.000000e+00
7.353011e-06    -5.670361e-05    0.000000e+00
1.106248e-05    -5.679086e-05    0.000000e+00
1.481149e-05    -5.691301e-05    0.000000e+00
1.861325e-05    -5.707006e-05    0.000000e+00
-1.900683e-05    -6.094287e-05    0.000000e+00
-1.512636e-05    -6.079629e-05    0.000000e+00
-1.129863e-05    -6.068229e-05    0.000000e+00
-7.510448e-06    -6.060086e-05    0.000000e+00
-3.748633e-06    -6.055200e-05    0.000000e+00
-1.150906e-18    -6.053571e-05    0.000000e+00
3.748633e-06    -6.055200e-05    0.000000e+00
7.510448e-06    -6.060086e-05    0.000000e+00
1.129863e-05    -6.068229e-05    0.000000e+00
1.512636e-05    -6.079629e-05    0.000000e+00
1.900683e-05    -6.094287e-05    0.000000e+00
-1.937327e-05    -6.489169e-05    0.000000e+00
-1.541952e-05    -6.475558e-05    0.000000e+00
-1.151850e-05    -6.464972e-05    0.000000e+00
-7.657028e-06    -6.457410e-05    0.000000e+00
-3.821923e-06    -6.452873e-05    0.000000e+00
-1.165729e-18    -6.451361e-05    0.000000e+00
3.821923e-06    -6.452873e-05    0.000000e+00
7.657028e-06    -6.457410e-05    0.000000e+00
1.151850e-05    -6.464972e-05    0.000000e+00
1.541952e-05    -6.475558e-05    0.000000e+00
1.937327e-05    -6.489169e-05    0.000000e+00
-1.971256e-05    -6.891107e-05    0.000000e+00
-1.569095e-05    -6.878544e-05    0.000000e+00
-1.172208e-05    -6.868772e-05    0.000000e+00
-7.792750e-06    -6.861792e-05    0.000000e+00
-3.889784e-06    -6.857604e-05    0.000000e+00
-1.159800e-18    -6.856208e-05    0.000000e+00
3.889784e-06    -6.857604e-05    0.000000e+00
7.792750e-06    -6.861792e-05    0.000000e+00
1.172208e-05    -6.868772e-05    0.000000e+00
1.569095e-05    -6.878544e-05    0.000000e+00
1.971256e-05    -6.891107e-05    0.000000e+00
-2.002471e-05    -7.299559e-05    0.000000e+00
-1.594068e-05    -7.288043e-05    0.000000e+00
-1.190938e-05    -7.279086e-05    0.000000e+00
-7.917611e-06    -7.272688e-05    0.000000e+00
-3.952212e-06    -7.268851e-05    0.000000e+00
-1.161706e-18    -7.267572e-05    0.000000e+00
3.952212e-06    -7.268851e-05    0.000000e+00
7.917611e-06    -7.272688e-05    0.000000e+00
1.190938e-05    -7.279086e-05    0.000000e+00
1.594068e-05    -7.288043e-05    0.000000e+00
2.002471e-05    -7.299559e-05    0.000000e+00
-2.030971e-05    -7.713981e-05    0.000000e+00
-1.616869e-05    -7.703511e-05    0.000000e+00
-1.208038e-05    -7.695370e-05    0.000000e+00
-8.031599e-06    -7.689557e-05    0.000000e+00
-4.009198e-06    -7.686071e-05    0.000000e+00
-1.201516e-18    -7.684909e-05    0.000000e+00
4.009198e-06    -7.686071e-05    0.000000e+00
8.031599e-06    -7.689557e-05    0.000000e+00
1.208038e-05    -7.695370e-05    0.000000e+00
1.616869e-05    -7.703511e-05    0.000000e+00
2.030971e-05    -7.713981e-05    0.000000e+00
-2.056757e-05    -8.133827e-05    0.000000e+00
-1.637501e-05    -8.124404e-05    0.000000e+00
-1.223508e-05    -8.117079e-05    0.000000e+00
-8.134685e-06    -8.111855e-05    0.000000e+00
-4.060719e-06    -8.108725e-05    0.000000e+00
-1.241750e-18    -8.107682e-05    0.000000e+00
4.060719e-06    -8.108725e-05    0.000000e+00
8.134685e-06    -8.111855e-05    0.000000e+00
1.223508e-05    -8.117079e-05    0.000000e+00
1.637501e-05    -8.124404e-05    0.000000e+00
2.056757e-05    -8.133827e-05    0.000000e+00
-2.079833e-05    -8.558550e-05    0.000000e+00
-1.655963e-05    -8.550173e-05    0.000000e+00
-1.237344e-05    -8.543669e-05    0.000000e+00
-8.226802e-06    -8.539041e-05    0.000000e+00
-4.106724e-06    -8.536275e-05    0.000000e+00
-1.323912e-18    -8.535356e-05    0.000000e+00
4.106724e-06    -8.536275e-05    0.000000e+00
8.226802e-06    -8.539041e-05    0.000000e+00
1.237344e-05    -8.543669e-05    0.000000e+00
1.655963e-05    -8.550173e-05    0.000000e+00
2.079833e-05    -8.558550e-05    0.000000e+00
-2.100210e-05    -8.987603e-05    0.000000e+00
-1.672261e-05    -8.980269e-05    0.000000e+00
-1.249537e-05    -8.974594e-05    0.000000e+00
-8.307807e-06    -8.970578e-05    0.000000e+00
-4.147107e-06    -8.968192e-05    0.000000e+00
-1.391675e-18    -8.967401e-05    0.000000e+00
4.147107e-06    -8.968192e-05    0.000000e+00
8.307807e-06    -8.970578e-05    0.000000e+00
1.249537e-05    -8.974594e-05    0.000000e+00
1.672261e-05    -8.980269e-05    0.000000e+00
2.100210e-05    -8.987603e-05    0.000000e+00
-2.117912e-05    -9.420439e-05    0.000000e+00
-1.686399e-05    -9.414142e-05    0.000000e+00
-1.260070e-05    -9.409307e-05    0.000000e+00
-8.377428e-06    -9.405931e-05    0.000000e+00
-4.181679e-06    -9.403948e-05    0.000000e+00
-1.421745e-18    -9.403296e-05    0.000000e+00
4.181679e-06    -9.403948e-05    0.000000e+00
8.377428e-06    -9.405931e-05    0.000000e+00
1.260070e-05    -9.409307e-05    0.000000e+00
1.686399e-05    -9.414142e-05    0.000000e+00
2.117912e-05    -9.420439e-05    0.000000e+00
-2.132994e-05    -9.856523e-05    0.000000e+00
-1.698387e-05    -9.851248e-05    0.000000e+00
-1.268909e-05    -9.847276e-05    0.000000e+00
-8.435205e-06    -9.844575e-05    0.000000e+00
-4.210141e-06    -9.843026e-05    0.000000e+00
-1.481884e-18    -9.842523e-05    0.000000e+00
4.210141e-06    -9.843026e-05    0.000000e+00
8.435205e-06    -9.844575e-05    0.000000e+00
1.268909e-05    -9.847276e-05    0.000000e+00
1.698387e-05    -9.851248e-05    0.000000e+00
2.132994e-05    -9.856523e-05    0.000000e+00
-2.145562e-05    -1.029537e-04    0.000000e+00
-1.708235e-05    -1.029109e-04    0.000000e+00
-1.275997e-05    -1.028800e-04    0.000000e+00
-8.480517e-06    -1.028600e-04    0.000000e+00
-4.232143e-06    -1.028489e-04    0.000000e+00
-1.537788e-18    -1.028454e-04    0.000000e+00
4.232143e-06    -1.028489e-04    0.000000e+00
8.480517e-06    -1.028600e-04    0.000000e+00
1.275997e-05    -1.028800e-04    0.000000e+00
1.708235e-05    -1.029109e-04    0.000000e+00
2.145562e-05    -1.029537e-04    0.000000e+00
-2.155817e-05    -1.073660e-04    0.000000e+00
-1.715935e-05    -1.073327e-04    0.000000e+00
-1.281258e-05    -1.073105e-04    0.000000e+00
-8.512904e-06    -1.072970e-04    0.000000e+00
-4.247579e-06    -1.072895e-04    0.000000e+00
-1.484849e-18    -1.072870e-04    0.000000e+00
4.247579e-06    -1.072895e-04    0.000000e+00
8.512904e-06    -1.072970e-04    0.000000e+00
1.281258e-05    -1.073105e-04    0.000000e+00
1.715935e-05    -1.073327e-04    0.000000e+00
2.155817e-05    -1.073660e-04    0.000000e+00
-2.164067e-05    -1.118022e-04    0.000000e+00
-1.721429e-05    -1.117772e-04    0.000000e+00
-1.284670e-05    -1.117621e-04    0.000000e+00
-8.533270e-06    -1.117511e-04    0.000000e+00
-4.257281e-06    -1.117436e-04    0.000000e+00
-1.411157e-18    -1.117409e-04    0.000000e+00
4.257281e-06    -1.117436e-04    0.000000e+00
8.533270e-06    -1.117511e-04    0.000000e+00
1.284670e-05    -1.117621e-04    0.000000e+00
1.721429e-05    -1.117772e-04    0.000000e+00
2.164067e-05    -1.118022e-04    0.000000e+00
-2.170513e-05    -1.162704e-04    0.000000e+00
-1.724615e-05    -1.162523e-04    0.000000e+00
-1.286626e-05    -1.162338e-04    0.000000e+00
-8.546206e-06    -1.162132e-04    0.000000e+00
-4.263865e-06    -1.161978e-04    0.000000e+00
-1.412851e-18    -1.161922e-04    0.000000e+00
4.263865e-06    -1.161978e-04    0.000000e+00
8.546206e-06    -1.162132e-04    0.000000e+00
1.286626e-05    -1.162338e-04    0.000000e+00
1.724615e-05    -1.162523e-04    0.000000e+00
2.170513e-05    -1.162704e-04    0.000000e+00
-2.173924e-05    -1.208105e-04    0.000000e+00
-1.726634e-05    -1.207758e-04    0.000000e+00
-1.288608e-05    -1.207173e-04    0.000000e+00
-8.561321e-06    -1.206645e-04    0.000000e+00
-4.272039e-06    -1.206293e-04    0.000000e+00
-1.418992e-18    -1.206170e-04    0.000000e+00
4.272039e-06    -1.206293e-04    0.000000e+00
8.561321e-06    -1.206645e-04    0.000000e+00
1.288608e-05    -1.207173e-04    0.000000e+00
1.726634e-05    -1.207758e-04    0.000000e+00
2.173924e-05    -1.208105e-04    0.000000e+00

CELL_DATA      400
TENSORS Element_Stress9.000000e-01 double
1.820598e+06 2.551812e+05        0
2.551812e+05 4.163488e+05        0
       0        0        0

1.243720e+06 1.308538e+05        0
1.308538e+05 3.566178e+05        0
       0        0        0

8.651185e+05 4.301032e+04        0
4.301032e+04 2.749959e+05        0
       0        0        0

5.100063e+05 -3.578363e+03        0
-3.578363e+03 1.690094e+05        0
       0        0        0

1.688541e+05 -2.488323e+04        0
-2.488323e+04 5.694968e+04        0
       0        0        0

-1.688184e+05 -2.487711e+04        0
-2.487711e+04 -5.695775e+04        0
       0        0        0

-5.095306e+05 -3.579112e+03        0
-3.579112e+03 -1.688447e+05        0
       0        0        0

-8.637077e+05 4.293851e+04        0
4.293851e+04 -2.744671e+05        0
       0        0        0

-1.240734e+06 1.305652e+05        0
1.305652e+05 -3.554740e+05        0
       0        0        0

-1.814375e+06 2.543707e+05        0
2.543707e+05 -4.141970e+05        0
       0        0        0

1.642070e+06 4.159748e+04        0
4.159748e+04 4.234799e+03        0
       0        0        0

1.322354e+06 1.206454e+05        0
1.206454e+05 1.286843e+05        0
       0        0        0

9.082521e+05 9.900755e+04        0
9.900755e+04 1.315191e+05        0
       0        0        0

5.364025e+05 7.580678e+04        0
7.580678e+04 9.193311e+04        0
       0        0        0

1.768172e+05 6.321707e+04        0
6.321707e+04 3.207757e+04        0
       0        0        0

-1.778550e+05 6.319873e+04        0
6.319873e+04 -3.316896e+04        0
       0        0        0

-5.369363e+05 7.574133e+04        0
7.574133e+04 -9.284490e+04        0
       0        0        0

-9.077061e+05 9.886737e+04        0
9.886737e+04 -1.320379e+05        0
       0        0        0

-1.319830e+06 1.204079e+05        0
1.204079e+05 -1.284324e+05        0
       0        0        0

-1.637466e+06 4.151082e+04        0
4.151082e+04 -3.136555e+03        0
       0        0        0

1.584953e+06 1.541639e+04        0
1.541639e+04 6.615316e+03        0
       0        0        0

1.271591e+06 6.833109e+04        0
6.833109e+04 1.757728e+04        0
       0        0        0

9.146413e+05 1.015639e+05        0
1.015639e+05 4.237686e+04        0
       0        0        0

5.430826e+05 1.074765e+05        0
1.074765e+05 3.592346e+04        0
       0        0        0

1.791459e+05 1.074054e+05        0
1.074054e+05 1.272037e+04        0
       0        0        0

-1.824790e+05 1.073775e+05        0
1.073775e+05 -1.611190e+04        0
       0        0        0

-5.458838e+05 1.073933e+05        0
1.073933e+05 -3.912503e+04        0
       0        0        0

-9.163117e+05 1.014348e+05        0
1.014348e+05 -4.515293e+04        0
       0        0        0

-1.271565e+06 6.821622e+04        0
6.821622e+04 -1.966893e+04        0
       0        0        0

-1.582978e+06 1.538448e+04        0
1.538448e+04 -7.911807e+03        0
       0        0        0

1.546129e+06 1.427370e+04        0
1.427370e+04 -3.975752e+03        0
       0        0        0

1.226683e+06 5.548208e+04        0
5.548208e+04 -1.953361e+03        0
       0        0        0

8.865538e+05 9.245024e+04        0
9.245024e+04 2.933168e+03        0
       0        0        0

5.331314e+05 1.146030e+05        0
1.146030e+05 5.877770e+03        0
       0        0        0

1.753740e+05 1.233579e+05        0
1.233579e+05 6.880625e+02        0
       0        0        0

-1.820438e+05 1.233283e+05        0
1.233283e+05 -7.415933e+03        0
       0        0        0

-5.392752e+05 1.145213e+05        0
1.145213e+05 -1.241206e+04        0
       0        0        0

-8.916350e+05 9.234262e+04        0
9.234262e+04 -9.058365e+03        0
       0        0        0

-1.230189e+06 5.539388e+04        0
5.539388e+04 -3.528931e+03        0
       0        0        0

-1.547532e+06 1.424568e+04        0
1.424568e+04 -5.504384e+02        0
       0        0        0

1.509427e+06 1.713063e+04        0
1.713063e+04 -5.567249e+03        0
       0        0        0

1.185340e+06 5.448733e+04        0
5.448733e+04 -8.577651e+03        0
       0        0        0

8.541561e+05 8.905469e+04        0
8.905469e+04 -8.329305e+03        0
       0        0        0

5.137340e+05 1.136408e+05        0
1.136408e+05 -6.745280e+03        0
       0        0        0

1.681056e+05 1.258450e+05        0
1.258450e+05 -5.639044e+03        0
       0        0        0

-1.789903e+05 1.258166e+05        0
1.258166e+05 -5.300819e+03        0
       0        0        0

-5.241237e+05 1.135646e+05        0
1.135646e+05 -4.010288e+03        0
       0        0        0

-8.635542e+05 8.895612e+04        0
8.895612e+04 -2.042812e+03        0
       0        0        0

-1.193244e+06 5.440409e+04        0
5.440409e+04 -1.179541e+03        0
       0        0        0

-1.515273e+06 1.709766e+04        0
1.709766e+04 -3.264824e+03        0
       0        0        0

1.469671e+06 1.958963e+04        0
1.958963e+04 -7.911531e+03        0
       0        0        0

1.147077e+06 5.644559e+04        0
5.644559e+04 -1.054799e+04        0
       0        0        0

8.224151e+05 8.838594e+04        0
8.838594e+04 -1.192774e+04        0
       0        0        0

4.928620e+05 1.117722e+05        0
1.117722e+05 -1.113898e+04        0
       0        0        0

1.594065e+05 1.239614e+05        0
1.239614e+05 -9.157848e+03        0
       0        0        0

-1.752704e+05 1.239347e+05        0
1.239347e+05 -6.757342e+03        0
       0        0        0

-5.082716e+05 1.117003e+05        0
1.117003e+05 -4.611022e+03        0
       0        0        0

-8.369138e+05 8.829171e+04        0
8.829171e+04 -3.479956e+03        0
       0        0        0

-1.160194e+06 5.636191e+04        0
5.636191e+04 -4.312364e+03        0
       0        0        0

-1.480879e+06 1.955284e+04        0
1.955284e+04 -6.139554e+03        0
       0        0        0

1.427069e+06 2.114429e+04        0
2.114429e+04 -1.052964e+04        0
       0        0        0

1.109854e+06 5.834958e+04        0
5.834958e+04 -1.236661e+04        0
       0        0        0

7.924051e+05 8.864128e+04        0
8.864128e+04 -1.362108e+04        0
       0        0        0

4.726277e+05 1.103428e+05        0
1.103428e+05 -1.337050e+04        0
       0        0        0

1.506199e+05 1.216735e+05        0
1.216735e+05 -1.181697e+04        0
       0        0        0

-1.721469e+05 1.216483e+05        0
1.216483e+05 -9.757740e+03        0
       0        0        0

-4.937482e+05 1.102742e+05        0
1.102742e+05 -8.067258e+03        0
       0        0        0

-8.127094e+05 8.854973e+04        0
8.854973e+04 -7.533908e+03        0
       0        0        0

-1.128918e+06 5.826553e+04        0
5.826553e+04 -8.339735e+03        0
       0        0        0

-1.444434e+06 2.110561e+04        0
2.110561e+04 -9.528609e+03        0
       0        0        0

1.382471e+06 2.200181e+04        0
2.200181e+04 -1.363722e+04        0
       0        0        0

1.072891e+06 5.961398e+04        0
5.961398e+04 -1.472183e+04        0
       0        0        0

7.635785e+05 8.901007e+04        0
8.901007e+04 -1.557414e+04        0
       0        0        0

4.533125e+05 1.094858e+05        0
1.094858e+05 -1.552412e+04        0
       0        0        0

1.419522e+05 1.200358e+05        0
1.200358e+05 -1.458784e+04        0
       0        0        0

-1.697603e+05 1.200117e+05        0
1.200117e+05 -1.326479e+04        0
       0        0        0

-4.807667e+05 1.094198e+05        0
1.094198e+05 -1.222641e+04        0
       0        0        0

-7.903212e+05 8.892090e+04        0
8.892090e+04 -1.196593e+04        0
       0        0        0

-1.098554e+06 5.953060e+04        0
5.953060e+04 -1.248635e+04        0
       0        0        0

-1.406666e+06 2.196271e+04        0
2.196271e+04 -1.309846e+04        0
       0        0        0

1.336650e+06 2.243103e+04        0
2.243103e+04 -1.712975e+04        0
       0        0        0

1.035846e+06 6.032508e+04        0
6.032508e+04 -1.770734e+04        0
       0        0        0

7.353690e+05 8.928001e+04        0
8.928001e+04 -1.819357e+04        0
       0        0        0

4.345842e+05 1.090314e+05        0
1.090314e+05 -1.820574e+04        0
       0        0        0

1.333510e+05 1.190751e+05        0
1.190751e+05 -1.770719e+04        0
       0        0        0

-1.679948e+05 1.190519e+05        0
1.190519e+05 -1.697818e+04        0
       0        0        0

-4.689286e+05 1.089678e+05        0
1.089678e+05 -1.641605e+04        0
       0        0        0

-7.691116e+05 8.919329e+04        0
8.919329e+04 -1.629667e+04        0
       0        0        0

-1.068676e+06 6.024325e+04        0
6.024325e+04 -1.657480e+04        0
       0        0        0

-1.368246e+06 2.239236e+04        0
2.239236e+04 -1.685617e+04        0
       0        0        0

1.290108e+06 2.262769e+04        0
2.262769e+04 -2.093370e+04        0
       0        0        0

9.986145e+05 6.068320e+04        0
6.068320e+04 -2.119241e+04        0
       0        0        0

7.073840e+05 8.943847e+04        0
8.943847e+04 -2.142407e+04        0
       0        0        0

4.161153e+05 1.088122e+05        0
1.088122e+05 -2.143279e+04        0
       0        0        0

1.247137e+05 1.185759e+05        0
1.185759e+05 -2.118594e+04        0
       0        0        0

-1.666835e+05 1.185536e+05        0
1.185536e+05 -2.082274e+04        0
       0        0        0

-4.578408e+05 1.087507e+05        0
1.087507e+05 -2.055219e+04        0
       0        0        0

-7.486181e+05 8.935433e+04        0
8.935433e+04 -2.051028e+04        0
       0        0        0

-1.039104e+06 6.060345e+04        0
6.060345e+04 -2.065826e+04        0
       0        0        0

-1.329592e+06 2.258991e+04        0
2.258991e+04 -2.079207e+04        0
       0        0        0

1.243138e+06 2.270943e+04        0
2.270943e+04 -2.498210e+04        0
       0        0        0

9.611829e+05 6.084707e+04        0
6.084707e+04 -2.504187e+04        0
       0        0        0

6.794119e+05 8.952007e+04        0
8.952007e+04 -2.510676e+04        0
       0        0        0

3.976942e+05 1.087151e+05        0
1.087151e+05 -2.508705e+04        0
       0        0        0

1.159751e+05 1.183403e+05        0
1.183403e+05 -2.496213e+04        0
       0        0        0

-1.656966e+05 1.183187e+05        0
1.183187e+05 -2.479576e+04        0
       0        0        0

-4.472257e+05 1.086557e+05        0
1.086557e+05 -2.468699e+04        0
       0        0        0

-7.285608e+05 8.943859e+04        0
8.943859e+04 -2.469694e+04        0
       0        0        0

-1.009752e+06 6.076971e+04        0
6.076971e+04 -2.480000e+04        0
       0        0        0

-1.290922e+06 2.267274e+04        0
2.267274e+04 -2.489961e+04        0
       0        0        0

1.195902e+06 2.273919e+04        0
2.273919e+04 -2.922324e+04        0
       0        0        0

9.235708e+05 6.091458e+04        0
6.091458e+04 -2.915047e+04        0
       0        0        0

6.513590e+05 8.955767e+04        0
8.955767e+04 -2.910387e+04        0
       0        0        0

3.792147e+05 1.086759e+05        0
1.086759e+05 -2.904718e+04        0
       0        0        0

1.071092e+05 1.182389e+05        0
1.182389e+05 -2.896999e+04        0
       0        0        0

-1.649443e+05 1.182180e+05        0
1.182180e+05 -2.889900e+04        0
       0        0        0

-4.369126e+05 1.086185e+05        0
1.086185e+05 -2.887696e+04        0
       0        0        0

-7.087800e+05 8.947891e+04        0
8.947891e+04 -2.892824e+04        0
       0        0        0

-9.805709e+05 6.083975e+04        0
6.083975e+04 -2.903784e+04        0
       0        0        0

-1.252330e+06 2.270369e+04        0
2.270369e+04 -2.916302e+04        0
       0        0        0

1.148491e+06 2.274763e+04        0
2.274763e+04 -3.361527e+04        0
       0        0        0

8.858087e+05 6.093851e+04        0
6.093851e+04 -3.344415e+04        0
       0        0        0

6.231974e+05 8.957284e+04        0
8.957284e+04 -3.331675e+04        0
       0        0        0

3.606384e+05 1.086618e+05        0
1.086618e+05 -3.322145e+04        0
       0        0        0

9.811734e+04 1.181997e+05        0
1.181997e+05 -3.315416e+04        0
       0        0        0

-1.643651e+05 1.181796e+05        0
1.181796e+05 -3.312513e+04        0
       0        0        0

-4.268000e+05 1.086064e+05        0
1.086064e+05 -3.315081e+04        0
       0        0        0

-6.891844e+05 8.949683e+04        0
8.949683e+04 -3.323922e+04        0
       0        0        0

-9.515284e+05 6.086627e+04        0
6.086627e+04 -3.338182e+04        0
       0        0        0

-1.213844e+06 2.271337e+04        0
2.271337e+04 -3.356049e+04        0
       0        0        0

1.100960e+06 2.274841e+04        0
2.274841e+04 -3.812278e+04        0
       0        0        0

8.479289e+05 6.094459e+04        0
6.094459e+04 -3.787019e+04        0
       0        0        0

5.949322e+05 8.957762e+04        0
8.957762e+04 -3.767803e+04        0
       0        0        0

3.419635e+05 1.086573e+05        0
1.086573e+05 -3.754494e+04        0
       0        0        0

8.901558e+04 1.181867e+05        0
1.181867e+05 -3.747027e+04        0
       0        0        0

-1.639142e+05 1.181674e+05        0
1.181674e+05 -3.745768e+04        0
       0        0        0

-4.168253e+05 1.086039e+05        0
1.086039e+05 -3.751247e+04        0
       0        0        0

-6.697180e+05 8.950436e+04        0
8.950436e+04 -3.763608e+04        0
       0        0        0

-9.225952e+05 6.087498e+04        0
6.087498e+04 -3.782343e+04        0
       0        0        0

-1.175457e+06 2.271539e+04        0
2.271539e+04 -3.806658e+04        0
       0        0        0

1.053347e+06 2.274703e+04        0
2.274703e+04 -4.271420e+04        0
       0        0        0

8.099626e+05 6.094429e+04        0
6.094429e+04 -4.238866e+04        0
       0        0        0

5.665832e+05 8.957803e+04        0
8.957803e+04 -4.214000e+04        0
       0        0        0

3.232060e+05 1.086559e+05        0
1.086559e+05 -4.197068e+04        0
       0        0        0

7.982720e+04 1.181835e+05        0
1.181835e+05 -4.188171e+04        0
       0        0        0

-1.635563e+05 1.181649e+05        0
1.181649e+05 -4.187447e+04        0
       0        0        0

-4.069457e+05 1.086046e+05        0
1.086046e+05 -4.195008e+04        0
       0        0        0

-6.503417e+05 8.950753e+04        0
8.950753e+04 -4.210767e+04        0
       0        0        0

-8.937438e+05 6.087730e+04        0
6.087730e+04 -4.234382e+04        0
       0        0        0

-1.137148e+06 2.271526e+04        0
2.271526e+04 -4.265429e+04        0
       0        0        0

1.005683e+06 2.274539e+04        0
2.274539e+04 -4.736038e+04        0
       0        0        0

7.719394e+05 6.094219e+04        0
6.094219e+04 -4.696667e+04        0
       0        0        0

5.381756e+05 8.957681e+04        0
8.957681e+04 -4.666608e+04        0
       0        0        0

3.043894e+05 1.086553e+05        0
1.086553e+05 -4.646218e+04        0
       0        0        0

7.057816e+04 1.181832e+05        0
1.181832e+05 -4.635676e+04        0
       0        0        0

-1.632605e+05 1.181653e+05        0
1.181653e+05 -4.635058e+04        0
       0        0        0

-3.971278e+05 1.086060e+05        0
1.086060e+05 -4.644347e+04        0
       0        0        0

-6.310240e+05 8.950907e+04        0
8.950907e+04 -4.663394e+04        0
       0        0        0

-8.649473e+05 6.087783e+04        0
6.087783e+04 -4.691929e+04        0
       0        0        0

-1.098893e+06 2.271487e+04        0
2.271487e+04 -4.729637e+04        0
       0        0        0

9.579955e+05 2.274400e+04        0
2.274400e+04 -5.203381e+04        0
       0        0        0

7.338873e+05 6.093989e+04        0
6.093989e+04 -5.157525e+04        0
       0        0        0

5.097360e+05 8.957508e+04        0
8.957508e+04 -5.122566e+04        0
       0        0        0

2.855393e+05 1.086546e+05        0
1.086546e+05 -5.098880e+04        0
       0        0        0

6.129495e+04 1.181835e+05        0
1.181835e+05 -5.086675e+04        0
       0        0        0

-1.629989e+05 1.181663e+05        0
1.181663e+05 -5.086025e+04        0
       0        0        0

-3.873432e+05 1.086073e+05        0
1.086073e+05 -5.096887e+04        0
       0        0        0

-6.117373e+05 8.951011e+04        0
8.951011e+04 -5.119108e+04        0
       0        0        0

-8.361791e+05 6.087815e+04        0
6.087815e+04 -5.152449e+04        0
       0        0        0

-1.060664e+06 2.271473e+04        0
2.271473e+04 -5.196605e+04        0
       0        0        0

9.103102e+05 2.274290e+04        0
2.274290e+04 -5.670829e+04        0
       0        0        0

6.958326e+05 6.093780e+04        0
6.093780e+04 -5.618768e+04        0
       0        0        0

4.812907e+05 8.957328e+04        0
8.957328e+04 -5.579141e+04        0
       0        0        0

2.666817e+05 1.086537e+05        0
1.086537e+05 -5.552312e+04        0
       0        0        0

5.200354e+04 1.181835e+05        0
1.181835e+05 -5.538500e+04        0
       0        0        0

-1.627453e+05 1.181671e+05        0
1.181671e+05 -5.537790e+04        0
       0        0        0

-3.775653e+05 1.086084e+05        0
1.086084e+05 -5.550144e+04        0
       0        0        0

-5.924555e+05 8.951107e+04        0
8.951107e+04 -5.575422e+04        0
       0        0        0

-8.074137e+05 6.087870e+04        0
6.087870e+04 -5.613390e+04        0
       0        0        0

-1.022436e+06 2.271486e+04        0
2.271486e+04 -5.663735e+04        0
       0        0        0

8.626520e+05 2.274198e+04        0
2.274198e+04 -6.135878e+04        0
       0        0        0

6.578008e+05 6.093596e+04        0
6.093596e+04 -6.077882e+04        0
       0        0        0

4.528650e+05 8.957150e+04        0
8.957150e+04 -6.033795e+04        0
       0        0        0

2.478418e+05 1.086526e+05        0
1.086526e+05 -6.003971e+04        0
       0        0        0

4.272898e+04 1.181833e+05        0
1.181833e+05 -5.988630e+04        0
       0        0        0

-1.624747e+05 1.181676e+05        0
1.181676e+05 -5.987867e+04        0
       0        0        0

-3.677693e+05 1.086093e+05        0
1.086093e+05 -6.001656e+04        0
       0        0        0

-5.731539e+05 8.951206e+04        0
8.951206e+04 -6.029866e+04        0
       0        0        0

-7.786261e+05 6.087948e+04        0
6.087948e+04 -6.072266e+04        0
       0        0        0

-9.841819e+05 2.271520e+04        0
2.271520e+04 -6.128530e+04        0
       0        0        0

8.150447e+05 2.274119e+04        0
2.274119e+04 -6.596136e+04        0
       0        0        0

6.198157e+05 6.093429e+04        0
6.093429e+04 -6.532473e+04        0
       0        0        0

4.244830e+05 8.956978e+04        0
8.956978e+04 -6.484132e+04        0
       0        0        0

2.290436e+05 1.086514e+05        0
1.086514e+05 -6.451456e+04        0
       0        0        0

3.349528e+04 1.181828e+05        0
1.181828e+05 -6.434667e+04        0
       0        0        0

-1.621631e+05 1.181678e+05        0
1.181678e+05 -6.433865e+04        0
       0        0        0

-3.579315e+05 1.086101e+05        0
1.086101e+05 -6.449035e+04        0
       0        0        0

-5.538087e+05 8.951311e+04        0
8.951311e+04 -6.480052e+04        0
       0        0        0

-7.497925e+05 6.088043e+04        0
6.088043e+04 -6.526685e+04        0
       0        0        0

-9.458791e+05 2.271565e+04        0
2.271565e+04 -6.588596e+04        0
       0        0        0

7.675109e+05 2.274046e+04        0
2.274046e+04 -7.049318e+04        0
       0        0        0

5.819002e+05 6.093273e+04        0
6.093273e+04 -6.980260e+04        0
       0        0        0

3.961677e+05 8.956811e+04        0
8.956811e+04 -6.927870e+04        0
       0        0        0

2.103102e+05 1.086501e+05        0
1.086501e+05 -6.892486e+04        0
       0        0        0

2.432535e+04 1.181822e+05        0
1.181822e+05 -6.874327e+04        0
       0        0        0

-1.617877e+05 1.181679e+05        0
1.181679e+05 -6.873499e+04        0
       0        0        0

-3.480290e+05 1.086108e+05        0
1.086108e+05 -6.889993e+04        0
       0        0        0

-5.343973e+05 8.951420e+04        0
8.951420e+04 -6.923690e+04        0
       0        0        0

-7.208901e+05 6.088150e+04        0
6.088150e+04 -6.974356e+04        0
       0        0        0

-9.075041e+05 2.271617e+04        0
2.271617e+04 -7.041649e+04        0
       0        0        0

7.200723e+05 2.273978e+04        0
2.273978e+04 -7.493249e+04        0
       0        0        0

5.440762e+05 6.093125e+04        0
6.093125e+04 -7.419071e+04        0
       0        0        0

3.679410e+05 8.956648e+04        0
8.956648e+04 -7.362841e+04        0
       0        0        0

1.916633e+05 1.086488e+05        0
1.086488e+05 -7.324889e+04        0
       0        0        0

1.524098e+04 1.181815e+05        0
1.181815e+05 -7.305436e+04        0
       0        0        0

-1.613270e+05 1.181679e+05        0
1.181679e+05 -7.304590e+04        0
       0        0        0

-3.380404e+05 1.086115e+05        0
1.086115e+05 -7.322349e+04        0
       0        0        0

-5.148979e+05 8.951533e+04        0
8.951533e+04 -7.358598e+04        0
       0        0        0

-6.918973e+05 6.088265e+04        0
6.088265e+04 -7.413101e+04        0
       0        0        0

-8.690350e+05 2.271673e+04        0
2.271673e+04 -7.485511e+04        0
       0        0        0

6.727496e+05 2.273915e+04        0
2.273915e+04 -7.925863e+04        0
       0        0        0

5.063643e+05 6.092987e+04        0
6.092987e+04 -7.846843e+04        0
       0        0        0

3.398235e+05 8.956489e+04        0
8.956489e+04 -7.786983e+04        0
       0        0        0

1.731238e+05 1.086474e+05        0
1.086474e+05 -7.746605e+04        0
       0        0        0

6.262879e+03 1.181806e+05        0
1.181806e+05 -7.725929e+04        0
       0        0        0

-1.607601e+05 1.181679e+05        0
1.181679e+05 -7.725069e+04        0
       0        0        0

-3.279448e+05 1.086121e+05        0
1.086121e+05 -7.744030e+04        0
       0        0        0

-4.952900e+05 8.951651e+04        0
8.951651e+04 -7.782701e+04        0
       0        0        0

-6.627933e+05 6.088389e+04        0
6.088389e+04 -7.840849e+04        0
       0        0        0

-8.304513e+05 2.271735e+04        0
2.271735e+04 -7.918115e+04        0
       0        0        0

6.255623e+05 2.273859e+04        0
2.273859e+04 -8.345202e+04        0
       0        0        0

4.687842e+05 6.092860e+04        0
6.092860e+04 -8.261621e+04        0
       0        0        0

3.118350e+05 8.956335e+04        0
8.956335e+04 -8.198342e+04        0
       0        0        0

1.547113e+05 1.086460e+05        0
1.086460e+05 -8.155678e+04        0
       0        0        0

-2.589332e+03 1.181797e+05        0
1.181797e+05 -8.133849e+04        0
       0        0        0

-1.600676e+05 1.181676e+05        0
1.181676e+05 -8.132976e+04        0
       0        0        0

-3.177230e+05 1.086127e+05        0
1.086127e+05 -8.153073e+04        0
       0        0        0

-4.755540e+05 8.951773e+04        0
8.951773e+04 -8.194037e+04        0
       0        0        0

-6.335585e+05 6.088526e+04        0
6.088526e+04 -8.255636e+04        0
       0        0        0

-7.917331e+05 2.271804e+04        0
2.271804e+04 -8.337502e+04        0
       0        0        0

5.785286e+05 2.273817e+04        0
2.273817e+04 -8.749418e+04        0
       0        0        0

4.313542e+05 6.092752e+04        0
6.092752e+04 -8.661559e+04        0
       0        0        0

2.839942e+05 8.956185e+04        0
8.956185e+04 -8.595072e+04        0
       0        0        0

1.364444e+05 1.086444e+05        0
1.086444e+05 -8.550260e+04        0
       0        0        0

-1.129712e+04 1.181785e+05        0
1.181785e+05 -8.527347e+04        0
       0        0        0

-1.592310e+05 1.181672e+05        0
1.181672e+05 -8.526462e+04        0
       0        0        0

-3.073564e+05 1.086132e+05        0
1.086132e+05 -8.547630e+04        0
       0        0        0

-4.556717e+05 8.951900e+04        0
8.951900e+04 -8.590754e+04        0
       0        0        0

-6.041745e+05 6.088680e+04        0
6.088680e+04 -8.655609e+04        0
       0        0        0

-7.528619e+05 2.271886e+04        0
2.271886e+04 -8.741819e+04        0
       0        0        0

5.316658e+05 2.273795e+04        0
2.273795e+04 -9.136769e+04        0
       0        0        0

3.940921e+05 6.092663e+04        0
6.092663e+04 -9.044910e+04        0
       0        0        0

2.563184e+05 8.956035e+04        0
8.956035e+04 -8.975416e+04        0
       0        0        0

1.183407e+05 1.086427e+05        0
1.086427e+05 -8.928591e+04        0
       0        0        0

-1.984304e+04 1.181771e+05        0
1.181771e+05 -8.904673e+04        0
       0        0        0

-1.582329e+05 1.181665e+05        0
1.181665e+05 -8.903797e+04        0
       0        0        0

-2.968278e+05 1.086135e+05        0
1.086135e+05 -8.925978e+04        0
       0        0        0

-4.356257e+05 8.952026e+04        0
8.952026e+04 -8.971126e+04        0
       0        0        0

-5.746240e+05 6.088854e+04        0
6.088854e+04 -9.039032e+04        0
       0        0        0

-7.138200e+05 2.271989e+04        0
2.271989e+04 -9.129325e+04        0
       0        0        0

4.849900e+05 2.273796e+04        0
2.273796e+04 -9.505616e+04        0
       0        0        0

3.570143e+05 6.092577e+04        0
6.092577e+04 -9.410011e+04        0
       0        0        0

2.288244e+05 8.955862e+04        0
8.955862e+04 -9.337680e+04        0
       0        0        0

1.004164e+05 1.086409e+05        0
1.086409e+05 -9.288973e+04        0
       0        0        0

-2.821084e+04 1.181759e+05        0
1.181759e+05 -9.264170e+04        0
       0        0        0

-1.570570e+05 1.181660e+05        0
1.181660e+05 -9.263378e+04        0
       0        0        0

-2.861209e+05 1.086137e+05        0
1.086137e+05 -9.286554e+04        0
       0        0        0

-4.153999e+05 8.952130e+04        0
8.952130e+04 -9.333582e+04        0
       0        0        0

-5.448908e+05 6.089031e+04        0
6.089031e+04 -9.404299e+04        0
       0        0        0

-6.745908e+05 2.272114e+04        0
2.272114e+04 -9.498387e+04        0
       0        0        0

4.385165e+05 2.273798e+04        0
2.273798e+04 -9.854412e+04        0
       0        0        0

3.201365e+05 6.092413e+04        0
6.092413e+04 -9.755241e+04        0
       0        0        0

2.015270e+05 8.955604e+04        0
8.955604e+04 -9.680154e+04        0
       0        0        0

8.268605e+04 1.086393e+05        0
1.086393e+05 -9.629692e+04        0
       0        0        0

-3.638570e+04 1.181760e+05        0
1.181760e+05 -9.604233e+04        0
       0        0        0

-1.556878e+05 1.181669e+05        0
1.181669e+05 -9.603768e+04        0
       0        0        0

-2.752197e+05 1.086142e+05        0
1.086142e+05 -9.628030e+04        0
       0        0        0

-3.949789e+05 8.952148e+04        0
8.952148e+04 -9.676788e+04        0
       0        0        0

-5.149601e+05 6.089129e+04        0
6.089129e+04 -9.749979e+04        0
       0        0        0

-6.351590e+05 2.272241e+04        0
2.272241e+04 -9.847493e+04        0
       0        0        0

3.922608e+05 2.273705e+04        0
2.273705e+04 -1.018168e+05        0
       0        0        0

2.834737e+05 6.091918e+04        0
6.091918e+04 -1.007892e+05        0
       0        0        0

1.744389e+05 8.955103e+04        0
8.955103e+04 -1.000095e+05        0
       0        0        0

6.516112e+04 1.086394e+05        0
1.086394e+05 -9.948864e+04        0
       0        0        0

-4.435479e+04 1.181814e+05        0
1.181814e+05 -9.923256e+04        0
       0        0        0

-1.541098e+05 1.181730e+05        0
1.181730e+05 -9.923756e+04        0
       0        0        0

-2.641076e+05 1.086162e+05        0
1.086162e+05 -9.949471e+04        0
       0        0        0

-3.743470e+05 8.951924e+04        0
8.951924e+04 -9.999807e+04        0
       0        0        0

-4.848186e+05 6.088897e+04        0
6.088897e+04 -1.007491e+05        0
       0        0        0

-5.955116e+05 2.272272e+04        0
2.272272e+04 -1.017526e+05        0
       0        0        0

3.462408e+05 2.273213e+04        0
2.273213e+04 -1.048596e+05        0
       0        0        0

2.470402e+05 6.090435e+04        0
6.090435e+04 -1.037913e+05        0
       0        0        0

1.475679e+05 8.953998e+04        0
8.953998e+04 -1.029768e+05        0
       0        0        0

4.784706e+04 1.086446e+05        0
1.086446e+05 -1.024414e+05        0
       0        0        0

-5.210859e+04 1.182015e+05        0
1.182015e+05 -1.021950e+05        0
       0        0        0

-1.523066e+05 1.181938e+05        0
1.181938e+05 -1.022248e+05        0
       0        0        0

-2.527641e+05 1.086235e+05        0
1.086235e+05 -1.025064e+05        0
       0        0        0

-3.534861e+05 8.951095e+04        0
8.951095e+04 -1.030243e+05        0
       0        0        0

-4.544544e+05 6.087677e+04        0
6.087677e+04 -1.037842e+05        0
       0        0        0

-5.556397e+05 2.271905e+04        0
2.271905e+04 -1.048050e+05        0
       0        0        0

3.004822e+05 2.271539e+04        0
2.271539e+04 -1.076574e+05        0
       0        0        0

2.108493e+05 6.086437e+04        0
6.086437e+04 -1.065333e+05        0
       0        0        0

1.209111e+05 8.951546e+04        0
8.951546e+04 -1.056691e+05        0
       0        0        0

3.073692e+04 1.086641e+05        0
1.086641e+05 -1.051219e+05        0
       0        0        0

-5.964355e+04 1.182578e+05        0
1.182578e+05 -1.049091e+05        0
       0        0        0

-1.502580e+05 1.182508e+05        0
1.182508e+05 -1.049962e+05        0
       0        0        0

-2.411586e+05 1.086450e+05        0
1.086450e+05 -1.053249e+05        0
       0        0        0

-3.323700e+05 8.948920e+04        0
8.948920e+04 -1.058577e+05        0
       0        0        0

-4.238570e+05 6.083943e+04        0
6.083943e+04 -1.066065e+05        0
       0        0        0

-5.155448e+05 2.270357e+04        0
2.270357e+04 -1.076228e+05        0
       0        0        0

2.550302e+05 2.266861e+04        0
2.266861e+04 -1.101928e+05        0
       0        0        0

1.749112e+05 6.076689e+04        0
6.076689e+04 -1.089786e+05        0
       0        0        0

9.444394e+04 8.946363e+04        0
8.946363e+04 -1.080332e+05        0
       0        0        0

1.379929e+04 1.087177e+05        0
1.087177e+05 -1.074804e+05        0
       0        0        0

-6.696699e+04 1.183950e+05        0
1.183950e+05 -1.073481e+05        0
       0        0        0

-1.479345e+05 1.183887e+05        0
1.183887e+05 -1.075565e+05        0
       0        0        0

-2.292386e+05 1.087005e+05        0
1.087005e+05 -1.079789e+05        0
       0        0        0

-3.109536e+05 8.944014e+04        0
8.944014e+04 -1.085307e+05        0
       0        0        0

-3.930164e+05 6.074460e+04        0
6.074460e+04 -1.092323e+05        0
       0        0        0

-4.752498e+05 2.265805e+04        0
2.265805e+04 -1.102010e+05        0
       0        0        0

2.099707e+05 2.255312e+04        0
2.255312e+04 -1.124452e+05        0
       0        0        0

1.392276e+05 6.054966e+04        0
6.054966e+04 -1.110720e+05        0
       0        0        0

6.809783e+04 8.936201e+04        0
8.936201e+04 -1.099896e+05        0
       0        0        0

-3.042201e+03 1.088455e+05        0
1.088455e+05 -1.094456e+05        0
       0        0        0

-7.410476e+04 1.186961e+05        0
1.186961e+05 -1.094775e+05        0
       0        0        0

-1.452897e+05 1.186906e+05        0
1.186906e+05 -1.099193e+05        0
       0        0        0

-2.169085e+05 1.088304e+05        0
1.088304e+05 -1.105207e+05        0
       0        0        0

-2.891518e+05 8.934130e+04        0
8.934130e+04 -1.111065e+05        0
       0        0        0

-3.619182e+05 6.053005e+04        0
6.053005e+04 -1.117009e+05        0
       0        0        0

-4.348222e+05 2.254384e+04        0
2.254384e+04 -1.125421e+05        0
       0        0        0

1.654676e+05 2.229389e+04        0
2.229389e+04 -1.143894e+05        0
       0        0        0

1.037757e+05 6.010633e+04        0
6.010633e+04 -1.127378e+05        0
       0        0        0

4.172434e+04 8.918285e+04        0
8.918285e+04 -1.114369e+05        0
       0        0        0

-1.993674e+04 1.091211e+05        0
1.091211e+05 -1.109352e+05        0
       0        0        0

-8.111029e+04 1.192969e+05        0
1.192969e+05 -1.112604e+05        0
       0        0        0

-1.422485e+05 1.192922e+05        0
1.192922e+05 -1.121001e+05        0
       0        0        0

-2.040019e+05 1.091080e+05        0
1.091080e+05 -1.130150e+05        0
       0        0        0

-2.668047e+05 8.916493e+04        0
8.916493e+04 -1.136749e+05        0
       0        0        0

-3.305323e+05 6.008944e+04        0
6.008944e+04 -1.140806e+05        0
       0        0        0

-3.944153e+05 2.228592e+04        0
2.228592e+04 -1.146607e+05        0
       0        0        0

1.218143e+05 2.175987e+04        0
2.175987e+04 -1.160001e+05        0
       0        0        0

6.846991e+04 5.928775e+04        0
5.928775e+04 -1.139016e+05        0
       0        0        0

1.504776e+04 8.891653e+04        0
8.891653e+04 -1.123083e+05        0
       0        0        0

-3.712658e+04 1.096611e+05        0
1.096611e+05 -1.119237e+05        0
       0        0        0

-8.806576e+04 1.203706e+05        0
1.203706e+05 -1.126850e+05        0
       0        0        0

-1.387020e+05 1.203666e+05        0
1.203666e+05 -1.140839e+05        0
       0        0        0

-1.902583e+05 1.096500e+05        0
1.096500e+05 -1.154691e+05        0
       0        0        0

-2.436324e+05 8.890144e+04        0
8.890144e+04 -1.162985e+05        0
       0        0        0

-2.987810e+05 5.927361e+04        0
5.927361e+04 -1.164537e+05        0
       0        0        0

-3.543298e+05 2.175326e+04        0
2.175326e+04 -1.165894e+05        0
       0        0        0

7.947515e+04 2.075678e+04        0
2.075678e+04 -1.172821e+05        0
       0        0        0

3.307865e+04 5.797447e+04        0
5.797447e+04 -1.145899e+05        0
       0        0        0

-1.236393e+04 8.865059e+04        0
8.865059e+04 -1.127886e+05        0
       0        0        0

-5.490063e+04 1.106013e+05        0
1.106013e+05 -1.126577e+05        0
       0        0        0

-9.504947e+04 1.220074e+05        0
1.220074e+05 -1.138552e+05        0
       0        0        0

-1.345317e+05 1.220041e+05        0
1.220041e+05 -1.157267e+05        0
       0        0        0

-1.753639e+05 1.105923e+05        0
1.105923e+05 -1.176118e+05        0
       0        0        0

-2.192067e+05 8.863840e+04        0
8.863840e+04 -1.187962e+05        0
       0        0        0

-2.664683e+05 5.796312e+04        0
5.796312e+04 -1.188293e+05        0
       0        0        0

-3.150782e+05 2.075156e+04        0
2.075156e+04 -1.183719e+05        0
       0        0        0

3.901604e+04 1.910250e+04        0
1.910250e+04 -1.183311e+05        0
       0        0        0

-2.945801e+03 5.638064e+04        0
5.638064e+04 -1.153385e+05        0
       0        0        0

-4.097162e+04 8.874194e+04        0
8.874194e+04 -1.139163e+05        0
       0        0        0

-7.334316e+04 1.119428e+05        0
1.119428e+05 -1.141993e+05        0
       0        0        0

-1.020044e+05 1.238170e+05        0
1.238170e+05 -1.151847e+05        0
       0        0        0

-1.297257e+05 1.238146e+05        0
1.238146e+05 -1.165458e+05        0
       0        0        0

-1.591896e+05 1.119363e+05        0
1.119363e+05 -1.183359e+05        0
       0        0        0

-1.930733e+05 8.873286e+04        0
8.873286e+04 -1.201362e+05        0
       0        0        0

-2.331278e+05 5.637209e+04        0
5.637209e+04 -1.207525e+05        0
       0        0        0

-2.773664e+05 1.909865e+04        0
1.909865e+04 -1.200521e+05        0
       0        0        0

5.231885e+02 1.710271e+04        0
1.710271e+04 -1.199683e+05        0
       0        0        0

-4.055900e+04 5.592265e+04        0
5.592265e+04 -1.183223e+05        0
       0        0        0

-7.064224e+04 9.001307e+04        0
9.001307e+04 -1.192608e+05        0
       0        0        0

-9.160225e+04 1.128998e+05        0
1.128998e+05 -1.193451e+05        0
       0        0        0

-1.084793e+05 1.240404e+05        0
1.240404e+05 -1.176209e+05        0
       0        0        0

-1.246149e+05 1.240392e+05        0
1.240392e+05 -1.154734e+05        0
       0        0        0

-1.424954e+05 1.128964e+05        0
1.128964e+05 -1.147534e+05        0
       0        0        0

-1.653497e+05 9.000769e+04        0
9.000769e+04 -1.167341e+05        0
       0        0        0

-1.979384e+05 5.591692e+04        0
5.591692e+04 -1.201833e+05        0
       0        0        0

-2.416132e+05 1.710010e+04        0
1.710010e+04 -1.211410e+05        0
       0        0        0

-3.838756e+04 1.780089e+04        0
1.780089e+04 -1.241547e+05        0
       0        0        0

-8.056431e+04 6.133461e+04        0
6.133461e+04 -1.329179e+05        0
       0        0        0

-9.823377e+04 9.241439e+04        0
9.241439e+04 -1.376493e+05        0
       0        0        0

-1.069299e+05 1.101518e+05        0
1.101518e+05 -1.330247e+05        0
       0        0        0

-1.134903e+05 1.182691e+05        0
1.182691e+05 -1.226657e+05        0
       0        0        0

-1.199857e+05 1.182695e+05        0
1.182695e+05 -1.108102e+05        0
       0        0        0

-1.278480e+05 1.101525e+05        0
1.101525e+05 -1.017531e+05        0
       0        0        0

-1.390687e+05 9.241419e+04        0
9.241419e+04 -9.965328e+04        0
       0        0        0

-1.602170e+05 6.133242e+04        0
6.133242e+04 -1.078653e+05        0
       0        0        0

-2.060740e+05 1.779909e+04        0
1.779909e+04 -1.203165e+05        0
       0        0        0

-9.041227e+04 4.054631e+04        0
4.054631e+04 -1.562833e+05        0
       0        0        0

-1.138421e+05 7.593486e+04        0
7.593486e+04 -1.858539e+05        0
       0        0        0

-1.150718e+05 8.920336e+04        0
8.920336e+04 -1.817339e+05        0
       0        0        0

-1.153875e+05 9.571255e+04        0
9.571255e+04 -1.608397e+05        0
       0        0        0

-1.157489e+05 9.856239e+04        0
9.856239e+04 -1.317915e+05        0
       0        0        0

-1.168366e+05 9.856429e+04        0
9.856429e+04 -1.007937e+05        0
       0        0        0

-1.188659e+05 9.571771e+04        0
9.571771e+04 -7.341100e+04        0
       0        0        0

-1.225609e+05 8.921016e+04        0
8.921016e+04 -5.589328e+04        0
       0        0        0

-1.289065e+05 7.594047e+04        0
7.594047e+04 -5.688864e+04        0
       0        0        0

-1.586523e+05 4.054609e+04        0
4.054609e+04 -9.278138e+04        0
       0        0        0

POINT_DATA     451
VECTORS DISPLACEMENT_9.200000e-01 double
0.000000e+00    0.000000e+00    0.000000e+00
0.000000e+00    0.000000e+00    0.000000e+00
0.000000e+00    0.000000e+00    0.000000e+00
0.000000e+00    0.000000e+00    0.000000e+00
0.000000e+00    0.000000e+00    0.000000e+00
0.000000e+00    0.000000e+00    0.000000e+00
0.000000e+00    0.000000e+00    0.000000e+00
0.000000e+00    0.000000e+00    0.000000e+00
0.000000e+00    0.000000e+00    0.000000e+00
0.000000e+00    0.000000e+00    0.000000e+00
0.000000e+00    0.000000e+00    0.000000e+00
-1.141595e-06    -8.299605e-07    0.000000e+00
-7.233448e-07    -4.163094e-07    0.000000e+00
-5.161144e-07    -2.157261e-07    0.000000e+00
-3.332233e-07    -1.068318e-07    0.000000e+00
-1.642863e-07    -5.047426e-08    0.000000e+00
-3.439778e-20    -3.295145e-08    0.000000e+00
1.642863e-07    -5.047426e-08    0.000000e+00
3.332233e-07    -1.068318e-07    0.000000e+00
5.161144e-07    -2.157261e-07    0.000000e+00
7.233448e-07    -4.163094e-07    0.000000e+00
1.141595e-06    -8.299605e-07    0.000000e+00
-2.153941e-06    -1.380309e-06    0.000000e+00
-1.574436e-06    -9.987668e-07    0.000000e+00
-1.105093e-06    -7.015532e-07    0.000000e+00
-7.128292e-07    -5.177059e-07    0.000000e+00
-3.501023e-07    -4.175298e-07    0.000000e+00
-7.271827e-20    -3.857102e-07    0.000000e+00
3.501023e-07    -4.175298e-07    0.000000e+00
7.128292e-07    -5.177059e-07    0.000000e+00
1.105093e-06    -7.015532e-07    0.000000e+00
1.574436e-06    -9.987668e-07    0.000000e+00
2.153941e-06    -1.380309e-06    0.000000e+00
-3.132427e-06    -2.064634e-06    0.000000e+00
-2.394168e-06    -1.682257e-06    0.000000e+00
-1.722702e-06    -1.380761e-06    0.000000e+00
-1.115240e-06    -1.168096e-06    0.000000e+00
-5.487489e-07    -1.045521e-06    0.000000e+00
-1.146704e-19    -1.005593e-06    0.000000e+00
5.487489e-07    -1.045521e-06    0.000000e+00
1.115240e-06    -1.168096e-06    0.000000e+00
1.722702e-06    -1.380761e-06    0.000000e+00
2.394168e-06    -1.682257e-06    0.000000e+00
3.132427e-06    -2.064634e-06    0.000000e+00
-4.100076e-06    -2.909172e-06    0.000000e+00
-3.186876e-06    -2.535522e-06    0.000000e+00
-2.326958e-06    -2.239053e-06    0.000000e+00
-1.519408e-06    -2.025105e-06    0.000000e+00
-7.500557e-07    -1.896684e-06    0.000000e+00
-1.582628e-19    -1.854101e-06    0.000000e+00
7.500557e-07    -1.896684e-06    0.000000e+00
1.519408e-06    -2.025105e-06    0.000000e+00
2.326958e-06    -2.239053e-06    0.000000e+00
3.186876e-06    -2.535522e-06    0.000000e+00
4.100076e-06    -2.909172e-06    0.000000e+00
-5.051341e-06    -3.936654e-06    0.000000e+00
-3.956477e-06    -3.571725e-06    0.000000e+00
-2.911986e-06    -3.284208e-06    0.000000e+00
-1.912865e-06    -3.075889e-06    0.000000e+00
-9.475500e-07    -2.949778e-06    0.000000e+00
-2.032482e-19    -2.907564e-06    0.000000e+00
9.475500e-07    -2.949778e-06    0.000000e+00
1.912865e-06    -3.075889e-06    0.000000e+00
2.911986e-06    -3.284208e-06    0.000000e+00
3.956477e-06    -3.571725e-06    0.000000e+00
5.051341e-06    -3.936654e-06    0.000000e+00
-5.981873e-06    -5.149742e-06    0.000000e+00
-4.704513e-06    -4.794468e-06    0.000000e+00
-3.477740e-06    -4.516043e-06    0.000000e+00
-2.292922e-06    -4.315096e-06    0.000000e+00
-1.138484e-06    -4.193469e-06    0.000000e+00
-2.490542e-19    -4.152740e-06    0.000000e+00
1.138484e-06    -4.193469e-06    0.000000e+00
2.292922e-06    -4.315096e-06    0.000000e+00
3.477740e-06    -4.516043e-06    0.000000e+00
4.704513e-06    -4.794468e-06    0.000000e+00
5.981873e-06    -5.149742e-06    0.000000e+00
-6.888558e-06    -6.546376e-06    0.000000e+00
-5.431254e-06    -6.201154e-06    0.000000e+00
-4.025294e-06    -5.931590e-06    0.000000e+00
-2.659769e-06    -5.737829e-06    0.000000e+00
-1.322562e-06    -5.620886e-06    0.000000e+00
-2.929411e-19    -5.581769e-06    0.000000e+00
1.322562e-06    -5.620886e-06    0.000000e+00
2.659769e-06    -5.737829e-06    0.000000e+00
4.025294e-06    -5.931590e-06    0.000000e+00
5.431254e-06    -6.201154e-06    0.000000e+00
6.888558e-06    -6.546376e-06    0.000000e+00
-7.769676e-06    -8.122139e-06    0.000000e+00
-6.136609e-06    -7.787205e-06    0.000000e+00
-4.555509e-06    -7.526210e-06    0.000000e+00
-3.014226e-06    -7.339157e-06    0.000000e+00
-1.500173e-06    -7.226543e-06    0.000000e+00
-3.365368e-19    -7.188927e-06    0.000000e+00
1.500173e-06    -7.226543e-06    0.000000e+00
3.014226e-06    -7.339157e-06    0.000000e+00
4.555509e-06    -7.526210e-06    0.000000e+00
6.136609e-06    -7.787205e-06    0.000000e+00
7.769676e-06    -8.122139e-06    0.000000e+00
-8.624338e-06    -9.871838e-06    0.000000e+00
-6.820449e-06    -9.547301e-06    0.000000e+00
-5.068913e-06    -9.294676e-06    0.000000e+00
-3.356973e-06    -9.113935e-06    0.000000e+00
-1.671744e-06    -9.005300e-06    0.000000e+00
-3.814295e-19    -8.969049e-06    0.000000e+00
1.671744e-06    -9.005300e-06    0.000000e+00
3.356973e-06    -9.113935e-06    0.000000e+00
5.068913e-06    -9.294676e-06    0.000000e+00
6.820449e-06    -9.547301e-06    0.000000e+00
8.624338e-06    -9.871838e-06    0.000000e+00
-9.452128e-06    -1.179002e-05    0.000000e+00
-7.482678e-06    -1.147593e-05    0.000000e+00
-5.565791e-06    -1.123156e-05    0.000000e+00
-3.688437e-06    -1.105688e-05    0.000000e+00
-1.837569e-06    -1.095199e-05    0.000000e+00
-4.262693e-19    -1.091701e-05    0.000000e+00
1.837569e-06    -1.095199e-05    0.000000e+00
3.688437e-06    -1.105688e-05    0.000000e+00
5.565791e-06    -1.123156e-05    0.000000e+00
7.482678e-06    -1.147593e-05    0.000000e+00
9.452128e-06    -1.179002e-05    0.000000e+00
-1.025287e-05    -1.387120e-05    0.000000e+00
-8.123242e-06    -1.356758e-05    0.000000e+00
-6.046283e-06    -1.333140e-05    0.000000e+00
-4.008850e-06    -1.316265e-05    0.000000e+00
-1.997814e-06    -1.306137e-05    0.000000e+00
-4.639094e-19    -1.302760e-05    0.000000e+00
1.997814e-06    -1.306137e-05    0.000000e+00
4.008850e-06    -1.316265e-05    0.000000e+00
6.046283e-06    -1.333140e-05    0.000000e+00
8.123242e-06    -1.356758e-05    0.000000e+00
1.025287e-05    -1.387120e-05    0.000000e+00
-1.102648e-05    -1.610989e-05    0.000000e+00
-8.742113e-06    -1.581673e-05    0.000000e+00
-6.510452e-06    -1.558871e-05    0.000000e+00
-4.318325e-06    -1.542583e-05    0.000000e+00
-2.152566e-06    -1.532809e-05    0.000000e+00
-5.032964e-19    -1.529550e-05    0.000000e+00
2.152566e-06    -1.532809e-05    0.000000e+00
4.318325e-06    -1.542583e-05    0.000000e+00
6.510452e-06    -1.558871e-05    0.000000e+00
8.742113e-06    -1.581673e-05    0.000000e+00
1.102648e-05    -1.610989e-05    0.000000e+00
-1.177296e-05    -1.850062e-05    0.000000e+00
-9.339276e-06    -1.821793e-05    0.000000e+00
-6.958324e-06    -1.799806e-05    0.000000e+00
-4.616914e-06    -1.784101e-05    0.000000e+00
-2.301865e-06    -1.774678e-05    0.000000e+00
-5.484009e-19    -1.771537e-05    0.000000e+00
2.301865e-06    -1.774678e-05    0.000000e+00
4.616914e-06    -1.784101e-05    0.000000e+00
6.958324e-06    -1.799806e-05    0.000000e+00
9.339276e-06    -1.821793e-05    0.000000e+00
1.177296e-05    -1.850062e-05    0.000000e+00
-1.249228e-05    -2.103794e-05    0.000000e+00
-9.914727e-06    -2.076572e-05    0.000000e+00
-7.389909e-06    -2.055400e-05    0.000000e+00
-4.904637e-06    -2.040277e-05    0.000000e+00
-2.445728e-06    -2.031204e-05    0.000000e+00
-5.774647e-19    -2.028179e-05    0.000000e+00
2.445728e-06    -2.031204e-05    0.000000e+00
4.904637e-06    -2.040277e-05    0.000000e+00
7.389909e-06    -2.055400e-05    0.000000e+00
9.914727e-06    -2.076572e-05    0.000000e+00
1.249228e-05    -2.103794e-05    0.000000e+00
-1.318446e-05    -2.371642e-05    0.000000e+00
-1.046846e-05    -2.345467e-05    0.000000e+00
-7.805208e-06    -2.325109e-05    0.000000e+00
-5.181501e-06    -2.310568e-05    0.000000e+00
-2.584160e-06    -2.301844e-05    0.000000e+00
-6.054168e-19    -2.298935e-05    0.000000e+00
2.584160e-06    -2.301844e-05    0.000000e+00
5.181501e-06    -2.310568e-05    0.000000e+00
7.805208e-06    -2.325109e-05    0.000000e+00
1.046846e-05    -2.345467e-05    0.000000e+00
1.318446e-05    -2.371642e-05    0.000000e+00
-1.384949e-05    -2.653062e-05    0.000000e+00
-1.100049e-05    -2.627934e-05    0.000000e+00
-8.204222e-06    -2.608391e-05    0.000000e+00
-5.447509e-06    -2.594431e-05    0.000000e+00
-2.717163e-06    -2.586055e-05    0.000000e+00
-6.244750e-19    -2.583264e-05    0.000000e+00
2.717163e-06    -2.586055e-05    0.000000e+00
5.447509e-06    -2.594431e-05    0.000000e+00
8.204222e-06    -2.608391e-05    0.000000e+00
1.100049e-05    -2.627934e-05    0.000000e+00
1.384949e-05    -2.653062e-05    0.000000e+00
-1.448737e-05    -2.947511e-05    0.000000e+00
-1.151079e-05    -2.923430e-05    0.000000e+00
-8.586950e-06    -2.904701e-05    0.000000e+00
-5.702661e-06    -2.891323e-05    0.000000e+00
-2.844739e-06    -2.883296e-05    0.000000e+00
-6.281808e-19    -2.880621e-05    0.000000e+00
2.844739e-06    -2.883296e-05    0.000000e+00
5.702661e-06    -2.891323e-05    0.000000e+00
8.586950e-06    -2.904701e-05    0.000000e+00
1.151079e-05    -2.923430e-05    0.000000e+00
1.448737e-05    -2.947511e-05    0.000000e+00
-1.509811e-05    -3.254446e-05    0.000000e+00
-1.199938e-05    -3.231413e-05    0.000000e+00
-8.953392e-06    -3.213498e-05    0.000000e+00
-5.946955e-06    -3.200701e-05    0.000000e+00
-2.966886e-06    -3.193024e-05    0.000000e+00
-6.450156e-19    -3.190464e-05    0.000000e+00
2.966886e-06    -3.193024e-05    0.000000e+00
5.946955e-06    -3.200701e-05    0.000000e+00
8.953392e-06    -3.213498e-05    0.000000e+00
1.199938e-05    -3.231413e-05    0.000000e+00
1.509811e-05    -3.254446e-05    0.000000e+00
-1.568170e-05    -3.573325e-05    0.000000e+00
-1.246626e-05    -3.551338e-05    0.000000e+00
-9.303549e-06    -3.534238e-05    0.000000e+00
-6.180392e-06    -3.522023e-05    0.000000e+00
-3.083604e-06    -3.514694e-05    0.000000e+00
-6.697913e-19    -3.512251e-05    0.000000e+00
3.083604e-06    -3.514694e-05    0.000000e+00
6.180392e-06    -3.522023e-05    0.000000e+00
9.303549e-06    -3.534238e-05    0.000000e+00
1.246626e-05    -3.551338e-05    0.000000e+00
1.568170e-05    -3.573325e-05    0.000000e+00
-1.623815e-05    -3.903604e-05    0.000000e+00
-1.291142e-05    -3.882665e-05    0.000000e+00
-9.637419e-06    -3.866378e-05    0.000000e+00
-6.402972e-06    -3.854745e-05    0.000000e+00
-3.194894e-06    -3.847765e-05    0.000000e+00
-7.201898e-19    -3.845439e-05    0.000000e+00
3.194894e-06    -3.847765e-05    0.000000e+00
6.402972e-06    -3.854745e-05    0.000000e+00
9.637419e-06    -3.866378e-05    0.000000e+00
1.291142e-05    -3.882665e-05    0.000000e+00
1.623815e-05    -3.903604e-05    0.000000e+00
-1.676746e-05    -4.244741e-05    0.000000e+00
-1.333486e-05    -4.224848e-05    0.000000e+00
-9.955003e-06    -4.209376e-05    0.000000e+00
-6.614695e-06    -4.198325e-05    0.000000e+00
-3.300755e-06    -4.191694e-05    0.000000e+00
-7.911288e-19    -4.189484e-05    0.000000e+00
3.300755e-06    -4.191694e-05    0.000000e+00
6.614695e-06    -4.198325e-05    0.000000e+00
9.955003e-06    -4.209376e-05    0.000000e+00
1.333486e-05    -4.224848e-05    0.000000e+00
1.676746e-05    -4.244741e-05    0.000000e+00
-1.726962e-05    -4.596192e-05    0.000000e+00
-1.373659e-05    -4.577347e-05    0.000000e+00
-1.025630e-05    -4.562689e-05    0.000000e+00
-6.815560e-06    -4.552219e-05    0.000000e+00
-3.401188e-06    -4.545937e-05    0.000000e+00
-8.436448e-19    -4.543843e-05    0.000000e+00
3.401188e-06    -4.545937e-05    0.000000e+00
6.815560e-06    -4.552219e-05    0.000000e+00
1.025630e-05    -4.562689e-05    0.000000e+00
1.373659e-05    -4.577347e-05    0.000000e+00
1.726962e-05    -4.596192e-05    0.000000e+00
-1.774464e-05    -4.957415e-05    0.000000e+00
-1.411661e-05    -4.939617e-05    0.000000e+00
-1.054131e-05    -4.925773e-05    0.000000e+00
-7.005568e-06    -4.915885e-05    0.000000e+00
-3.496192e-06    -4.909952e-05    0.000000e+00
-8.777379e-19    -4.907975e-05    0.000000e+00
3.496192e-06    -4.909952e-05    0.000000e+00
7.005568e-06    -4.915885e-05    0.000000e+00
1.054131e-05    -4.925773e-05    0.000000e+00
1.411661e-05    -4.939617e-05    0.000000e+00
1.774464e-05    -4.957415e-05    0.000000e+00
-1.819252e-05    -5.327868e-05    0.000000e+00
-1.447491e-05    -5.311116e-05    0.000000e+00
-1.081004e-05    -5.298087e-05    0.000000e+00
-7.184718e-06    -5.288780e-05    0.000000e+00
-3.585767e-06    -5.283196e-05    0.000000e+00
-9.213601e-19    -5.281335e-05    0.000000e+00
3.585767e-06    -5.283196e-05    0.000000e+00
7.184718e-06    -5.288780e-05    0.000000e+00
1.081004e-05    -5.298087e-05    0.000000e+00
1.447491e-05    -5.311116e-05    0.000000e+00
1.819252e-05    -5.327868e-05    0.000000e+00
-1.861325e-05    -5.707006e-05    0.000000e+00
-1.481149e-05    -5.691301e-05    0.000000e+00
-1.106248e-05    -5.679086e-05    0.000000e+00
-7.353011e-06    -5.670361e-05    0.000000e+00
-3.669914e-06    -5.665126e-05    0.000000e+00
-9.363949e-19    -5.663381e-05    0.000000e+00
3.669914e-06    -5.665126e-05    0.000000e+00
7.353011e-06    -5.670361e-05    0.000000e+00
1.106248e-05    -5.679086e-05    0.000000e+00
1.481149e-05    -5.691301e-05    0.000000e+00
1.861325e-05    -5.707006e-05    0.000000e+00
-1.900683e-05    -6.094287e-05    0.000000e+00
-1.512636e-05    -6.079629e-05    0.000000e+00
-1.129863e-05    -6.068229e-05    0.000000e+00
-7.510448e-06    -6.060086e-05    0.000000e+00
-3.748633e-06    -6.055200e-05    0.000000e+00
-9.520650e-19    -6.053571e-05    0.000000e+00
3.748633e-06    -6.055200e-05    0.000000e+00
7.510448e-06    -6.060086e-05    0.000000e+00
1.129863e-05    -6.068229e-05    0.000000e+00
1.512636e-05    -6.079629e-05    0.000000e+00
1.900683e-05    -6.094287e-05    0.000000e+00
-1.937327e-05    -6.489169e-05    0.000000e+00
-1.541952e-05    -6.475558e-05    0.000000e+00
-1.151850e-05    -6.464972e-05    0.000000e+00
-7.657028e-06    -6.457410e-05    0.000000e+00
-3.821923e-06    -6.452873e-05    0.000000e+00
-9.639235e-19    -6.451361e-05    0.000000e+00
3.821923e-06    -6.452873e-05    0.000000e+00
7.657028e-06    -6.457410e-05    0.000000e+00
1.151850e-05    -6.464972e-05    0.000000e+00
1.541952e-05    -6.475558e-05    0.000000e+00
1.937327e-05    -6.489169e-05    0.000000e+00
-1.971256e-05    -6.891107e-05    0.000000e+00
-1.569095e-05    -6.878544e-05    0.000000e+00
-1.172208e-05    -6.868772e-05    0.000000e+00
-7.792750e-06    -6.861792e-05    0.000000e+00
-3.889784e-06    -6.857604e-05    0.000000e+00
-9.503710e-19    -6.856208e-05    0.000000e+00
3.889784e-06    -6.857604e-05    0.000000e+00
7.792750e-06    -6.861792e-05    0.000000e+00
1.172208e-05    -6.868772e-05    0.000000e+00
1.569095e-05    -6.878544e-05    0.000000e+00
1.971256e-05    -6.891107e-05    0.000000e+00
-2.002471e-05    -7.299559e-05    0.000000e+00
-1.594068e-05    -7.288043e-05    0.000000e+00
-1.190938e-05    -7.279086e-05    0.000000e+00
-7.917611e-06    -7.272688e-05    0.000000e+00
-3.952212e-06    -7.268851e-05    0.000000e+00
-9.531238e-19    -7.267572e-05    0.000000e+00
3.952212e-06    -7.268851e-05    0.000000e+00
7.917611e-06    -7.272688e-05    0.000000e+00
1.190938e-05    -7.279086e-05    0.000000e+00
1.594068e-05    -7.288043e-05    0.000000e+00
2.002471e-05    -7.299559e-05    0.000000e+00
-2.030971e-05    -7.713981e-05    0.000000e+00
-1.616869e-05    -7.703511e-05    0.000000e+00
-1.208038e-05    -7.695370e-05    0.000000e+00
-8.031599e-06    -7.689557e-05    0.000000e+00
-4.009198e-06    -7.686071e-05    0.000000e+00
-9.880639e-19    -7.684909e-05    0.000000e+00
4.009198e-06    -7.686071e-05    0.000000e+00
8.031599e-06    -7.689557e-05    0.000000e+00
1.208038e-05    -7.695370e-05    0.000000e+00
1.616869e-05    -7.703511e-05    0.000000e+00
2.030971e-05    -7.713981e-05    0.000000e+00
-2.056757e-05    -8.133827e-05    0.000000e+00
-1.637501e-05    -8.124404e-05    0.000000e+00
-1.223508e-05    -8.117079e-05    0.000000e+00
-8.134685e-06    -8.111855e-05    0.000000e+00
-4.060719e-06    -8.108725e-05    0.000000e+00
-1.035498e-18    -8.107682e-05    0.000000e+00
4.060719e-06    -8.108725e-05    0.000000e+00
8.134685e-06    -8.111855e-05    0.000000e+00
1.223508e-05    -8.117079e-05    0.000000e+00
1.637501e-05    -8.124404e-05    0.000000e+00
2.056757e-05    -8.133827e-05    0.000000e+00
-2.079833e-05    -8.558550e-05    0.000000e+00
-1.655963e-05    -8.550173e-05    0.000000e+00
-1.237344e-05    -8.543669e-05    0.000000e+00
-8.226802e-06    -8.539041e-05    0.000000e+00
-4.106724e-06    -8.536275e-05    0.000000e+00
-1.113425e-18    -8.535356e-05    0.000000e+00
4.106724e-06    -8.536275e-05    0.000000e+00
8.226802e-06    -8.539041e-05    0.000000e+00
1.237344e-05    -8.543669e-05    0.000000e+00
1.655963e-05    -8.550173e-05    0.000000e+00
2.079833e-05    -8.558550e-05    0.000000e+00
-2.100210e-05    -8.987603e-05    0.000000e+00
-1.672261e-05    -8.980269e-05    0.000000e+00
-1.249537e-05    -8.974594e-05    0.000000e+00
-8.307807e-06    -8.970578e-05    0.000000e+00
-4.147107e-06    -8.968192e-05    0.000000e+00
-1.189658e-18    -8.967401e-05    0.000000e+00
4.147107e-06    -8.968192e-05    0.000000e+00
8.307807e-06    -8.970578e-05    0.000000e+00
1.249537e-05    -8.974594e-05    0.000000e+00
1.672261e-05    -8.980269e-05    0.000000e+00
2.100210e-05    -8.987603e-05    0.000000e+00
-2.117912e-05    -9.420439e-05    0.000000e+00
-1.686399e-05    -9.414142e-05    0.000000e+00
-1.260070e-05    -9.409307e-05    0.000000e+00
-8.377428e-06    -9.405931e-05    0.000000e+00
-4.181679e-06    -9.403948e-05    0.000000e+00
-1.235821e-18    -9.403296e-05    0.000000e+00
4.181679e-06    -9.403948e-05    0.000000e+00
8.377428e-06    -9.405931e-05    0.000000e+00
1.260070e-05    -9.409307e-05    0.000000e+00
1.686399e-05    -9.414142e-05    0.000000e+00
2.117912e-05    -9.420439e-05    0.000000e+00
-2.132994e-05    -9.856523e-05    0.000000e+00
-1.698387e-05    -9.851248e-05    0.000000e+00
-1.268909e-05    -9.847276e-05    0.000000e+00
-8.435205e-06    -9.844575e-05    0.000000e+00
-4.210141e-06    -9.843026e-05    0.000000e+00
-1.302313e-18    -9.842523e-05    0.000000e+00
4.210141e-06    -9.843026e-05    0.000000e+00
8.435205e-06    -9.844575e-05    0.000000e+00
1.268909e-05    -9.847276e-05    0.000000e+00
1.698387e-05    -9.851248e-05    0.000000e+00
2.132994e-05    -9.856523e-05    0.000000e+00
-2.145562e-05    -1.029537e-04    0.000000e+00
-1.708235e-05    -1.029109e-04    0.000000e+00
-1.275997e-05    -1.028800e-04    0.000000e+00
-8.480517e-06    -1.028600e-04    0.000000e+00
-4.232143e-06    -1.028489e-04    0.000000e+00
-1.367111e-18    -1.028454e-04    0.000000e+00
4.232143e-06    -1.028489e-04    0.000000e+00
8.480517e-06    -1.028600e-04    0.000000e+00
1.275997e-05    -1.028800e-04    0.000000e+00
1.708235e-05    -1.029109e-04    0.000000e+00
2.145562e-05    -1.029537e-04    0.000000e+00
-2.155817e-05    -1.073660e-04    0.000000e+00
-1.715935e-05    -1.073327e-04    0.000000e+00
-1.281258e-05    -1.073105e-04    0.000000e+00
-8.512904e-06    -1.072970e-04    0.000000e+00
-4.247579e-06    -1.072895e-04    0.000000e+00
-1.317136e-18    -1.072870e-04    0.000000e+00
4.247579e-06    -1.072895e-04    0.000000e+00
8.512904e-06    -1.072970e-04    0.000000e+00
1.281258e-05    -1.073105e-04    0.000000e+00
1.715935e-05    -1.073327e-04    0.000000e+00
2.155817e-05    -1.073660e-04    0.000000e+00
-2.164067e-05    -1.118022e-04    0.000000e+00
-1.721429e-05    -1.117772e-04    0.000000e+00
-1.284670e-05    -1.117621e-04    0.000000e+00
-8.533270e-06    -1.117511e-04    0.000000e+00
-4.257281e-06    -1.117436e-04    0.000000e+00
-1.241750e-18    -1.117409e-04    0.000000e+00
4.257281e-06    -1.117436e-04    0.000000e+00
8.533270e-06    -1.117511e-04    0.000000e+00
1.284670e-05    -1.117621e-04    0.000000e+00
1.721429e-05    -1.117772e-04    0.000000e+00
2.164067e-05    -1.118022e-04    0.000000e+00
-2.170513e-05    -1.162704e-04    0.000000e+00
-1.724615e-05    -1.162523e-04    0.000000e+00
-1.286626e-05    -1.162338e-04    0.000000e+00
-8.546206e-06    -1.162132e-04    0.000000e+00
-4.263865e-06    -1.161978e-04    0.000000e+00
-1.234551e-18    -1.161922e-04    0.000000e+00
4.263865e-06    -1.161978e-04    0.000000e+00
8.546206e-06    -1.162132e-04    0.000000e+00
1.286626e-05    -1.162338e-04    0.000000e+00
1.724615e-05    -1.162523e-04    0.000000e+00
2.170513e-05    -1.162704e-04    0.000000e+00
-2.173924e-05    -1.208105e-04    0.000000e+00
-1.726634e-05    -1.207758e-04    0.000000e+00
-1.288608e-05    -1.207173e-04    0.000000e+00
-8.561321e-06    -1.206645e-04    0.000000e+00
-4.272039e-06    -1.206293e-04    0.000000e+00
-1.221210e-18    -1.206170e-04    0.000000e+00
4.272039e-06    -1.206293e-04    0.000000e+00
8.561321e-06    -1.206645e-04    0.000000e+00
1.288608e-05    -1.207173e-04    0.000000e+00
1.726634e-05    -1.207758e-04    0.000000e+00
2.173924e-05    -1.208105e-04    0.000000e+00

CELL_DATA      400
TENSORS Element_Stress9.200000e-01 double
1.820598e+06 2.551812e+05        0
2.551812e+05 4.163488e+05        0
       0        0        0

1.243720e+06 1.308538e+05        0
1.308538e+05 3.566178e+05        0
       0        0        0

8.651185e+05 4.301032e+04        0
4.301032e+04 2.749959e+05        0
       0        0        0

5.100063e+05 -3.578363e+03        0
-3.578363e+03 1.690094e+05        0
       0        0        0

1.688541e+05 -2.488323e+04        0
-2.488323e+04 5.694968e+04        0
       0        0        0

-1.688184e+05 -2.487711e+04        0
-2.487711e+04 -5.695775e+04        0
       0        0        0

-5.095306e+05 -3.579112e+03        0
-3.579112e+03 -1.688447e+05        0
       0        0        0

-8.637077e+05 4.293851e+04        0
4.293851e+04 -2.744671e+05        0
       0        0        0

-1.240734e+06 1.305652e+05        0
1.305652e+05 -3.554740e+05        0
       0        0        0

-1.814375e+06 2.543707e+05        0
2.543707e+05 -4.141970e+05        0
       0        0        0

1.642070e+06 4.159748e+04        0
4.159748e+04 4.234799e+03        0
       0        0        0

1.322354e+06 1.206454e+05        0
1.206454e+05 1.286843e+05        0
       0        0        0

9.082521e+05 9.900755e+04        0
9.900755e+04 1.315191e+05        0
       0        0        0

5.364025e+05 7.580678e+04        0
7.580678e+04 9.193311e+04        0
       0        0        0

1.768172e+05 6.321707e+04        0
6.321707e+04 3.207757e+04        0
       0        0        0

-1.778550e+05 6.319873e+04        0
6.319873e+04 -3.316896e+04        0
       0        0        0

-5.369363e+05 7.574133e+04        0
7.574133e+04 -9.284490e+04        0
       0        0        0

-9.077061e+05 9.886737e+04        0
9.886737e+04 -1.320379e+05        0
       0        0        0

-1.319830e+06 1.204079e+05        0
1.204079e+05 -1.284324e+05        0
       0        0        0

-1.637466e+06 4.151082e+04        0
4.151082e+04 -3.136555e+03        0
       0        0        0

1.584953e+06 1.541639e+04        0
1.541639e+04 6.615316e+03        0
       0        0        0

1.271591e+06 6.833109e+04        0
6.833109e+04 1.757728e+04        0
       0        0        0

9.146413e+05 1.015639e+05        0
1.015639e+05 4.237686e+04        0
       0        0        0

5.430826e+05 1.074765e+05        0
1.074765e+05 3.592346e+04        0
       0        0        0

1.791459e+05 1.074054e+05        0
1.074054e+05 1.272037e+04        0
       0        0        0

-1.824790e+05 1.073775e+05        0
1.073775e+05 -1.611190e+04        0
       0        0        0

-5.458838e+05 1.073933e+05        0
1.073933e+05 -3.912503e+04        0
       0        0        0

-9.163117e+05 1.014348e+05        0
1.014348e+05 -4.515293e+04        0
       0        0        0

-1.271565e+06 6.821622e+04        0
6.821622e+04 -1.966893e+04        0
       0        0        0

-1.582978e+06 1.538448e+04        0
1.538448e+04 -7.911807e+03        0
       0        0        0

1.546129e+06 1.427370e+04        0
1.427370e+04 -3.975752e+03        0
       0        0        0

1.226683e+06 5.548208e+04        0
5.548208e+04 -1.953361e+03        0
       0        0        0

8.865538e+05 9.245024e+04        0
9.245024e+04 2.933168e+03        0
       0        0        0

5.331314e+05 1.146030e+05        0
1.146030e+05 5.877770e+03        0
       0        0        0

1.753740e+05 1.233579e+05        0
1.233579e+05 6.880625e+02        0
       0        0        0

-1.820438e+05 1.233283e+05        0
1.233283e+05 -7.415933e+03        0
       0        0        0

-5.392752e+05 1.145213e+05        0
1.145213e+05 -1.241206e+04        0
       0        0        0

-8.916350e+05 9.234262e+04        0
9.234262e+04 -9.058365e+03        0
       0        0        0

-1.230189e+06 5.539388e+04        0
5.539388e+04 -3.528931e+03        0
       0        0        0

-1.547532e+06 1.424568e+04        0
1.424568e+04 -5.504384e+02        0
       0        0        0

1.509427e+06 1.713063e+04        0
1.713063e+04 -5.567249e+03        0
       0        0        0

1.185340e+06 5.448733e+04        0
5.448733e+04 -8.577651e+03        0
       0        0        0

8.541561e+05 8.905469e+04        0
8.905469e+04 -8.329305e+03        0
       0        0        0

5.137340e+05 1.136408e+05        0
1.136408e+05 -6.745280e+03        0
       0        0        0

1.681056e+05 1.258450e+05        0
1.258450e+05 -5.639044e+03        0
       0        0        0

-1.789903e+05 1.258166e+05        0
1.258166e+05 -5.300819e+03        0
       0        0        0

-5.241237e+05 1.135646e+05        0
1.135646e+05 -4.010288e+03        0
       0        0        0

-8.635542e+05 8.895612e+04        0
8.895612e+04 -2.042812e+03        0
       0        0        0

-1.193244e+06 5.440409e+04        0
5.440409e+04 -1.179541e+03        0
       0        0        0

-1.515273e+06 1.709766e+04        0
1.709766e+04 -3.264824e+03        0
       0        0        0

1.469671e+06 1.958963e+04        0
1.958963e+04 -7.911531e+03        0
       0        0        0

1.147077e+06 5.644559e+04        0
5.644559e+04 -1.054799e+04        0
       0        0        0

8.224151e+05 8.838594e+04        0
8.838594e+04 -1.192774e+04        0
       0        0        0

4.928620e+05 1.117722e+05        0
1.117722e+05 -1.113898e+04        0
       0        0        0

1.594065e+05 1.239614e+05        0
1.239614e+05 -9.157848e+03        0
       0        0        0

-1.752704e+05 1.239347e+05        0
1.239347e+05 -6.757342e+03        0
       0        0        0

-5.082716e+05 1.117003e+05        0
1.117003e+05 -4.611022e+03        0
       0        0        0

-8.369138e+05 8.829171e+04        0
8.829171e+04 -3.479956e+03        0
       0        0        0

-1.160194e+06 5.636191e+04        0
5.636191e+04 -4.312364e+03        0
       0        0        0

-1.480879e+06 1.955284e+04        0
1.955284e+04 -6.139554e+03        0
       0        0        0

1.427069e+06 2.114429e+04        0
2.114429e+04 -1.052964e+04        0
       0        0        0

1.109854e+06 5.834958e+04        0
5.834958e+04 -1.236661e+04        0
       0        0        0

7.924051e+05 8.864128e+04        0
8.864128e+04 -1.362108e+04        0
       0        0        0

4.726277e+05 1.103428e+05        0
1.103428e+05 -1.337050e+04        0
       0        0        0

1.506199e+05 1.216735e+05        0
1.216735e+05 -1.181697e+04        0
       0        0        0

-1.721469e+05 1.216483e+05        0
1.216483e+05 -9.757740e+03        0
       0        0        0

-4.937482e+05 1.102742e+05        0
1.102742e+05 -8.067258e+03        0
       0        0        0

-8.127094e+05 8.854973e+04        0
8.854973e+04 -7.533908e+03        0
       0        0        0

-1.128918e+06 5.826553e+04        0
5.826553e+04 -8.339735e+03        0
       0        0        0

-1.444434e+06 2.110561e+04        0
2.110561e+04 -9.528609e+03        0
       0        0        0

1.382471e+06 2.200181e+04        0
2.200181e+04 -1.363722e+04        0
       0        0        0

1.072891e+06 5.961398e+04        0
5.961398e+04 -1.472183e+04        0
       0        0        0

7.635785e+05 8.901007e+04        0
8.901007e+04 -1.557414e+04        0
       0        0        0

4.533125e+05 1.094858e+05        0
1.094858e+05 -1.552412e+04        0
       0        0        0

1.419522e+05 1.200358e+05        0
1.200358e+05 -1.458784e+04        0
       0        0        0

-1.697603e+05 1.200117e+05        0
1.200117e+05 -1.326479e+04        0
       0        0        0

-4.807667e+05 1.094198e+05        0
1.094198e+05 -1.222641e+04        0
       0        0        0

-7.903212e+05 8.892090e+04        0
8.892090e+04 -1.196593e+04        0
       0        0        0

-1.098554e+06 5.953060e+04        0
5.953060e+04 -1.248635e+04        0
       0        0        0

-1.406666e+06 2.196271e+04        0
2.196271e+04 -1.309846e+04        0
       0        0        0

1.336650e+06 2.243103e+04        0
2.243103e+04 -1.712975e+04        0
       0        0        0

1.035846e+06 6.032508e+04        0
6.032508e+04 -1.770734e+04        0
       0        0        0

7.353690e+05 8.928001e+04        0
8.928001e+04 -1.819357e+04        0
       0        0        0

4.345842e+05 1.090314e+05        0
1.090314e+05 -1.820574e+04        0
       0        0        0

1.333510e+05 1.190751e+05        0
1.190751e+05 -1.770719e+04        0
       0        0        0

-1.679948e+05 1.190519e+05        0
1.190519e+05 -1.697818e+04        0
       0        0        0

-4.689286e+05 1.089678e+05        0
1.089678e+05 -1.641605e+04        0
       0        0        0

-7.691116e+05 8.919329e+04        0
8.919329e+04 -1.629667e+04        0
       0        0        0

-1.068676e+06 6.024325e+04        0
6.024325e+04 -1.657480e+04        0
       0        0        0

-1.368246e+06 2.239236e+04        0
2.239236e+04 -1.685617e+04        0
       0        0        0

1.290108e+06 2.262769e+04        0
2.262769e+04 -2.093370e+04        0
       0        0        0

9.986145e+05 6.068320e+04        0
6.068320e+04 -2.119241e+04        0
       0        0        0

7.073840e+05 8.943847e+04        0
8.943847e+04 -2.142407e+04        0
       0        0        0

4.161153e+05 1.088122e+05        0
1.088122e+05 -2.143279e+04        0
       0        0        0

1.247137e+05 1.185759e+05        0
1.185759e+05 -2.118594e+04        0
       0        0        0

-1.666835e+05 1.185536e+05        0
1.185536e+05 -2.082274e+04        0
       0        0        0

-4.578408e+05 1.087507e+05        0
1.087507e+05 -2.055219e+04        0
       0        0        0

-7.486181e+05 8.935433e+04        0
8.935433e+04 -2.051028e+04        0
       0        0        0

-1.039104e+06 6.060345e+04        0
6.060345e+04 -2.065826e+04        0
       0        0        0

-1.329592e+06 2.258991e+04        0
2.258991e+04 -2.079207e+04        0
       0        0        0

1.243138e+06 2.270943e+04        0
2.270943e+04 -2.498210e+04        0
       0        0        0

9.611829e+05 6.084707e+04        0
6.084707e+04 -2.504187e+04        0
       0        0        0

6.794119e+05 8.952007e+04        0
8.952007e+04 -2.510676e+04        0
       0        0        0

3.976942e+05 1.087151e+05        0
1.087151e+05 -2.508705e+04        0
       0        0        0

1.159751e+05 1.183403e+05        0
1.183403e+05 -2.496213e+04        0
       0        0        0

-1.656966e+05 1.183187e+05        0
1.183187e+05 -2.479576e+04        0
       0        0        0

-4.472257e+05 1.086557e+05        0
1.086557e+05 -2.468699e+04        0
       0        0        0

-7.285608e+05 8.943859e+04        0
8.943859e+04 -2.469694e+04        0
       0        0        0

-1.009752e+06 6.076971e+04        0
6.076971e+04 -2.480000e+04        0
       0        0        0

-1.290922e+06 2.267274e+04        0
2.267274e+04 -2.489961e+04        0
       0        0        0

1.195902e+06 2.273919e+04        0
2.273919e+04 -2.922324e+04        0
       0        0        0

9.235708e+05 6.091458e+04        0
6.091458e+04 -2.915047e+04        0
       0        0        0

6.513590e+05 8.955767e+04        0
8.955767e+04 -2.910387e+04        0
       0        0        0

3.792147e+05 1.086759e+05        0
1.086759e+05 -2.904718e+04        0
       0        0        0

1.071092e+05 1.182389e+05        0
1.182389e+05 -2.896999e+04        0
       0        0        0

-1.649443e+05 1.182180e+05        0
1.182180e+05 -2.889900e+04        0
       0        0        0

-4.369126e+05 1.086185e+05        0
1.086185e+05 -2.887696e+04        0
       0        0        0

-7.087800e+05 8.947891e+04        0
8.947891e+04 -2.892824e+04        0
       0        0        0

-9.805709e+05 6.083975e+04        0
6.083975e+04 -2.903784e+04        0
       0        0        0

-1.252330e+06 2.270369e+04        0
2.270369e+04 -2.916302e+04        0
       0        0        0

1.148491e+06 2.274763e+04        0
2.274763e+04 -3.361527e+04        0
       0        0        0

8.858087e+05 6.093851e+04        0
6.093851e+04 -3.344415e+04        0
       0        0        0

6.231974e+05 8.957284e+04        0
8.957284e+04 -3.331675e+04        0
       0        0        0

3.606384e+05 1.086618e+05        0
1.086618e+05 -3.322145e+04        0
       0        0        0

9.811734e+04 1.181997e+05        0
1.181997e+05 -3.315416e+04        0
       0        0        0

-1.643651e+05 1.181796e+05        0
1.181796e+05 -3.312513e+04        0
       0        0        0

-4.268000e+05 1.086064e+05        0
1.086064e+05 -3.315081e+04        0
       0        0        0

-6.891844e+05 8.949683e+04        0
8.949683e+04 -3.323922e+04        0
       0        0        0

-9.515284e+05 6.086627e+04        0
6.086627e+04 -3.338182e+04        0
       0        0        0

-1.213844e+06 2.271337e+04        0
2.271337e+04 -3.356049e+04        0
       0        0        0

1.100960e+06 2.274841e+04        0
2.274841e+04 -3.812278e+04        0
       0        0        0

8.479289e+05 6.094459e+04        0
6.094459e+04 -3.787019e+04        0
       0        0        0

5.949322e+05 8.957762e+04        0
8.957762e+04 -3.767803e+04        0
       0        0        0

3.419635e+05 1.086573e+05        0
1.086573e+05 -3.754494e+04        0
       0        0        0

8.901558e+04 1.181867e+05        0
1.181867e+05 -3.747027e+04        0
       0        0        0

-1.639142e+05 1.181674e+05        0
1.181674e+05 -3.745768e+04        0
       0        0        0

-4.168253e+05 1.086039e+05        0
1.086039e+05 -3.751247e+04        0
       0        0        0

-6.697180e+05 8.950436e+04        0
8.950436e+04 -3.763608e+04        0
       0        0        0

-9.225952e+05 6.087498e+04        0
6.087498e+04 -3.782343e+04        0
       0        0        0

-1.175457e+06 2.271539e+04        0
2.271539e+04 -3.806658e+04        0
       0        0        0

1.053347e+06 2.274703e+04        0
2.274703e+04 -4.271420e+04        0
       0        0        0

8.099626e+05 6.094429e+04        0
6.094429e+04 -4.238866e+04        0
       0        0        0

5.665832e+05 8.957803e+04        0
8.957803e+04 -4.214000e+04        0
       0        0        0

3.232060e+05 1.086559e+05        0
1.086559e+05 -4.197068e+04        0
       0        0        0

7.982720e+04 1.181835e+05        0
1.181835e+05 -4.188171e+04        0
       0        0        0

-1.635563e+05 1.181649e+05        0
1.181649e+05 -4.187447e+04        0
       0        0        0

-4.069457e+05 1.086046e+05        0
1.086046e+05 -4.195008e+04        0
       0        0        0

-6.503417e+05 8.950753e+04        0
8.950753e+04 -4.210767e+04        0
       0        0        0

-8.937438e+05 6.087730e+04        0
6.087730e+04 -4.234382e+04        0
       0        0        0

-1.137148e+06 2.271526e+04        0
2.271526e+04 -4.265429e+04        0
       0        0        0

1.005683e+06 2.274539e+04        0
2.274539e+04 -4.736038e+04        0
       0        0        0

7.719394e+05 6.094219e+04        0
6.094219e+04 -4.696667e+04        0
       0        0        0

5.381756e+05 8.957681e+04        0
8.957681e+04 -4.666608e+04        0
       0        0        0

3.043894e+05 1.086553e+05        0
1.086553e+05 -4.646218e+04        0
       0        0        0

7.057816e+04 1.181832e+05        0
1.181832e+05 -4.635676e+04        0
       0        0        0

-1.632605e+05 1.181653e+05        0
1.181653e+05 -4.635058e+04        0
       0        0        0

-3.971278e+05 1.086060e+05        0
1.086060e+05 -4.644347e+04        0
       0        0        0

-6.310240e+05 8.950907e+04        0
8.950907e+04 -4.663394e+04        0
       0        0        0

-8.649473e+05 6.087783e+04        0
6.087783e+04 -4.691929e+04        0
       0        0        0

-1.098893e+06 2.271487e+04        0
2.271487e+04 -4.729637e+04        0
       0        0        0

9.579955e+05 2.274400e+04        0
2.274400e+04 -5.203381e+04        0
       0        0        0

7.338873e+05 6.093989e+04        0
6.093989e+04 -5.157525e+04        0
       0        0        0

5.097360e+05 8.957508e+04        0
8.957508e+04 -5.122566e+04        0
       0        0        0

2.855393e+05 1.086546e+05        0
1.086546e+05 -5.098880e+04        0
       0        0        0

6.129495e+04 1.181835e+05        0
1.181835e+05 -5.086675e+04        0
       0        0        0

-1.629989e+05 1.181663e+05        0
1.181663e+05 -5.086025e+04        0
       0        0        0

-3.873432e+05 1.086073e+05        0
1.086073e+05 -5.096887e+04        0
       0        0        0

-6.117373e+05 8.951011e+04        0
8.951011e+04 -5.119108e+04        0
       0        0        0

-8.361791e+05 6.087815e+04        0
6.087815e+04 -5.152449e+04        0
       0        0        0

-1.060664e+06 2.271473e+04        0
2.271473e+04 -5.196605e+04        0
       0        0        0

9.103102e+05 2.274290e+04        0
2.274290e+04 -5.670829e+04        0
       0        0        0

6.958326e+05 6.093780e+04        0
6.093780e+04 -5.618768e+04        0
       0        0        0

4.812907e+05 8.957328e+04        0
8.957328e+04 -5.579141e+04        0
       0        0        0

2.666817e+05 1.086537e+05        0
1.086537e+05 -5.552312e+04        0
       0        0        0

5.200354e+04 1.181835e+05        0
1.181835e+05 -5.538500e+04        0
       0        0        0

-1.627453e+05 1.181671e+05        0
1.181671e+05 -5.537790e+04        0
       0        0        0

-3.775653e+05 1.086084e+05        0
1.086084e+05 -5.550144e+04        0
       0        0        0

-5.924555e+05 8.951107e+04        0
8.951107e+04 -5.575422e+04        0
       0        0        0

-8.074137e+05 6.087870e+04        0
6.087870e+04 -5.613390e+04        0
       0        0        0

-1.022436e+06 2.271486e+04        0
2.271486e+04 -5.663735e+04        0
       0        0        0

8.626520e+05 2.274198e+04        0
2.274198e+04 -6.135878e+04        0
       0        0        0

6.578008e+05 6.093596e+04        0
6.093596e+04 -6.077882e+04        0
       0        0        0

4.528650e+05 8.957150e+04        0
8.957150e+04 -6.033795e+04        0
       0        0        0

2.478418e+05 1.086526e+05        0
1.086526e+05 -6.003971e+04        0
       0        0        0

4.272898e+04 1.181833e+05        0
1.181833e+05 -5.988630e+04        0
       0        0        0

-1.624747e+05 1.181676e+05        0
1.181676e+05 -5.987867e+04        0
       0        0        0

-3.677693e+05 1.086093e+05        0
1.086093e+05 -6.001656e+04        0
       0        0        0

-5.731539e+05 8.951206e+04        0
8.951206e+04 -6.029866e+04        0
       0        0        0

-7.786261e+05 6.087948e+04        0
6.087948e+04 -6.072266e+04        0
       0        0        0

-9.841819e+05 2.271520e+04        0
2.271520e+04 -6.128530e+04        0
       0        0        0

8.150447e+05 2.274119e+04        0
2.274119e+04 -6.596136e+04        0
       0        0        0

6.198157e+05 6.093429e+04        0
6.093429e+04 -6.532473e+04        0
       0        0        0

4.244830e+05 8.956978e+04        0
8.956978e+04 -6.484132e+04        0
       0        0        0

2.290436e+05 1.086514e+05        0
1.086514e+05 -6.451456e+04        0
       0        0        0

3.349528e+04 1.181828e+05        0
1.181828e+05 -6.434667e+04        0
       0        0        0

-1.621631e+05 1.181678e+05        0
1.181678e+05 -6.433865e+04        0
       0        0        0

-3.579315e+05 1.086101e+05        0
1.086101e+05 -6.449035e+04        0
       0        0        0

-5.538087e+05 8.951311e+04        0
8.951311e+04 -6.480052e+04        0
       0        0        0

-7.497925e+05 6.088043e+04        0
6.088043e+04 -6.526685e+04        0
       0        0        0

-9.458791e+05 2.271565e+04        0
2.271565e+04 -6.588596e+04        0
       0        0        0

7.675109e+05 2.274046e+04        0
2.274046e+04 -7.049318e+04        0
       0        0        0

5.819002e+05 6.093273e+04        0
6.093273e+04 -6.980260e+04        0
       0        0        0

3.961677e+05 8.956811e+04        0
8.956811e+04 -6.927870e+04        0
       0        0        0

2.103102e+05 1.086501e+05        0
1.086501e+05 -6.892486e+04        0
       0        0        0

2.432535e+04 1.181822e+05        0
1.181822e+05 -6.874327e+04        0
       0        0        0

-1.617877e+05 1.181679e+05        0
1.181679e+05 -6.873499e+04        0
       0        0        0

-3.480290e+05 1.086108e+05        0
1.086108e+05 -6.889993e+04        0
       0        0        0

-5.343973e+05 8.951420e+04        0
8.951420e+04 -6.923690e+04        0
       0        0        0

-7.208901e+05 6.088150e+04        0
6.088150e+04 -6.974356e+04        0
       0        0        0

-9.075041e+05 2.271617e+04        0
2.271617e+04 -7.041649e+04        0
       0        0        0

7.200723e+05 2.273978e+04        0
2.273978e+04 -7.493249e+04        0
       0        0        0

5.440762e+05 6.093125e+04        0
6.093125e+04 -7.419071e+04        0
       0        0        0

3.679410e+05 8.956648e+04        0
8.956648e+04 -7.362841e+04        0
       0        0        0

1.916633e+05 1.086488e+05        0
1.086488e+05 -7.324889e+04        0
       0        0        0

1.524098e+04 1.181815e+05        0
1.181815e+05 -7.305436e+04        0
       0        0        0

-1.613270e+05 1.181679e+05        0
1.181679e+05 -7.304590e+04        0
       0        0        0

-3.380404e+05 1.086115e+05        0
1.086115e+05 -7.322349e+04        0
       0        0        0

-5.148979e+05 8.951533e+04        0
8.951533e+04 -7.358598e+04        0
       0        0        0

-6.918973e+05 6.088265e+04        0
6.088265e+04 -7.413101e+04        0
       0        0        0

-8.690350e+05 2.271673e+04        0
2.271673e+04 -7.485511e+04        0
       0        0        0

6.727496e+05 2.273915e+04        0
2.273915e+04 -7.925863e+04        0
       0        0        0

5.063643e+05 6.092987e+04        0
6.092987e+04 -7.846843e+04        0
       0        0        0

3.398235e+05 8.956489e+04        0
8.956489e+04 -7.786983e+04        0
       0        0        0

1.731238e+05 1.086474e+05        0
1.086474e+05 -7.746605e+04        0
       0        0        0

6.262879e+03 1.181806e+05        0
1.181806e+05 -7.725929e+04        0
       0        0        0

-1.607601e+05 1.181679e+05        0
1.181679e+05 -7.725069e+04        0
       0        0        0

-3.279448e+05 1.086121e+05        0
1.086121e+05 -7.744030e+04        0
       0        0        0

-4.952900e+05 8.951651e+04        0
8.951651e+04 -7.782701e+04        0
       0        0        0

-6.627933e+05 6.088389e+04        0
6.088389e+04 -7.840849e+04        0
       0        0        0

-8.304513e+05 2.271735e+04        0
2.271735e+04 -7.918115e+04        0
       0        0        0

6.255623e+05 2.273859e+04        0
2.273859e+04 -8.345202e+04        0
       0        0        0

4.687842e+05 6.092860e+04        0
6.092860e+04 -8.261621e+04        0
       0        0        0

3.118350e+05 8.956335e+04        0
8.956335e+04 -8.198342e+04        0
       0        0        0

1.547113e+05 1.086460e+05        0
1.086460e+05 -8.155678e+04        0
       0        0        0

-2.589332e+03 1.181797e+05        0
1.181797e+05 -8.133849e+04        0
       0        0        0

-1.600676e+05 1.181676e+05        0
1.181676e+05 -8.132976e+04        0
       0        0        0

-3.177230e+05 1.086127e+05        0
1.086127e+05 -8.153073e+04        0
       0        0        0

-4.755540e+05 8.951773e+04        0
8.951773e+04 -8.194037e+04        0
       0        0        0

-6.335585e+05 6.088526e+04        0
6.088526e+04 -8.255636e+04        0
       0        0        0

-7.917331e+05 2.271804e+04        0
2.271804e+04 -8.337502e+04        0
       0        0        0

5.785286e+05 2.273817e+04        0
2.273817e+04 -8.749418e+04        0
       0        0        0

4.313542e+05 6.092752e+04        0
6.092752e+04 -8.661559e+04        0
       0        0        0

2.839942e+05 8.956185e+04        0
8.956185e+04 -8.595072e+04        0
       0        0        0

1.364444e+05 1.086444e+05        0
1.086444e+05 -8.550260e+04        0
       0        0        0

-1.129712e+04 1.181785e+05        0
1.181785e+05 -8.527347e+04        0
       0        0        0

-1.592310e+05 1.181672e+05        0
1.181672e+05 -8.526462e+04        0
       0        0        0

-3.073564e+05 1.086132e+05        0
1.086132e+05 -8.547630e+04        0
       0        0        0

-4.556717e+05 8.951900e+04        0
8.951900e+04 -8.590754e+04        0
       0        0        0

-6.041745e+05 6.088680e+04        0
6.088680e+04 -8.655609e+04        0
       0        0        0

-7.528619e+05 2.271886e+04        0
2.271886e+04 -8.741819e+04        0
       0        0        0

5.316658e+05 2.273795e+04        0
2.273795e+04 -9.136769e+04        0
       0        0        0

3.940921e+05 6.092663e+04        0
6.092663e+04 -9.044910e+04        0
       0        0        0

2.563184e+05 8.956035e+04        0
8.956035e+04 -8.975416e+04        0
       0        0        0

1.183407e+05 1.086427e+05        0
1.086427e+05 -8.928591e+04        0
       0        0        0

-1.984304e+04 1.181771e+05        0
1.181771e+05 -8.904673e+04        0
       0        0        0

-1.582329e+05 1.181665e+05        0
1.181665e+05 -8.903797e+04        0
       0        0        0

-2.968278e+05 1.086135e+05        0
1.086135e+05 -8.925978e+04        0
       0        0        0

-4.356257e+05 8.952026e+04        0
8.952026e+04 -8.971126e+04        0
       0        0        0

-5.746240e+05 6.088854e+04        0
6.088854e+04 -9.039032e+04        0
       0        0        0

-7.138200e+05 2.271989e+04        0
2.271989e+04 -9.129325e+04        0
       0        0        0

4.849900e+05 2.273796e+04        0
2.273796e+04 -9.505616e+04        0
       0        0        0

3.570143e+05 6.092577e+04        0
6.092577e+04 -9.410011e+04        0
       0        0        0

2.288244e+05 8.955862e+04        0
8.955862e+04 -9.337680e+04        0
       0        0        0

1.004164e+05 1.086409e+05        0
1.086409e+05 -9.288973e+04        0
       0        0        0

-2.821084e+04 1.181759e+05        0
1.181759e+05 -9.264170e+04        0
       0        0        0

-1.570570e+05 1.181660e+05        0
1.181660e+05 -9.263378e+04        0
       0        0        0

-2.861209e+05 1.086137e+05        0
1.086137e+05 -9.286554e+04        0
       0        0        0

-4.153999e+05 8.952130e+04        0
8.952130e+04 -9.333582e+04        0
       0        0        0

-5.448908e+05 6.089031e+04        0
6.089031e+04 -9.404299e+04        0
       0        0        0

-6.745908e+05 2.272114e+04        0
2.272114e+04 -9.498387e+04        0
       0        0        0

4.385165e+05 2.273798e+04        0
2.273798e+04 -9.854412e+04        0
       0        0        0

3.201365e+05 6.092413e+04        0
6.092413e+04 -9.755241e+04        0
       0        0        0

2.015270e+05 8.955604e+04        0
8.955604e+04 -9.680154e+04        0
       0        0        0

8.268605e+04 1.086393e+05        0
1.086393e+05 -9.629692e+04        0
       0        0        0

-3.638570e+04 1.181760e+05        0
1.181760e+05 -9.604233e+04        0
       0        0        0

-1.556878e+05 1.181669e+05        0
1.181669e+05 -9.603768e+04        0
       0        0        0

-2.752197e+05 1.086142e+05        0
1.086142e+05 -9.628030e+04        0
       0        0        0

-3.949789e+05 8.952148e+04        0
8.952148e+04 -9.676788e+04        0
       0        0        0

-5.149601e+05 6.089129e+04        0
6.089129e+04 -9.749979e+04        0
       0        0        0

-6.351590e+05 2.272241e+04        0
2.272241e+04 -9.847493e+04        0
       0        0        0

3.922608e+05 2.273705e+04        0
2.273705e+04 -1.018168e+05        0
       0        0        0

2.834737e+05 6.091918e+04        0
6.091918e+04 -1.007892e+05        0
       0        0        0

1.744389e+05 8.955103e+04        0
8.955103e+04 -1.000095e+05        0
       0        0        0

6.516112e+04 1.086394e+05        0
1.086394e+05 -9.948864e+04        0
       0        0        0

-4.435479e+04 1.181814e+05        0
1.181814e+05 -9.923256e+04        0
       0        0        0

-1.541098e+05 1.181730e+05        0
1.181730e+05 -9.923756e+04        0
       0        0        0

-2.641076e+05 1.086162e+05        0
1.086162e+05 -9.949471e+04        0
       0        0        0

-3.743470e+05 8.951924e+04        0
8.951924e+04 -9.999807e+04        0
       0        0        0

-4.848186e+05 6.088897e+04        0
6.088897e+04 -1.007491e+05        0
       0        0        0

-5.955116e+05 2.272272e+04        0
2.272272e+04 -1.017526e+05        0
       0        0        0

3.462408e+05 2.273213e+04        0
2.273213e+04 -1.048596e+05        0
       0        0        0

2.470402e+05 6.090435e+04        0
6.090435e+04 -1.037913e+05        0
       0        0        0

1.475679e+05 8.953998e+04        0
8.953998e+04 -1.029768e+05        0
       0        0        0

4.784706e+04 1.086446e+05        0
1.086446e+05 -1.024414e+05        0
       0        0        0

-5.210859e+04 1.182015e+05        0
1.182015e+05 -1.021950e+05        0
       0        0        0

-1.523066e+05 1.181938e+05        0
1.181938e+05 -1.022248e+05        0
       0        0        0

-2.527641e+05 1.086235e+05        0
1.086235e+05 -1.025064e+05        0
       0        0        0

-3.534861e+05 8.951095e+04        0
8.951095e+04 -1.030243e+05        0
       0        0        0

-4.544544e+05 6.087677e+04        0
6.087677e+04 -1.037842e+05        0
       0        0        0

-5.556397e+05 2.271905e+04        0
2.271905e+04 -1.048050e+05        0
       0        0        0

3.004822e+05 2.271539e+04        0
2.271539e+04 -1.076574e+05        0
       0        0        0

2.108493e+05 6.086437e+04        0
6.086437e+04 -1.065333e+05        0
       0        0        0

1.209111e+05 8.951546e+04        0
8.951546e+04 -1.056691e+05        0
       0        0        0

3.073692e+04 1.086641e+05        0
1.086641e+05 -1.051219e+05        0
       0        0        0

-5.964355e+04 1.182578e+05        0
1.182578e+05 -1.049091e+05        0
       0        0        0

-1.502580e+05 1.182508e+05        0
1.182508e+05 -1.049962e+05        0
       0        0        0

-2.411586e+05 1.086450e+05        0
1.086450e+05 -1.053249e+05        0
       0        0        0

-3.323700e+05 8.948920e+04        0
8.948920e+04 -1.058577e+05        0
       0        0        0

-4.238570e+05 6.083943e+04        0
6.083943e+04 -1.066065e+05        0
       0        0        0

-5.155448e+05 2.270357e+04        0
2.270357e+04 -1.076228e+05        0
       0        0        0

2.550302e+05 2.266861e+04        0
2.266861e+04 -1.101928e+05        0
       0        0        0

1.749112e+05 6.076689e+04        0
6.076689e+04 -1.089786e+05        0
       0        0        0

9.444394e+04 8.946363e+04        0
8.946363e+04 -1.080332e+05        0
       0        0        0

1.379929e+04 1.087177e+05        0
1.087177e+05 -1.074804e+05        0
       0        0        0

-6.696699e+04 1.183950e+05        0
1.183950e+05 -1.073481e+05        0
       0        0        0

-1.479345e+05 1.183887e+05        0
1.183887e+05 -1.075565e+05        0
       0        0        0

-2.292386e+05 1.087005e+05        0
1.087005e+05 -1.079789e+05        0
       0        0        0

-3.109536e+05 8.944014e+04        0
8.944014e+04 -1.085307e+05        0
       0        0        0

-3.930164e+05 6.074460e+04        0
6.074460e+04 -1.092323e+05        0
       0        0        0

-4.752498e+05 2.265805e+04        0
2.265805e+04 -1.102010e+05        0
       0        0        0

2.099707e+05 2.255312e+04        0
2.255312e+04 -1.124452e+05        0
       0        0        0

1.392276e+05 6.054966e+04        0
6.054966e+04 -1.110720e+05        0
       0        0        0

6.809783e+04 8.936201e+04        0
8.936201e+04 -1.099896e+05        0
       0        0        0

-3.042201e+03 1.088455e+05        0
1.088455e+05 -1.094456e+05        0
       0        0        0

-7.410476e+04 1.186961e+05        0
1.186961e+05 -1.094775e+05        0
       0        0        0

-1.452897e+05 1.186906e+05        0
1.186906e+05 -1.099193e+05        0
       0        0        0

-2.169085e+05 1.088304e+05        0
1.088304e+05 -1.105207e+05        0
       0        0        0

-2.891518e+05 8.934130e+04        0
8.934130e+04 -1.111065e+05        0
       0        0        0

-3.619182e+05 6.053005e+04        0
6.053005e+04 -1.117009e+05        0
       0        0        0

-4.348222e+05 2.254384e+04        0
2.254384e+04 -1.125421e+05        0
       0        0        0

1.654676e+05 2.229389e+04        0
2.229389e+04 -1.143894e+05        0
       0        0        0

1.037757e+05 6.010633e+04        0
6.010633e+04 -1.127378e+05        0
       0        0        0

4.172434e+04 8.918285e+04        0
8.918285e+04 -1.114369e+05        0
       0        0        0

-1.993674e+04 1.091211e+05        0
1.091211e+05 -1.109352e+05        0
       0        0        0

-8.111029e+04 1.192969e+05        0
1.192969e+05 -1.112604e+05        0
       0        0        0

-1.422485e+05 1.192922e+05        0
1.192922e+05 -1.121001e+05        0
       0        0        0

-2.040019e+05 1.091080e+05        0
1.091080e+05 -1.130150e+05        0
       0        0        0

-2.668047e+05 8.916493e+04        0
8.916493e+04 -1.136749e+05        0
       0        0        0

-3.305323e+05 6.008944e+04        0
6.008944e+04 -1.140806e+05        0
       0        0        0

-3.944153e+05 2.228592e+04        0
2.228592e+04 -1.146607e+05        0
       0        0        0

1.218143e+05 2.175987e+04        0
2.175987e+04 -1.160001e+05        0
       0        0        0

6.846991e+04 5.928775e+04        0
5.928775e+04 -1.139016e+05        0
       0        0        0

1.504776e+04 8.891653e+04        0
8.891653e+04 -1.123083e+05        0
       0        0        0

-3.712658e+04 1.096611e+05        0
1.096611e+05 -1.119237e+05        0
       0        0        0

-8.806576e+04 1.203706e+05        0
1.203706e+05 -1.126850e+05        0
       0        0        0

-1.387020e+05 1.203666e+05        0
1.203666e+05 -1.140839e+05        0
       0        0        0

-1.902583e+05 1.096500e+05        0
1.096500e+05 -1.154691e+05        0
       0        0        0

-2.436324e+05 8.890144e+04        0
8.890144e+04 -1.162985e+05        0
       0        0        0

-2.987810e+05 5.927361e+04        0
5.927361e+04 -1.164537e+05        0
       0        0        0

-3.543298e+05 2.175326e+04        0
2.175326e+04 -1.165894e+05        0
       0        0        0

7.947515e+04 2.075678e+04        0
2.075678e+04 -1.172821e+05        0
       0        0        0

3.307865e+04 5.797447e+04        0
5.797447e+04 -1.145899e+05        0
       0        0        0

-1.236393e+04 8.865059e+04        0
8.865059e+04 -1.127886e+05        0
       0        0        0

-5.490063e+04 1.106013e+05        0
1.106013e+05 -1.126577e+05        0
       0        0        0

-9.504947e+04 1.220074e+05        0
1.220074e+05 -1.138552e+05        0
       0        0        0

-1.345317e+05 1.220041e+05        0
1.220041e+05 -1.157267e+05        0
       0        0        0

-1.753639e+05 1.105923e+05        0
1.105923e+05 -1.176118e+05        0
       0        0        0

-2.192067e+05 8.863840e+04        0
8.863840e+04 -1.187962e+05        0
       0        0        0

-2.664683e+05 5.796312e+04        0
5.796312e+04 -1.188293e+05        0
       0        0        0

-3.150782e+05 2.075156e+04        0
2.075156e+04 -1.183719e+05        0
       0        0        0

3.901604e+04 1.910250e+04        0
1.910250e+04 -1.183311e+05        0
       0        0        0

-2.945801e+03 5.638064e+04        0
5.638064e+04 -1.153385e+05        0
       0        0        0

-4.097162e+04 8.874194e+04        0
8.874194e+04 -1.139163e+05        0
       0        0        0

-7.334316e+04 1.119428e+05        0
1.119428e+05 -1.141993e+05        0
       0        0        0

-1.020044e+05 1.238170e+05        0
1.238170e+05 -1.151847e+05        0
       0        0        0

-1.297257e+05 1.238146e+05        0
1.238146e+05 -1.165458e+05        0
       0        0        0

-1.591896e+05 1.119363e+05        0
1.119363e+05 -1.183359e+05        0
       0        0        0

-1.930733e+05 8.873286e+04        0
8.873286e+04 -1.201362e+05        0
       0        0        0

-2.331278e+05 5.637209e+04        0
5.637209e+04 -1.207525e+05        0
       0        0        0

-2.773664e+05 1.909865e+04        0
1.909865e+04 -1.200521e+05        0
       0        0        0

5.231885e+02 1.710271e+04        0
1.710271e+04 -1.199683e+05        0
       0        0        0

-4.055900e+04 5.592265e+04        0
5.592265e+04 -1.183223e+05        0
       0        0        0

-7.064224e+04 9.001307e+04        0
9.001307e+04 -1.192608e+05        0
       0        0        0

-9.160225e+04 1.128998e+05        0
1.128998e+05 -1.193451e+05        0
       0        0        0

-1.084793e+05 1.240404e+05        0
1.240404e+05 -1.176209e+05        0
       0        0        0

-1.246149e+05 1.240392e+05        0
1.240392e+05 -1.154734e+05        0
       0        0        0

-1.424954e+05 1.128964e+05        0
1.128964e+05 -1.147534e+05        0
       0        0        0

-1.653497e+05 9.000769e+04        0
9.000769e+04 -1.167341e+05        0
       0        0        0

-1.979384e+05 5.591692e+04        0
5.591692e+04 -1.201833e+05        0
       0        0        0

-2.416132e+05 1.710010e+04        0
1.710010e+04 -1.211410e+05        0
       0        0        0

-3.838756e+04 1.780089e+04        0
1.780089e+04 -1.241547e+05        0
       0        0        0

-8.056431e+04 6.133461e+04        0
6.133461e+04 -1.329179e+05        0
       0        0        0

-9.823377e+04 9.241439e+04        0
9.241439e+04 -1.376493e+05        0
       0        0        0

-1.069299e+05 1.101518e+05        0
1.101518e+05 -1.330247e+05        0
       0        0        0

-1.134903e+05 1.182691e+05        0
1.182691e+05 -1.226657e+05        0
       0        0        0

-1.199857e+05 1.182695e+05        0
1.182695e+05 -1.108102e+05        0
       0        0        0

-1.278480e+05 1.101525e+05        0
1.101525e+05 -1.017531e+05        0
       0        0        0

-1.390687e+05 9.241419e+04        0
9.241419e+04 -9.965328e+04        0
       0        0        0

-1.602170e+05 6.133242e+04        0
6.133242e+04 -1.078653e+05        0
       0        0        0

-2.060740e+05 1.779909e+04        0
1.779909e+04 -1.203165e+05        0
       0        0        0

-9.041227e+04 4.054631e+04        0
4.054631e+04 -1.562833e+05        0
       0        0        0

-1.138421e+05 7.593486e+04        0
7.593486e+04 -1.858539e+05        0
       0        0        0

-1.150718e+05 8.920336e+04        0
8.920336e+04 -1.817339e+05        0
       0        0        0

-1.153875e+05 9.571255e+04        0
9.571255e+04 -1.608397e+05        0
       0        0        0

-1.157489e+05 9.856239e+04        0
9.856239e+04 -1.317915e+05        0
       0        0        0

-1.168366e+05 9.856429e+04        0
9.856429e+04 -1.007937e+05        0
       0        0        0

-1.188659e+05 9.571771e+04        0
9.571771e+04 -7.341100e+04        0
       0        0        0

-1.225609e+05 8.921016e+04        0
8.921016e+04 -5.589328e+04        0
       0        0        0

-1.289065e+05 7.594047e+04        0
7.594047e+04 -5.688864e+04        0
       0        0        0

-1.586523e+05 4.054609e+04        0
4.054609e+04 -9.278138e+04        0
       0        0        0

POINT_DATA     451
VECTORS DISPLACEMENT_9.400000e-01 double
0.000000e+00    0.000000e+00    0.000000e+00
0.000000e+00    0.000000e+00    0.000000e+00
0.000000e+00    0.000000e+00    0.000000e+00
0.000000e+00    0.000000e+00    0.000000e+00
0.000000e+00    0.000000e+00    0.000000e+00
0.000000e+00    0.000000e+00    0.000000e+00
0.000000e+00    0.000000e+00    0.000000e+00
0.000000e+00    0.000000e+00    0.000000e+00
0.000000e+00    0.000000e+00    0.000000e+00
0.000000e+00    0.000000e+00    0.000000e+00
0.000000e+00    0.000000e+00    0.000000e+00
-1.141595e-06    -8.299605e-07    0.000000e+00
-7.233448e-07    -4.163094e-07    0.000000e+00
-5.161144e-07    -2.157261e-07    0.000000e+00
-3.332233e-07    -1.068318e-07    0.000000e+00
-1.642863e-07    -5.047426e-08    0.000000e+00
-2.764302e-20    -3.295145e-08    0.000000e+00
1.642863e-07    -5.047426e-08    0.000000e+00
3.332233e-07    -1.068318e-07    0.000000e+00
5.161144e-07    -2.157261e-07    0.000000e+00
7.233448e-07    -4.163094e-07    0.000000e+00
1.141595e-06    -8.299605e-07    0.000000e+00
-2.153941e-06    -1.380309e-06    0.000000e+00
-1.574436e-06    -9.987668e-07    0.000000e+00
-1.105093e-06    -7.015532e-07    0.000000e+00
-7.128292e-07    -5.177059e-07    0.000000e+00
-3.501023e-07    -4.175298e-07    0.000000e+00
-5.835015e-20    -3.857102e-07    0.000000e+00
3.501023e-07    -4.175298e-07    0.000000e+00
7.128292e-07    -5.177059e-07    0.000000e+00
1.105093e-06    -7.015532e-07    0.000000e+00
1.574436e-06    -9.987668e-07    0.000000e+00
2.153941e-06    -1.380309e-06    0.000000e+00
-3.132427e-06    -2.064634e-06    0.000000e+00
-2.394168e-06    -1.682257e-06    0.000000e+00
-1.722702e-06    -1.380761e-06    0.000000e+00
-1.115240e-06    -1.168096e-06    0.000000e+00
-5.487489e-07    -1.045521e-06    0.000000e+00
-9.200234e-20    -1.005593e-06    0.000000e+00
5.487489e-07    -1.045521e-06    0.000000e+00
1.115240e-06    -1.168096e-06    0.000000e+00
1.722702e-06    -1.380761e-06    0.000000e+00
2.394168e-06    -1.682257e-06    0.000000e+00
3.132427e-06    -2.064634e-06    0.000000e+00
-4.100076e-06    -2.909172e-06    0.000000e+00
-3.186876e-06    -2.535522e-06    0.000000e+00
-2.326958e-06    -2.239053e-06    0.000000e+00
-1.519408e-06    -2.025105e-06    0.000000e+00
-7.500557e-07    -1.896684e-06    0.000000e+00
-1.267770e-19    -1.854101e-06    0.000000e+00
7.500557e-07    -1.896684e-06    0.000000e+00
1.519408e-06    -2.025105e-06    0.000000e+00
2.326958e-06    -2.239053e-06    0.000000e+00
3.186876e-06    -2.535522e-06    0.000000e+00
4.100076e-06    -2.909172e-06    0.000000e+00
-5.051341e-06    -3.936654e-06    0.000000e+00
-3.956477e-06    -3.571725e-06    0.000000e+00
-2.911986e-06    -3.284208e-06    0.000000e+00
-1.912865e-06    -3.075889e-06    0.000000e+00
-9.475500e-07    -2.949778e-06    0.000000e+00
-1.621142e-19    -2.907564e-06    0.000000e+00
9.475500e-07    -2.949778e-06    0.000000e+00
1.912865e-06    -3.075889e-06    0.000000e+00
2.911986e-06    -3.284208e-06    0.000000e+00
3.956477e-06    -3.571725e-06    0.000000e+00
5.051341e-06    -3.936654e-06    0.000000e+00
-5.981873e-06    -5.149742e-06    0.000000e+00
-4.704513e-06    -4.794468e-06    0.000000e+00
-3.477740e-06    -4.516043e-06    0.000000e+00
-2.292922e-06    -4.315096e-06    0.000000e+00
-1.138484e-06    -4.193469e-06    0.000000e+00
-1.980337e-19    -4.152740e-06    0.000000e+00
1.138484e-06    -4.193469e-06    0.000000e+00
2.292922e-06    -4.315096e-06    0.000000e+00
3.477740e-06    -4.516043e-06    0.000000e+00
4.704513e-06    -4.794468e-06    0.000000e+00
5.981873e-06    -5.149742e-06    0.000000e+00
-6.888558e-06    -6.546376e-06    0.000000e+00
-5.431254e-06    -6.201154e-06    0.000000e+00
-4.025294e-06    -5.931590e-06    0.000000e+00
-2.659769e-06    -5.737829e-06    0.000000e+00
-1.322562e-06    -5.620886e-06    0.000000e+00
-2.314782e-19    -5.581769e-06    0.000000e+00
1.322562e-06    -5.620886e-06    0.000000e+00
2.659769e-06    -5.737829e-06    0.000000e+00
4.025294e-06    -5.931590e-06    0.000000e+00
5.431254e-06    -6.201154e-06    0.000000e+00
6.888558e-06    -6.546376e-06    0.000000e+00
-7.769676e-06    -8.122139e-06    0.000000e+00
-6.136609e-06    -7.787205e-06    0.000000e+00
-4.555509e-06    -7.526210e-06    0.000000e+00
-3.014226e-06    -7.339157e-06    0.000000e+00
-1.500173e-06    -7.226543e-06    0.000000e+00
-2.641684e-19    -7.188927e-06    0.000000e+00
1.500173e-06    -7.226543e-06    0.000000e+00
3.014226e-06    -7.339157e-06    0.000000e+00
4.555509e-06    -7.526210e-06    0.000000e+00
6.136609e-06    -7.787205e-06    0.000000e+00
7.769676e-06    -8.122139e-06    0.000000e+00
-8.624338e-06    -9.871838e-06    0.000000e+00
-6.820449e-06    -9.547301e-06    0.000000e+00
-5.068913e-06    -9.294676e-06    0.000000e+00
-3.356973e-06    -9.113935e-06    0.000000e+00
-1.671744e-06    -9.005300e-06    0.000000e+00
-2.980762e-19    -8.969049e-06    0.000000e+00
1.671744e-06    -9.005300e-06    0.000000e+00
3.356973e-06    -9.113935e-06    0.000000e+00
5.068913e-06    -9.294676e-06    0.000000e+00
6.820449e-06    -9.547301e-06    0.000000e+00
8.624338e-06    -9.871838e-06    0.000000e+00
-9.452128e-06    -1.179002e-05    0.000000e+00
-7.482678e-06    -1.147593e-05    0.000000e+00
-5.565791e-06    -1.123156e-05    0.000000e+00
-3.688437e-06    -1.105688e-05    0.000000e+00
-1.837569e-06    -1.095199e-05    0.000000e+00
-3.347898e-19    -1.091701e-05    0.000000e+00
1.837569e-06    -1.095199e-05    0.000000e+00
3.688437e-06    -1.105688e-05    0.000000e+00
5.565791e-06    -1.123156e-05    0.000000e+00
7.482678e-06    -1.147593e-05    0.000000e+00
9.452128e-06    -1.179002e-05    0.000000e+00
-1.025287e-05    -1.387120e-05    0.000000e+00
-8.123242e-06    -1.356758e-05    0.000000e+00
-6.046283e-06    -1.333140e-05    0.000000e+00
-4.008850e-06    -1.316265e-05    0.000000e+00
-1.997814e-06    -1.306137e-05    0.000000e+00
-3.652830e-19    -1.302760e-05    0.000000e+00
1.997814e-06    -1.306137e-05    0.000000e+00
4.008850e-06    -1.316265e-05    0.000000e+00
6.046283e-06    -1.333140e-05    0.000000e+00
8.123242e-06    -1.356758e-05    0.000000e+00
1.025287e-05    -1.387120e-05    0.000000e+00
-1.102648e-05    -1.610989e-05    0.000000e+00
-8.742113e-06    -1.581673e-05    0.000000e+00
-6.510452e-06    -1.558871e-05    0.000000e+00
-4.318325e-06    -1.542583e-05    0.000000e+00
-2.152566e-06    -1.532809e-05    0.000000e+00
-3.953526e-19    -1.529550e-05    0.000000e+00
2.152566e-06    -1.532809e-05    0.000000e+00
4.318325e-06    -1.542583e-05    0.000000e+00
6.510452e-06    -1.558871e-05    0.000000e+00
8.742113e-06    -1.581673e-05    0.000000e+00
1.102648e-05    -1.610989e-05    0.000000e+00
-1.177296e-05    -1.850062e-05    0.000000e+00
-9.339276e-06    -1.821793e-05    0.000000e+00
-6.958324e-06    -1.799806e-05    0.000000e+00
-4.616914e-06    -1.784101e-05    0.000000e+00
-2.301865e-06    -1.774678e-05    0.000000e+00
-4.300280e-19    -1.771537e-05    0.000000e+00
2.301865e-06    -1.774678e-05    0.000000e+00
4.616914e-06    -1.784101e-05    0.000000e+00
6.958324e-06    -1.799806e-05    0.000000e+00
9.339276e-06    -1.821793e-05    0.000000e+00
1.177296e-05    -1.850062e-05    0.000000e+00
-1.249228e-05    -2.103794e-05    0.000000e+00
-9.914727e-06    -2.076572e-05    0.000000e+00
-7.389909e-06    -2.055400e-05    0.000000e+00
-4.904637e-06    -2.040277e-05    0.000000e+00
-2.445728e-06    -2.031204e-05    0.000000e+00
-4.473393e-19    -2.028179e-05    0.000000e+00
2.445728e-06    -2.031204e-05    0.000000e+00
4.904637e-06    -2.040277e-05    0.000000e+00
7.389909e-06    -2.055400e-05    0.000000e+00
9.914727e-06    -2.076572e-05    0.000000e+00
1.249228e-05    -2.103794e-05    0.000000e+00
-1.318446e-05    -2.371642e-05    0.000000e+00
-1.046846e-05    -2.345467e-05    0.000000e+00
-7.805208e-06    -2.325109e-05    0.000000e+00
-5.181501e-06    -2.310568e-05    0.000000e+00
-2.584160e-06    -2.301844e-05    0.000000e+00
-4.657622e-19    -2.298935e-05    0.000000e+00
2.584160e-06    -2.301844e-05    0.000000e+00
5.181501e-06    -2.310568e-05    0.000000e+00
7.805208e-06    -2.325109e-05    0.000000e+00
1.046846e-05    -2.345467e-05    0.000000e+00
1.318446e-05    -2.371642e-05    0.000000e+00
-1.384949e-05    -2.653062e-05    0.000000e+00
-1.100049e-05    -2.627934e-05    0.000000e+00
-8.204222e-06    -2.608391e-05    0.000000e+00
-5.447509e-06    -2.594431e-05    0.000000e+00
-2.717163e-06    -2.586055e-05    0.000000e+00
-4.771972e-19    -2.583264e-05    0.000000e+00
2.717163e-06    -2.586055e-05    0.000000e+00
5.447509e-06    -2.594431e-05    0.000000e+00
8.204222e-06    -2.608391e-05    0.000000e+00
1.100049e-05    -2.627934e-05    0.000000e+00
1.384949e-05    -2.653062e-05    0.000000e+00
-1.448737e-05    -2.947511e-05    0.000000e+00
-1.151079e-05    -2.923430e-05    0.000000e+00
-8.586950e-06    -2.904701e-05    0.000000e+00
-5.702661e-06    -2.891323e-05    0.000000e+00
-2.844739e-06    -2.883296e-05    0.000000e+00
-4.714797e-19    -2.880621e-05    0.000000e+00
2.844739e-06    -2.883296e-05    0.000000e+00
5.702661e-06    -2.891323e-05    0.000000e+00
8.586950e-06    -2.904701e-05    0.000000e+00
1.151079e-05    -2.923430e-05    0.000000e+00
1.448737e-05    -2.947511e-05    0.000000e+00
-1.509811e-05    -3.254446e-05    0.000000e+00
-1.199938e-05    -3.231413e-05    0.000000e+00
-8.953392e-06    -3.213498e-05    0.000000e+00
-5.946955e-06    -3.200701e-05    0.000000e+00
-2.966886e-06    -3.193024e-05    0.000000e+00
-4.801618e-19    -3.190464e-05    0.000000e+00
2.966886e-06    -3.193024e-05    0.000000e+00
5.946955e-06    -3.200701e-05    0.000000e+00
8.953392e-06    -3.213498e-05    0.000000e+00
1.199938e-05    -3.231413e-05    0.000000e+00
1.509811e-05    -3.254446e-05    0.000000e+00
-1.568170e-05    -3.573325e-05    0.000000e+00
-1.246626e-05    -3.551338e-05    0.000000e+00
-9.303549e-06    -3.534238e-05    0.000000e+00
-6.180392e-06    -3.522023e-05    0.000000e+00
-3.083604e-06    -3.514694e-05    0.000000e+00
-4.998553e-19    -3.512251e-05    0.000000e+00
3.083604e-06    -3.514694e-05    0.000000e+00
6.180392e-06    -3.522023e-05    0.000000e+00
9.303549e-06    -3.534238e-05    0.000000e+00
1.246626e-05    -3.551338e-05    0.000000e+00
1.568170e-05    -3.573325e-05    0.000000e+00
-1.623815e-05    -3.903604e-05    0.000000e+00
-1.291142e-05    -3.882665e-05    0.000000e+00
-9.637419e-06    -3.866378e-05    0.000000e+00
-6.402972e-06    -3.854745e-05    0.000000e+00
-3.194894e-06    -3.847765e-05    0.000000e+00
-5.393482e-19    -3.845439e-05    0.000000e+00
3.194894e-06    -3.847765e-05    0.000000e+00
6.402972e-06    -3.854745e-05    0.000000e+00
9.637419e-06    -3.866378e-05    0.000000e+00
1.291142e-05    -3.882665e-05    0.000000e+00
1.623815e-05    -3.903604e-05    0.000000e+00
-1.676746e-05    -4.244741e-05    0.000000e+00
-1.333486e-05    -4.224848e-05    0.000000e+00
-9.955003e-06    -4.209376e-05    0.000000e+00
-6.614695e-06    -4.198325e-05    0.000000e+00
-3.300755e-06    -4.191694e-05    0.000000e+00
-5.982170e-19    -4.189484e-05    0.000000e+00
3.300755e-06    -4.191694e-05    0.000000e+00
6.614695e-06    -4.198325e-05    0.000000e+00
9.955003e-06    -4.209376e-05    0.000000e+00
1.333486e-05    -4.224848e-05    0.000000e+00
1.676746e-05    -4.244741e-05    0.000000e+00
-1.726962e-05    -4.596192e-05    0.000000e+00
-1.373659e-05    -4.577347e-05    0.000000e+00
-1.025630e-05    -4.562689e-05    0.000000e+00
-6.815560e-06    -4.552219e-05    0.000000e+00
-3.401188e-06    -4.545937e-05    0.000000e+00
-6.464979e-19    -4.543843e-05    0.000000e+00
3.401188e-06    -4.545937e-05    0.000000e+00
6.815560e-06    -4.552219e-05    0.000000e+00
1.025630e-05    -4.562689e-05    0.000000e+00
1.373659e-05    -4.577347e-05    0.000000e+00
1.726962e-05    -4.596192e-05    0.000000e+00
-1.774464e-05    -4.957415e-05    0.000000e+00
-1.411661e-05    -4.939617e-05    0.000000e+00
-1.054131e-05    -4.925773e-05    0.000000e+00
-7.005568e-06    -4.915885e-05    0.000000e+00
-3.496192e-06    -4.909952e-05    0.000000e+00
-6.799557e-19    -4.907975e-05    0.000000e+00
3.496192e-06    -4.909952e-05    0.000000e+00
7.005568e-06    -4.915885e-05    0.000000e+00
1.054131e-05    -4.925773e-05    0.000000e+00
1.411661e-05    -4.939617e-05    0.000000e+00
1.774464e-05    -4.957415e-05    0.000000e+00
-1.819252e-05    -5.327868e-05    0.000000e+00
-1.447491e-05    -5.311116e-05    0.000000e+00
-1.081004e-05    -5.298087e-05    0.000000e+00
-7.184718e-06    -5.288780e-05    0.000000e+00
-3.585767e-06    -5.283196e-05    0.000000e+00
-7.210368e-19    -5.281335e-05    0.000000e+00
3.585767e-06    -5.283196e-05    0.000000e+00
7.184718e-06    -5.288780e-05    0.000000e+00
1.081004e-05    -5.298087e-05    0.000000e+00
1.447491e-05    -5.311116e-05    0.000000e+00
1.819252e-05    -5.327868e-05    0.000000e+00
-1.861325e-05    -5.707006e-05    0.000000e+00
-1.481149e-05    -5.691301e-05    0.000000e+00
-1.106248e-05    -5.679086e-05    0.000000e+00
-7.353011e-06    -5.670361e-05    0.000000e+00
-3.669914e-06    -5.665126e-05    0.000000e+00
-7.333188e-19    -5.663381e-05    0.000000e+00
3.669914e-06    -5.665126e-05    0.000000e+00
7.353011e-06    -5.670361e-05    0.000000e+00
1.106248e-05    -5.679086e-05    0.000000e+00
1.481149e-05    -5.691301e-05    0.000000e+00
1.861325e-05    -5.707006e-05    0.000000e+00
-1.900683e-05    -6.094287e-05    0.000000e+00
-1.512636e-05    -6.079629e-05    0.000000e+00
-1.129863e-05    -6.068229e-05    0.000000e+00
-7.510448e-06    -6.060086e-05    0.000000e+00
-3.748633e-06    -6.055200e-05    0.000000e+00
-7.413656e-19    -6.053571e-05    0.000000e+00
3.748633e-06    -6.055200e-05    0.000000e+00
7.510448e-06    -6.060086e-05    0.000000e+00
1.129863e-05    -6.068229e-05    0.000000e+00
1.512636e-05    -6.079629e-05    0.000000e+00
1.900683e-05    -6.094287e-05    0.000000e+00
-1.937327e-05    -6.489169e-05    0.000000e+00
-1.541952e-05    -6.475558e-05    0.000000e+00
-1.151850e-05    -6.464972e-05    0.000000e+00
-7.657028e-06    -6.457410e-05    0.000000e+00
-3.821923e-06    -6.452873e-05    0.000000e+00
-7.458125e-19    -6.451361e-05    0.000000e+00
3.821923e-06    -6.452873e-05    0.000000e+00
7.657028e-06    -6.457410e-05    0.000000e+00
1.151850e-05    -6.464972e-05    0.000000e+00
1.541952e-05    -6.475558e-05    0.000000e+00
1.937327e-05    -6.489169e-05    0.000000e+00
-1.971256e-05    -6.891107e-05    0.000000e+00
-1.569095e-05    -6.878544e-05    0.000000e+00
-1.172208e-05    -6.868772e-05    0.000000e+00
-7.792750e-06    -6.861792e-05    0.000000e+00
-3.889784e-06    -6.857604e-05    0.000000e+00
-7.278131e-19    -6.856208e-05    0.000000e+00
3.889784e-06    -6.857604e-05    0.000000e+00
7.792750e-06    -6.861792e-05    0.000000e+00
1.172208e-05    -6.868772e-05    0.000000e+00
1.569095e-05    -6.878544e-05    0.000000e+00
1.971256e-05    -6.891107e-05    0.000000e+00
-2.002471e-05    -7.299559e-05    0.000000e+00
-1.594068e-05    -7.288043e-05    0.000000e+00
-1.190938e-05    -7.279086e-05    0.000000e+00
-7.917611e-06    -7.272688e-05    0.000000e+00
-3.952212e-06    -7.268851e-05    0.000000e+00
-7.254837e-19    -7.267572e-05    0.000000e+00
3.952212e-06    -7.268851e-05    0.000000e+00
7.917611e-06    -7.272688e-05    0.000000e+00
1.190938e-05    -7.279086e-05    0.000000e+00
1.594068e-05    -7.288043e-05    0.000000e+00
2.002471e-05    -7.299559e-05    0.000000e+00
-2.030971e-05    -7.713981e-05    0.000000e+00
-1.616869e-05    -7.703511e-05    0.000000e+00
-1.208038e-05    -7.695370e-05    0.000000e+00
-8.031599e-06    -7.689557e-05    0.000000e+00
-4.009198e-06    -7.686071e-05    0.000000e+00
-7.508947e-19    -7.684909e-05    0.000000e+00
4.009198e-06    -7.686071e-05    0.000000e+00
8.031599e-06    -7.689557e-05    0.000000e+00
1.208038e-05    -7.695370e-05    0.000000e+00
1.616869e-05    -7.703511e-05    0.000000e+00
2.030971e-05    -7.713981e-05    0.000000e+00
-2.056757e-05    -8.133827e-05    0.000000e+00
-1.637501e-05    -8.124404e-05    0.000000e+00
-1.223508e-05    -8.117079e-05    0.000000e+00
-8.134685e-06    -8.111855e-05    0.000000e+00
-4.060719e-06    -8.108725e-05    0.000000e+00
-7.936699e-19    -8.107682e-05    0.000000e+00
4.060719e-06    -8.108725e-05    0.000000e+00
8.134685e-06    -8.111855e-05    0.000000e+00
1.223508e-05    -8.117079e-05    0.000000e+00
1.637501e-05    -8.124404e-05    0.000000e+00
2.056757e-05    -8.133827e-05    0.000000e+00
-2.079833e-05    -8.558550e-05    0.000000e+00
-1.655963e-05    -8.550173e-05    0.000000e+00
-1.237344e-05    -8.543669e-05    0.000000e+00
-8.226802e-06    -8.539041e-05    0.000000e+00
-4.106724e-06    -8.536275e-05    0.000000e+00
-8.584679e-19    -8.535356e-05    0.000000e+00
4.106724e-06    -8.536275e-05    0.000000e+00
8.226802e-06    -8.539041e-05    0.000000e+00
1.237344e-05    -8.543669e-05    0.000000e+00
1.655963e-05    -8.550173e-05    0.000000e+00
2.079833e-05    -8.558550e-05    0.000000e+00
-2.100210e-05    -8.987603e-05    0.000000e+00
-1.672261e-05    -8.980269e-05    0.000000e+00
-1.249537e-05    -8.974594e-05    0.000000e+00
-8.307807e-06    -8.970578e-05    0.000000e+00
-4.147107e-06    -8.968192e-05    0.000000e+00
-9.232659e-19    -8.967401e-05    0.000000e+00
4.147107e-06    -8.968192e-05    0.000000e+00
8.307807e-06    -8.970578e-05    0.000000e+00
1.249537e-05    -8.974594e-05    0.000000e+00
1.672261e-05    -8.980269e-05    0.000000e+00
2.100210e-05    -8.987603e-05    0.000000e+00
-2.117912e-05    -9.420439e-05    0.000000e+00
-1.686399e-05    -9.414142e-05    0.000000e+00
-1.260070e-05    -9.409307e-05    0.000000e+00
-8.377428e-06    -9.405931e-05    0.000000e+00
-4.181679e-06    -9.403948e-05    0.000000e+00
-9.554532e-19    -9.403296e-05    0.000000e+00
4.181679e-06    -9.403948e-05    0.000000e+00
8.377428e-06    -9.405931e-05    0.000000e+00
1.260070e-05    -9.409307e-05    0.000000e+00
1.686399e-05    -9.414142e-05    0.000000e+00
2.117912e-05    -9.420439e-05    0.000000e+00
-2.132994e-05    -9.856523e-05    0.000000e+00
-1.698387e-05    -9.851248e-05    0.000000e+00
-1.268909e-05    -9.847276e-05    0.000000e+00
-8.435205e-06    -9.844575e-05    0.000000e+00
-4.210141e-06    -9.843026e-05    0.000000e+00
-1.006275e-18    -9.842523e-05    0.000000e+00
4.210141e-06    -9.843026e-05    0.000000e+00
8.435205e-06    -9.844575e-05    0.000000e+00
1.268909e-05    -9.847276e-05    0.000000e+00
1.698387e-05    -9.851248e-05    0.000000e+00
2.132994e-05    -9.856523e-05    0.000000e+00
-2.145562e-05    -1.029537e-04    0.000000e+00
-1.708235e-05    -1.029109e-04    0.000000e+00
-1.275997e-05    -1.028800e-04    0.000000e+00
-8.480517e-06    -1.028600e-04    0.000000e+00
-4.232143e-06    -1.028489e-04    0.000000e+00
-1.049474e-18    -1.028454e-04    0.000000e+00
4.232143e-06    -1.028489e-04    0.000000e+00
8.480517e-06    -1.028600e-04    0.000000e+00
1.275997e-05    -1.028800e-04    0.000000e+00
1.708235e-05    -1.029109e-04    0.000000e+00
2.145562e-05    -1.029537e-04    0.000000e+00
-2.155817e-05    -1.073660e-04    0.000000e+00
-1.715935e-05    -1.073327e-04    0.000000e+00
-1.281258e-05    -1.073105e-04    0.000000e+00
-8.512904e-06    -1.072970e-04    0.000000e+00
-4.247579e-06    -1.072895e-04    0.000000e+00
-9.897580e-19    -1.072870e-04    0.000000e+00
4.247579e-06    -1.072895e-04    0.000000e+00
8.512904e-06    -1.072970e-04    0.000000e+00
1.281258e-05    -1.073105e-04    0.000000e+00
1.715935e-05    -1.073327e-04    0.000000e+00
2.155817e-05    -1.073660e-04    0.000000e+00
-2.164067e-05    -1.118022e-04    0.000000e+00
-1.721429e-05    -1.117772e-04    0.000000e+00
-1.284670e-05    -1.117621e-04    0.000000e+00
-8.533270e-06    -1.117511e-04    0.000000e+00
-4.257281e-06    -1.117436e-04    0.000000e+00
-9.029371e-19    -1.117409e-04    0.000000e+00
4.257281e-06    -1.117436e-04    0.000000e+00
8.533270e-06    -1.117511e-04    0.000000e+00
1.284670e-05    -1.117621e-04    0.000000e+00
1.721429e-05    -1.117772e-04    0.000000e+00
2.164067e-05    -1.118022e-04    0.000000e+00
-2.170513e-05    -1.162704e-04    0.000000e+00
-1.724615e-05    -1.162523e-04    0.000000e+00
-1.286626e-05    -1.162338e-04    0.000000e+00
-8.546206e-06    -1.162132e-04    0.000000e+00
-4.263865e-06    -1.161978e-04    0.000000e+00
-8.809143e-19    -1.161922e-04    0.000000e+00
4.263865e-06    -1.161978e-04    0.000000e+00
8.546206e-06    -1.162132e-04    0.000000e+00
1.286626e-05    -1.162338e-04    0.000000e+00
1.724615e-05    -1.162523e-04    0.000000e+00
2.170513e-05    -1.162704e-04    0.000000e+00
-2.173924e-05    -1.208105e-04    0.000000e+00
-1.726634e-05    -1.207758e-04    0.000000e+00
-1.288608e-05    -1.207173e-04    0.000000e+00
-8.561321e-06    -1.206645e-04    0.000000e+00
-4.272039e-06    -1.206293e-04    0.000000e+00
-8.703264e-19    -1.206170e-04    0.000000e+00
4.272039e-06    -1.206293e-04    0.000000e+00
8.561321e-06    -1.206645e-04    0.000000e+00
1.288608e-05    -1.207173e-04    0.000000e+00
1.726634e-05    -1.207758e-04    0.000000e+00
2.173924e-05    -1.208105e-04    0.000000e+00

CELL_DATA      400
TENSORS Element_Stress9.400000e-01 double
1.820598e+06 2.551812e+05        0
2.551812e+05 4.163488e+05        0
       0        0        0

1.243720e+06 1.308538e+05        0
1.308538e+05 3.566178e+05        0
       0        0        0

8.651185e+05 4.301032e+04        0
4.301032e+04 2.749959e+05        0
       0        0        0

5.100063e+05 -3.578363e+03        0
-3.578363e+03 1.690094e+05        0
       0        0        0

1.688541e+05 -2.488323e+04        0
-2.488323e+04 5.694968e+04        0
       0        0        0

-1.688184e+05 -2.487711e+04        0
-2.487711e+04 -5.695775e+04        0
       0        0        0

-5.095306e+05 -3.579112e+03        0
-3.579112e+03 -1.688447e+05        0
       0        0        0

-8.637077e+05 4.293851e+04        0
4.293851e+04 -2.744671e+05        0
       0        0        0

-1.240734e+06 1.305652e+05        0
1.305652e+05 -3.554740e+05        0
       0        0        0

-1.814375e+06 2.543707e+05        0
2.543707e+05 -4.141970e+05        0
       0        0        0

1.642070e+06 4.159748e+04        0
4.159748e+04 4.234799e+03        0
       0        0        0

1.322354e+06 1.206454e+05        0
1.206454e+05 1.286843e+05        0
       0        0        0

9.082521e+05 9.900755e+04        0
9.900755e+04 1.315191e+05        0
       0        0        0

5.364025e+05 7.580678e+04        0
7.580678e+04 9.193311e+04        0
       0        0        0

1.768172e+05 6.321707e+04        0
6.321707e+04 3.207757e+04        0
       0        0        0

-1.778550e+05 6.319873e+04        0
6.319873e+04 -3.316896e+04        0
       0        0        0

-5.369363e+05 7.574133e+04        0
7.574133e+04 -9.284490e+04        0
       0        0        0

-9.077061e+05 9.886737e+04        0
9.886737e+04 -1.320379e+05        0
       0        0        0

-1.319830e+06 1.204079e+05        0
1.204079e+05 -1.284324e+05        0
       0        0        0

-1.637466e+06 4.151082e+04        0
4.151082e+04 -3.136555e+03        0
       0        0        0

1.584953e+06 1.541639e+04        0
1.541639e+04 6.615316e+03        0
       0        0        0

1.271591e+06 6.833109e+04        0
6.833109e+04 1.757728e+04        0
       0        0        0

9.146413e+05 1.015639e+05        0
1.015639e+05 4.237686e+04        0
       0        0        0

5.430826e+05 1.074765e+05        0
1.074765e+05 3.592346e+04        0
       0        0        0

1.791459e+05 1.074054e+05        0
1.074054e+05 1.272037e+04        0
       0        0        0

-1.824790e+05 1.073775e+05        0
1.073775e+05 -1.611190e+04        0
       0        0        0

-5.458838e+05 1.073933e+05        0
1.073933e+05 -3.912503e+04        0
       0        0        0

-9.163117e+05 1.014348e+05        0
1.014348e+05 -4.515293e+04        0
       0        0        0

-1.271565e+06 6.821622e+04        0
6.821622e+04 -1.966893e+04        0
       0        0        0

-1.582978e+06 1.538448e+04        0
1.538448e+04 -7.911807e+03        0
       0        0        0

1.546129e+06 1.427370e+04        0
1.427370e+04 -3.975752e+03        0
       0        0        0

1.226683e+06 5.548208e+04        0
5.548208e+04 -1.953361e+03        0
       0        0        0

8.865538e+05 9.245024e+04        0
9.245024e+04 2.933168e+03        0
       0        0        0

5.331314e+05 1.146030e+05        0
1.146030e+05 5.877770e+03        0
       0        0        0

1.753740e+05 1.233579e+05        0
1.233579e+05 6.880625e+02        0
       0        0        0

-1.820438e+05 1.233283e+05        0
1.233283e+05 -7.415933e+03        0
       0        0        0

-5.392752e+05 1.145213e+05        0
1.145213e+05 -1.241206e+04        0
       0        0        0

-8.916350e+05 9.234262e+04        0
9.234262e+04 -9.058365e+03        0
       0        0        0

-1.230189e+06 5.539388e+04        0
5.539388e+04 -3.528931e+03        0
       0        0        0

-1.547532e+06 1.424568e+04        0
1.424568e+04 -5.504384e+02        0
       0        0        0

1.509427e+06 1.713063e+04        0
1.713063e+04 -5.567249e+03        0
       0        0        0

1.185340e+06 5.448733e+04        0
5.448733e+04 -8.577651e+03        0
       0        0        0

8.541561e+05 8.905469e+04        0
8.905469e+04 -8.329305e+03        0
       0        0        0

5.137340e+05 1.136408e+05        0
1.136408e+05 -6.745280e+03        0
       0        0        0

1.681056e+05 1.258450e+05        0
1.258450e+05 -5.639044e+03        0
       0        0        0

-1.789903e+05 1.258166e+05        0
1.258166e+05 -5.300819e+03        0
       0        0        0

-5.241237e+05 1.135646e+05        0
1.135646e+05 -4.010288e+03        0
       0        0        0

-8.635542e+05 8.895612e+04        0
8.895612e+04 -2.042812e+03        0
       0        0        0

-1.193244e+06 5.440409e+04        0
5.440409e+04 -1.179541e+03        0
       0        0        0

-1.515273e+06 1.709766e+04        0
1.709766e+04 -3.264824e+03        0
       0        0        0

1.469671e+06 1.958963e+04        0
1.958963e+04 -7.911531e+03        0
       0        0        0

1.147077e+06 5.644559e+04        0
5.644559e+04 -1.054799e+04        0
       0        0        0

8.224151e+05 8.838594e+04        0
8.838594e+04 -1.192774e+04        0
       0        0        0

4.928620e+05 1.117722e+05        0
1.117722e+05 -1.113898e+04        0
       0        0        0

1.594065e+05 1.239614e+05        0
1.239614e+05 -9.157848e+03        0
       0        0        0

-1.752704e+05 1.239347e+05        0
1.239347e+05 -6.757342e+03        0
       0        0        0

-5.082716e+05 1.117003e+05        0
1.117003e+05 -4.611022e+03        0
       0        0        0

-8.369138e+05 8.829171e+04        0
8.829171e+04 -3.479956e+03        0
       0        0        0

-1.160194e+06 5.636191e+04        0
5.636191e+04 -4.312364e+03        0
       0        0        0

-1.480879e+06 1.955284e+04        0
1.955284e+04 -6.139554e+03        0
       0        0        0

1.427069e+06 2.114429e+04        0
2.114429e+04 -1.052964e+04        0
       0        0        0

1.109854e+06 5.834958e+04        0
5.834958e+04 -1.236661e+04        0
       0        0        0

7.924051e+05 8.864128e+04        0
8.864128e+04 -1.362108e+04        0
       0        0        0

4.726277e+05 1.103428e+05        0
1.103428e+05 -1.337050e+04        0
       0        0        0

1.506199e+05 1.216735e+05        0
1.216735e+05 -1.181697e+04        0
       0        0        0

-1.721469e+05 1.216483e+05        0
1.216483e+05 -9.757740e+03        0
       0        0        0

-4.937482e+05 1.102742e+05        0
1.102742e+05 -8.067258e+03        0
       0        0        0

-8.127094e+05 8.854973e+04        0
8.854973e+04 -7.533908e+03        0
       0        0        0

-1.128918e+06 5.826553e+04        0
5.826553e+04 -8.339735e+03        0
       0        0        0

-1.444434e+06 2.110561e+04        0
2.110561e+04 -9.528609e+03        0
       0        0        0

1.382471e+06 2.200181e+04        0
2.200181e+04 -1.363722e+04        0
       0        0        0

1.072891e+06 5.961398e+04        0
5.961398e+04 -1.472183e+04        0
       0        0        0

7.635785e+05 8.901007e+04        0
8.901007e+04 -1.557414e+04        0
       0        0        0

4.533125e+05 1.094858e+05        0
1.094858e+05 -1.552412e+04        0
       0        0        0

1.419522e+05 1.200358e+05        0
1.200358e+05 -1.458784e+04        0
       0        0        0

-1.697603e+05 1.200117e+05        0
1.200117e+05 -1.326479e+04        0
       0        0        0

-4.807667e+05 1.094198e+05        0
1.094198e+05 -1.222641e+04        0
       0        0        0

-7.903212e+05 8.892090e+04        0
8.892090e+04 -1.196593e+04        0
       0        0        0

-1.098554e+06 5.953060e+04        0
5.953060e+04 -1.248635e+04        0
       0        0        0

-1.406666e+06 2.196271e+04        0
2.196271e+04 -1.309846e+04        0
       0        0        0

1.336650e+06 2.243103e+04        0
2.243103e+04 -1.712975e+04        0
       0        0        0

1.035846e+06 6.032508e+04        0
6.032508e+04 -1.770734e+04        0
       0        0        0

7.353690e+05 8.928001e+04        0
8.928001e+04 -1.819357e+04        0
       0        0        0

4.345842e+05 1.090314e+05        0
1.090314e+05 -1.820574e+04        0
       0        0        0

1.333510e+05 1.190751e+05        0
1.190751e+05 -1.770719e+04        0
       0        0        0

-1.679948e+05 1.190519e+05        0
1.190519e+05 -1.697818e+04        0
       0        0        0

-4.689286e+05 1.089678e+05        0
1.089678e+05 -1.641605e+04        0
       0        0        0

-7.691116e+05 8.919329e+04        0
8.919329e+04 -1.629667e+04        0
       0        0        0

-1.068676e+06 6.024325e+04        0
6.024325e+04 -1.657480e+04        0
       0        0        0

-1.368246e+06 2.239236e+04        0
2.239236e+04 -1.685617e+04        0
       0        0        0

1.290108e+06 2.262769e+04        0
2.262769e+04 -2.093370e+04        0
       0        0        0

9.986145e+05 6.068320e+04        0
6.068320e+04 -2.119241e+04        0
       0        0        0

7.073840e+05 8.943847e+04        0
8.943847e+04 -2.142407e+04        0
       0        0        0

4.161153e+05 1.088122e+05        0
1.088122e+05 -2.143279e+04        0
       0        0        0

1.247137e+05 1.185759e+05        0
1.185759e+05 -2.118594e+04        0
       0        0        0

-1.666835e+05 1.185536e+05        0
1.185536e+05 -2.082274e+04        0
       0        0        0

-4.578408e+05 1.087507e+05        0
1.087507e+05 -2.055219e+04        0
       0        0        0

-7.486181e+05 8.935433e+04        0
8.935433e+04 -2.051028e+04        0
       0        0        0

-1.039104e+06 6.060345e+04        0
6.060345e+04 -2.065826e+04        0
       0        0        0

-1.329592e+06 2.258991e+04        0
2.258991e+04 -2.079207e+04        0
       0        0        0

1.243138e+06 2.270943e+04        0
2.270943e+04 -2.498210e+04        0
       0        0        0

9.611829e+05 6.084707e+04        0
6.084707e+04 -2.504187e+04        0
       0        0        0

6.794119e+05 8.952007e+04        0
8.952007e+04 -2.510676e+04        0
       0        0        0

3.976942e+05 1.087151e+05        0
1.087151e+05 -2.508705e+04        0
       0        0        0

1.159751e+05 1.183403e+05        0
1.183403e+05 -2.496213e+04        0
       0        0        0

-1.656966e+05 1.183187e+05        0
1.183187e+05 -2.479576e+04        0
       0        0        0

-4.472257e+05 1.086557e+05        0
1.086557e+05 -2.468699e+04        0
       0        0        0

-7.285608e+05 8.943859e+04        0
8.943859e+04 -2.469694e+04        0
       0        0        0

-1.009752e+06 6.076971e+04        0
6.076971e+04 -2.480000e+04        0
       0        0        0

-1.290922e+06 2.267274e+04        0
2.267274e+04 -2.489961e+04        0
       0        0        0

1.195902e+06 2.273919e+04        0
2.273919e+04 -2.922324e+04        0
       0        0        0

9.235708e+05 6.091458e+04        0
6.091458e+04 -2.915047e+04        0
       0        0        0

6.513590e+05 8.955767e+04        0
8.955767e+04 -2.910387e+04        0
       0        0        0

3.792147e+05 1.086759e+05        0
1.086759e+05 -2.904718e+04        0
       0        0        0

1.071092e+05 1.182389e+05        0
1.182389e+05 -2.896999e+04        0
       0        0        0

-1.649443e+05 1.182180e+05        0
1.182180e+05 -2.889900e+04        0
       0        0        0

-4.369126e+05 1.086185e+05        0
1.086185e+05 -2.887696e+04        0
       0        0        0

-7.087800e+05 8.947891e+04        0
8.947891e+04 -2.892824e+04        0
       0        0        0

-9.805709e+05 6.083975e+04        0
6.083975e+04 -2.903784e+04        0
       0        0        0

-1.252330e+06 2.270369e+04        0
2.270369e+04 -2.916302e+04        0
       0        0        0

1.148491e+06 2.274763e+04        0
2.274763e+04 -3.361527e+04        0
       0        0        0

8.858087e+05 6.093851e+04        0
6.093851e+04 -3.344415e+04        0
       0        0        0

6.231974e+05 8.957284e+04        0
8.957284e+04 -3.331675e+04        0
       0        0        0

3.606384e+05 1.086618e+05        0
1.086618e+05 -3.322145e+04        0
       0        0        0

9.811734e+04 1.181997e+05        0
1.181997e+05 -3.315416e+04        0
       0        0        0

-1.643651e+05 1.181796e+05        0
1.181796e+05 -3.312513e+04        0
       0        0        0

-4.268000e+05 1.086064e+05        0
1.086064e+05 -3.315081e+04        0
       0        0        0

-6.891844e+05 8.949683e+04        0
8.949683e+04 -3.323922e+04        0
       0        0        0

-9.515284e+05 6.086627e+04        0
6.086627e+04 -3.338182e+04        0
       0        0        0

-1.213844e+06 2.271337e+04        0
2.271337e+04 -3.356049e+04        0
       0        0        0

1.100960e+06 2.274841e+04        0
2.274841e+04 -3.812278e+04        0
       0        0        0

8.479289e+05 6.094459e+04        0
6.094459e+04 -3.787019e+04        0
       0        0        0

5.949322e+05 8.957762e+04        0
8.957762e+04 -3.767803e+04        0
       0        0        0

3.419635e+05 1.086573e+05        0
1.086573e+05 -3.754494e+04        0
       0        0        0

8.901558e+04 1.181867e+05        0
1.181867e+05 -3.747027e+04        0
       0        0        0

-1.639142e+05 1.181674e+05        0
1.181674e+05 -3.745768e+04        0
       0        0        0

-4.168253e+05 1.086039e+05        0
1.086039e+05 -3.751247e+04        0
       0        0        0

-6.697180e+05 8.950436e+04        0
8.950436e+04 -3.763608e+04        0
       0        0        0

-9.225952e+05 6.087498e+04        0
6.087498e+04 -3.782343e+04        0
       0        0        0

-1.175457e+06 2.271539e+04        0
2.271539e+04 -3.806658e+04        0
       0        0        0

1.053347e+06 2.274703e+04        0
2.274703e+04 -4.271420e+04        0
       0        0        0

8.099626e+05 6.094429e+04        0
6.094429e+04 -4.238866e+04        0
       0        0        0

5.665832e+05 8.957803e+04        0
8.957803e+04 -4.214000e+04        0
       0        0        0

3.232060e+05 1.086559e+05        0
1.086559e+05 -4.197068e+04        0
       0        0        0

7.982720e+04 1.181835e+05        0
1.181835e+05 -4.188171e+04        0
       0        0        0

-1.635563e+05 1.181649e+05        0
1.181649e+05 -4.187447e+04        0
       0        0        0

-4.069457e+05 1.086046e+05        0
1.086046e+05 -4.195008e+04        0
       0        0        0

-6.503417e+05 8.950753e+04        0
8.950753e+04 -4.210767e+04        0
       0        0        0

-8.937438e+05 6.087730e+04        0
6.087730e+04 -4.234382e+04        0
       0        0        0

-1.137148e+06 2.271526e+04        0
2.271526e+04 -4.265429e+04        0
       0        0        0

1.005683e+06 2.274539e+04        0
2.274539e+04 -4.736038e+04        0
       0        0        0

7.719394e+05 6.094219e+04        0
6.094219e+04 -4.696667e+04        0
       0        0        0

5.381756e+05 8.957681e+04        0
8.957681e+04 -4.666608e+04        0
       0        0        0

3.043894e+05 1.086553e+05        0
1.086553e+05 -4.646218e+04        0
       0        0        0

7.057816e+04 1.181832e+05        0
1.181832e+05 -4.635676e+04        0
       0        0        0

-1.632605e+05 1.181653e+05        0
1.181653e+05 -4.635058e+04        0
       0        0        0

-3.971278e+05 1.086060e+05        0
1.086060e+05 -4.644347e+04        0
       0        0        0

-6.310240e+05 8.950907e+04        0
8.950907e+04 -4.663394e+04        0
       0        0        0

-8.649473e+05 6.087783e+04        0
6.087783e+04 -4.691929e+04        0
       0        0        0

-1.098893e+06 2.271487e+04        0
2.271487e+04 -4.729637e+04        0
       0        0        0

9.579955e+05 2.274400e+04        0
2.274400e+04 -5.203381e+04        0
       0        0        0

7.338873e+05 6.093989e+04        0
6.093989e+04 -5.157525e+04        0
       0        0        0

5.097360e+05 8.957508e+04        0
8.957508e+04 -5.122566e+04        0
       0        0        0

2.855393e+05 1.086546e+05        0
1.086546e+05 -5.098880e+04        0
       0        0        0

6.129495e+04 1.181835e+05        0
1.181835e+05 -5.086675e+04        0
       0        0        0

-1.629989e+05 1.181663e+05        0
1.181663e+05 -5.086025e+04        0
       0        0        0

-3.873432e+05 1.086073e+05        0
1.086073e+05 -5.096887e+04        0
       0        0        0

-6.117373e+05 8.951011e+04        0
8.951011e+04 -5.119108e+04        0
       0        0        0

-8.361791e+05 6.087815e+04        0
6.087815e+04 -5.152449e+04        0
       0        0        0

-1.060664e+06 2.271473e+04        0
2.271473e+04 -5.196605e+04        0
       0        0        0

9.103102e+05 2.274290e+04        0
2.274290e+04 -5.670829e+04        0
       0        0        0

6.958326e+05 6.093780e+04        0
6.093780e+04 -5.618768e+04        0
       0        0        0

4.812907e+05 8.957328e+04        0
8.957328e+04 -5.579141e+04        0
       0        0        0

2.666817e+05 1.086537e+05        0
1.086537e+05 -5.552312e+04        0
       0        0        0

5.200354e+04 1.181835e+05        0
1.181835e+05 -5.538500e+04        0
       0        0        0

-1.627453e+05 1.181671e+05        0
1.181671e+05 -5.537790e+04        0
       0        0        0

-3.775653e+05 1.086084e+05        0
1.086084e+05 -5.550144e+04        0
       0        0        0

-5.924555e+05 8.951107e+04        0
8.951107e+04 -5.575422e+04        0
       0        0        0

-8.074137e+05 6.087870e+04        0
6.087870e+04 -5.613390e+04        0
       0        0        0

-1.022436e+06 2.271486e+04        0
2.271486e+04 -5.663735e+04        0
       0        0        0

8.626520e+05 2.274198e+04        0
2.274198e+04 -6.135878e+04        0
       0        0        0

6.578008e+05 6.093596e+04        0
6.093596e+04 -6.077882e+04        0
       0        0        0

4.528650e+05 8.957150e+04        0
8.957150e+04 -6.033795e+04        0
       0        0        0

2.478418e+05 1.086526e+05        0
1.086526e+05 -6.003971e+04        0
       0        0        0

4.272898e+04 1.181833e+05        0
1.181833e+05 -5.988630e+04        0
       0        0        0

-1.624747e+05 1.181676e+05        0
1.181676e+05 -5.987867e+04        0
       0        0        0

-3.677693e+05 1.086093e+05        0
1.086093e+05 -6.001656e+04        0
       0        0        0

-5.731539e+05 8.951206e+04        0
8.951206e+04 -6.029866e+04        0
       0        0        0

-7.786261e+05 6.087948e+04        0
6.087948e+04 -6.072266e+04        0
       0        0        0

-9.841819e+05 2.271520e+04        0
2.271520e+04 -6.128530e+04        0
       0        0        0

8.150447e+05 2.274119e+04        0
2.274119e+04 -6.596136e+04        0
       0        0        0

6.198157e+05 6.093429e+04        0
6.093429e+04 -6.532473e+04        0
       0        0        0

4.244830e+05 8.956978e+04        0
8.956978e+04 -6.484132e+04        0
       0        0        0

2.290436e+05 1.086514e+05        0
1.086514e+05 -6.451456e+04        0
       0        0        0

3.349528e+04 1.181828e+05        0
1.181828e+05 -6.434667e+04        0
       0        0        0

-1.621631e+05 1.181678e+05        0
1.181678e+05 -6.433865e+04        0
       0        0        0

-3.579315e+05 1.086101e+05        0
1.086101e+05 -6.449035e+04        0
       0        0        0

-5.538087e+05 8.951311e+04        0
8.951311e+04 -6.480052e+04        0
       0        0        0

-7.497925e+05 6.088043e+04        0
6.088043e+04 -6.526685e+04        0
       0        0        0

-9.458791e+05 2.271565e+04        0
2.271565e+04 -6.588596e+04        0
       0        0        0

7.675109e+05 2.274046e+04        0
2.274046e+04 -7.049318e+04        0
       0        0        0

5.819002e+05 6.093273e+04        0
6.093273e+04 -6.980260e+04        0
       0        0        0

3.961677e+05 8.956811e+04        0
8.956811e+04 -6.927870e+04        0
       0        0        0

2.103102e+05 1.086501e+05        0
1.086501e+05 -6.892486e+04        0
       0        0        0

2.432535e+04 1.181822e+05        0
1.181822e+05 -6.874327e+04        0
       0        0        0

-1.617877e+05 1.181679e+05        0
1.181679e+05 -6.873499e+04        0
       0        0        0

-3.480290e+05 1.086108e+05        0
1.086108e+05 -6.889993e+04        0
       0        0        0

-5.343973e+05 8.951420e+04        0
8.951420e+04 -6.923690e+04        0
       0        0        0

-7.208901e+05 6.088150e+04        0
6.088150e+04 -6.974356e+04        0
       0        0        0

-9.075041e+05 2.271617e+04        0
2.271617e+04 -7.041649e+04        0
       0        0        0

7.200723e+05 2.273978e+04        0
2.273978e+04 -7.493249e+04        0
       0        0        0

5.440762e+05 6.093125e+04        0
6.093125e+04 -7.419071e+04        0
       0        0        0

3.679410e+05 8.956648e+04        0
8.956648e+04 -7.362841e+04        0
       0        0        0

1.916633e+05 1.086488e+05        0
1.086488e+05 -7.324889e+04        0
       0        0        0

1.524098e+04 1.181815e+05        0
1.181815e+05 -7.305436e+04        0
       0        0        0

-1.613270e+05 1.181679e+05        0
1.181679e+05 -7.304590e+04        0
       0        0        0

-3.380404e+05 1.086115e+05        0
1.086115e+05 -7.322349e+04        0
       0        0        0

-5.148979e+05 8.951533e+04        0
8.951533e+04 -7.358598e+04        0
       0        0        0

-6.918973e+05 6.088265e+04        0
6.088265e+04 -7.413101e+04        0
       0        0        0

-8.690350e+05 2.271673e+04        0
2.271673e+04 -7.485511e+04        0
       0        0        0

6.727496e+05 2.273915e+04        0
2.273915e+04 -7.925863e+04        0
       0        0        0

5.063643e+05 6.092987e+04        0
6.092987e+04 -7.846843e+04        0
       0        0        0

3.398235e+05 8.956489e+04        0
8.956489e+04 -7.786983e+04        0
       0        0        0

1.731238e+05 1.086474e+05        0
1.086474e+05 -7.746605e+04        0
       0        0        0

6.262879e+03 1.181806e+05        0
1.181806e+05 -7.725929e+04        0
       0        0        0

-1.607601e+05 1.181679e+05        0
1.181679e+05 -7.725069e+04        0
       0        0        0

-3.279448e+05 1.086121e+05        0
1.086121e+05 -7.744030e+04        0
       0        0        0

-4.952900e+05 8.951651e+04        0
8.951651e+04 -7.782701e+04        0
       0        0        0

-6.627933e+05 6.088389e+04        0
6.088389e+04 -7.840849e+04        0
       0        0        0

-8.304513e+05 2.271735e+04        0
2.271735e+04 -7.918115e+04        0
       0        0        0

6.255623e+05 2.273859e+04        0
2.273859e+04 -8.345202e+04        0
       0        0        0

4.687842e+05 6.092860e+04        0
6.092860e+04 -8.261621e+04        0
       0        0        0

3.118350e+05 8.956335e+04        0
8.956335e+04 -8.198342e+04        0
       0        0        0

1.547113e+05 1.086460e+05        0
1.086460e+05 -8.155678e+04        0
       0        0        0

-2.589332e+03 1.181797e+05        0
1.181797e+05 -8.133849e+04        0
       0        0        0

-1.600676e+05 1.181676e+05        0
1.181676e+05 -8.132976e+04        0
       0        0        0

-3.177230e+05 1.086127e+05        0
1.086127e+05 -8.153073e+04        0
       0        0        0

-4.755540e+05 8.951773e+04        0
8.951773e+04 -8.194037e+04        0
       0        0        0

-6.335585e+05 6.088526e+04        0
6.088526e+04 -8.255636e+04        0
       0        0        0

-7.917331e+05 2.271804e+04        0
2.271804e+04 -8.337502e+04        0
       0        0        0

5.785286e+05 2.273817e+04        0
2.273817e+04 -8.749418e+04        0
       0        0        0

4.313542e+05 6.092752e+04        0
6.092752e+04 -8.661559e+04        0
       0        0        0

2.839942e+05 8.956185e+04        0
8.956185e+04 -8.595072e+04        0
       0        0        0

1.364444e+05 1.086444e+05        0
1.086444e+05 -8.550260e+04        0
       0        0        0

-1.129712e+04 1.181785e+05        0
1.181785e+05 -8.527347e+04        0
       0        0        0

-1.592310e+05 1.181672e+05        0
1.181672e+05 -8.526462e+04        0
       0        0        0

-3.073564e+05 1.086132e+05        0
1.086132e+05 -8.547630e+04        0
       0        0        0

-4.556717e+05 8.951900e+04        0
8.951900e+04 -8.590754e+04        0
       0        0        0

-6.041745e+05 6.088680e+04        0
6.088680e+04 -8.655609e+04        0
       0        0        0

-7.528619e+05 2.271886e+04        0
2.271886e+04 -8.741819e+04        0
       0        0        0

5.316658e+05 2.273795e+04        0
2.273795e+04 -9.136769e+04        0
       0        0        0

3.940921e+05 6.092663e+04        0
6.092663e+04 -9.044910e+04        0
       0        0        0

2.563184e+05 8.956035e+04        0
8.956035e+04 -8.975416e+04        0
       0        0        0

1.183407e+05 1.086427e+05        0
1.086427e+05 -8.928591e+04        0
       0        0        0

-1.984304e+04 1.181771e+05        0
1.181771e+05 -8.904673e+04        0
       0        0        0

-1.582329e+05 1.181665e+05        0
1.181665e+05 -8.903797e+04        0
       0        0        0

-2.968278e+05 1.086135e+05        0
1.086135e+05 -8.925978e+04        0
       0        0        0

-4.356257e+05 8.952026e+04        0
8.952026e+04 -8.971126e+04        0
       0        0        0

-5.746240e+05 6.088854e+04        0
6.088854e+04 -9.039032e+04        0
       0        0        0

-7.138200e+05 2.271989e+04        0
2.271989e+04 -9.129325e+04        0
       0        0        0

4.849900e+05 2.273796e+04        0
2.273796e+04 -9.505616e+04        0
       0        0        0

3.570143e+05 6.092577e+04        0
6.092577e+04 -9.410011e+04        0
       0        0        0

2.288244e+05 8.955862e+04        0
8.955862e+04 -9.337680e+04        0
       0        0        0

1.004164e+05 1.086409e+05        0
1.086409e+05 -9.288973e+04        0
       0        0        0

-2.821084e+04 1.181759e+05        0
1.181759e+05 -9.264170e+04        0
       0        0        0

-1.570570e+05 1.181660e+05        0
1.181660e+05 -9.263378e+04        0
       0        0        0

-2.861209e+05 1.086137e+05        0
1.086137e+05 -9.286554e+04        0
       0        0        0

-4.153999e+05 8.952130e+04        0
8.952130e+04 -9.333582e+04        0
       0        0        0

-5.448908e+05 6.089031e+04        0
6.089031e+04 -9.404299e+04        0
       0        0        0

-6.745908e+05 2.272114e+04        0
2.272114e+04 -9.498387e+04        0
       0        0        0

4.385165e+05 2.273798e+04        0
2.273798e+04 -9.854412e+04        0
       0        0        0

3.201365e+05 6.092413e+04        0
6.092413e+04 -9.755241e+04        0
       0        0        0

2.015270e+05 8.955604e+04        0
8.955604e+04 -9.680154e+04        0
       0        0        0

8.268605e+04 1.086393e+05        0
1.086393e+05 -9.629692e+04        0
       0        0        0

-3.638570e+04 1.181760e+05        0
1.181760e+05 -9.604233e+04        0
       0        0        0

-1.556878e+05 1.181669e+05        0
1.181669e+05 -9.603768e+04        0
       0        0        0

-2.752197e+05 1.086142e+05        0
1.086142e+05 -9.628030e+04        0
       0        0        0

-3.949789e+05 8.952148e+04        0
8.952148e+04 -9.676788e+04        0
       0        0        0

-5.149601e+05 6.089129e+04        0
6.089129e+04 -9.749979e+04        0
       0        0        0

-6.351590e+05 2.272241e+04        0
2.272241e+04 -9.847493e+04        0
       0        0        0

3.922608e+05 2.273705e+04        0
2.273705e+04 -1.018168e+05        0
       0        0        0

2.834737e+05 6.091918e+04        0
6.091918e+04 -1.007892e+05        0
       0        0        0

1.744389e+05 8.955103e+04        0
8.955103e+04 -1.000095e+05        0
       0        0        0

6.516112e+04 1.086394e+05        0
1.086394e+05 -9.948864e+04        0
       0        0        0

-4.435479e+04 1.181814e+05        0
1.181814e+05 -9.923256e+04        0
       0        0        0

-1.541098e+05 1.181730e+05        0
1.181730e+05 -9.923756e+04        0
       0        0        0

-2.641076e+05 1.086162e+05        0
1.086162e+05 -9.949471e+04        0
       0        0        0

-3.743470e+05 8.951924e+04        0
8.951924e+04 -9.999807e+04        0
       0        0        0

-4.848186e+05 6.088897e+04        0
6.088897e+04 -1.007491e+05        0
       0        0        0

-5.955116e+05 2.272272e+04        0
2.272272e+04 -1.017526e+05        0
       0        0        0

3.462408e+05 2.273213e+04        0
2.273213e+04 -1.048596e+05        0
       0        0        0

2.470402e+05 6.090435e+04        0
6.090435e+04 -1.037913e+05        0
       0        0        0

1.475679e+05 8.953998e+04        0
8.953998e+04 -1.029768e+05        0
       0        0        0

4.784706e+04 1.086446e+05        0
1.086446e+05 -1.024414e+05        0
       0        0        0

-5.210859e+04 1.182015e+05        0
1.182015e+05 -1.021950e+05        0
       0        0        0

-1.523066e+05 1.181938e+05        0
1.181938e+05 -1.022248e+05        0
       0        0        0

-2.527641e+05 1.086235e+05        0
1.086235e+05 -1.025064e+05        0
       0        0        0

-3.534861e+05 8.951095e+04        0
8.951095e+04 -1.030243e+05        0
       0        0        0

-4.544544e+05 6.087677e+04        0
6.087677e+04 -1.037842e+05        0
       0        0        0

-5.556397e+05 2.271905e+04        0
2.271905e+04 -1.048050e+05        0
       0        0        0

3.004822e+05 2.271539e+04        0
2.271539e+04 -1.076574e+05        0
       0        0        0

2.108493e+05 6.086437e+04        0
6.086437e+04 -1.065333e+05        0
       0        0        0

1.209111e+05 8.951546e+04        0
8.951546e+04 -1.056691e+05        0
       0        0        0

3.073692e+04 1.086641e+05        0
1.086641e+05 -1.051219e+05        0
       0        0        0

-5.964355e+04 1.182578e+05        0
1.182578e+05 -1.049091e+05        0
       0        0        0

-1.502580e+05 1.182508e+05        0
1.182508e+05 -1.049962e+05        0
       0        0        0

-2.411586e+05 1.086450e+05        0
1.086450e+05 -1.053249e+05        0
       0        0        0

-3.323700e+05 8.948920e+04        0
8.948920e+04 -1.058577e+05        0
       0        0        0

-4.238570e+05 6.083943e+04        0
6.083943e+04 -1.066065e+05        0
       0        0        0

-5.155448e+05 2.270357e+04        0
2.270357e+04 -1.076228e+05        0
       0        0        0

2.550302e+05 2.266861e+04        0
2.266861e+04 -1.101928e+05        0
       0        0        0

1.749112e+05 6.076689e+04        0
6.076689e+04 -1.089786e+05        0
       0        0        0

9.444394e+04 8.946363e+04        0
8.946363e+04 -1.080332e+05        0
       0        0        0

1.379929e+04 1.087177e+05        0
1.087177e+05 -1.074804e+05        0
       0        0        0

-6.696699e+04 1.183950e+05        0
1.183950e+05 -1.073481e+05        0
       0        0        0

-1.479345e+05 1.183887e+05        0
1.183887e+05 -1.075565e+05        0
       0        0        0

-2.292386e+05 1.087005e+05        0
1.087005e+05 -1.079789e+05        0
       0        0        0

-3.109536e+05 8.944014e+04        0
8.944014e+04 -1.085307e+05        0
       0        0        0

-3.930164e+05 6.074460e+04        0
6.074460e+04 -1.092323e+05        0
       0        0        0

-4.752498e+05 2.265805e+04        0
2.265805e+04 -1.102010e+05        0
       0        0        0

2.099707e+05 2.255312e+04        0
2.255312e+04 -1.124452e+05        0
       0        0        0

1.392276e+05 6.054966e+04        0
6.054966e+04 -1.110720e+05        0
       0        0        0

6.809783e+04 8.936201e+04        0
8.936201e+04 -1.099896e+05        0
       0        0        0

-3.042201e+03 1.088455e+05        0
1.088455e+05 -1.094456e+05        0
       0        0        0

-7.410476e+04 1.186961e+05        0
1.186961e+05 -1.094775e+05        0
       0        0        0

-1.452897e+05 1.186906e+05        0
1.186906e+05 -1.099193e+05        0
       0        0        0

-2.169085e+05 1.088304e+05        0
1.088304e+05 -1.105207e+05        0
       0        0        0

-2.891518e+05 8.934130e+04        0
8.934130e+04 -1.111065e+05        0
       0        0        0

-3.619182e+05 6.053005e+04        0
6.053005e+04 -1.117009e+05        0
       0        0        0

-4.348222e+05 2.254384e+04        0
2.254384e+04 -1.125421e+05        0
       0        0        0

1.654676e+05 2.229389e+04        0
2.229389e+04 -1.143894e+05        0
       0        0        0

1.037757e+05 6.010633e+04        0
6.010633e+04 -1.127378e+05        0
       0        0        0

4.172434e+04 8.918285e+04        0
8.918285e+04 -1.114369e+05        0
       0        0        0

-1.993674e+04 1.091211e+05        0
1.091211e+05 -1.109352e+05        0
       0        0        0

-8.111029e+04 1.192969e+05        0
1.192969e+05 -1.112604e+05        0
       0        0        0

-1.422485e+05 1.192922e+05        0
1.192922e+05 -1.121001e+05        0
       0        0        0

-2.040019e+05 1.091080e+05        0
1.091080e+05 -1.130150e+05        0
       0        0        0

-2.668047e+05 8.916493e+04        0
8.916493e+04 -1.136749e+05        0
       0        0        0

-3.305323e+05 6.008944e+04        0
6.008944e+04 -1.140806e+05        0
       0        0        0

-3.944153e+05 2.228592e+04        0
2.228592e+04 -1.146607e+05        0
       0        0        0

1.218143e+05 2.175987e+04        0
2.175987e+04 -1.160001e+05        0
       0        0        0

6.846991e+04 5.928775e+04        0
5.928775e+04 -1.139016e+05        0
       0        0        0

1.504776e+04 8.891653e+04        0
8.891653e+04 -1.123083e+05        0
       0        0        0

-3.712658e+04 1.096611e+05        0
1.096611e+05 -1.119237e+05        0
       0        0        0

-8.806576e+04 1.203706e+05        0
1.203706e+05 -1.126850e+05        0
       0        0        0

-1.387020e+05 1.203666e+05        0
1.203666e+05 -1.140839e+05        0
       0        0        0

-1.902583e+05 1.096500e+05        0
1.096500e+05 -1.154691e+05        0
       0        0        0

-2.436324e+05 8.890144e+04        0
8.890144e+04 -1.162985e+05        0
       0        0        0

-2.987810e+05 5.927361e+04        0
5.927361e+04 -1.164537e+05        0
       0        0        0

-3.543298e+05 2.175326e+04        0
2.175326e+04 -1.165894e+05        0
       0        0        0

7.947515e+04 2.075678e+04        0
2.075678e+04 -1.172821e+05        0
       0        0        0

3.307865e+04 5.797447e+04        0
5.797447e+04 -1.145899e+05        0
       0        0        0

-1.236393e+04 8.865059e+04        0
8.865059e+04 -1.127886e+05        0
       0        0        0

-5.490063e+04 1.106013e+05        0
1.106013e+05 -1.126577e+05        0
       0        0        0

-9.504947e+04 1.220074e+05        0
1.220074e+05 -1.138552e+05        0
       0        0        0

-1.345317e+05 1.220041e+05        0
1.220041e+05 -1.157267e+05        0
       0        0        0

-1.753639e+05 1.105923e+05        0
1.105923e+05 -1.176118e+05        0
       0        0        0

-2.192067e+05 8.863840e+04        0
8.863840e+04 -1.187962e+05        0
       0        0        0

-2.664683e+05 5.796312e+04        0
5.796312e+04 -1.188293e+05        0
       0        0        0

-3.150782e+05 2.075156e+04        0
2.075156e+04 -1.183719e+05        0
       0        0        0

3.901604e+04 1.910250e+04        0
1.910250e+04 -1.183311e+05        0
       0        0        0

-2.945801e+03 5.638064e+04        0
5.638064e+04 -1.153385e+05        0
       0        0        0

-4.097162e+04 8.874194e+04        0
8.874194e+04 -1.139163e+05        0
       0        0        0

-7.334316e+04 1.119428e+05        0
1.119428e+05 -1.141993e+05        0
       0        0        0

-1.020044e+05 1.238170e+05        0
1.238170e+05 -1.151847e+05        0
       0        0        0

-1.297257e+05 1.238146e+05        0
1.238146e+05 -1.165458e+05        0
       0        0        0

-1.591896e+05 1.119363e+05        0
1.119363e+05 -1.183359e+05        0
       0        0        0

-1.930733e+05 8.873286e+04        0
8.873286e+04 -1.201362e+05        0
       0        0        0

-2.331278e+05 5.637209e+04        0
5.637209e+04 -1.207525e+05        0
       0        0        0

-2.773664e+05 1.909865e+04        0
1.909865e+04 -1.200521e+05        0
       0        0        0

5.231885e+02 1.710271e+04        0
1.710271e+04 -1.199683e+05        0
       0        0        0

-4.055900e+04 5.592265e+04        0
5.592265e+04 -1.183223e+05        0
       0        0        0

-7.064224e+04 9.001307e+04        0
9.001307e+04 -1.192608e+05        0
       0        0        0

-9.160225e+04 1.128998e+05        0
1.128998e+05 -1.193451e+05        0
       0        0        0

-1.084793e+05 1.240404e+05        0
1.240404e+05 -1.176209e+05        0
       0        0        0

-1.246149e+05 1.240392e+05        0
1.240392e+05 -1.154734e+05        0
       0        0        0

-1.424954e+05 1.128964e+05        0
1.128964e+05 -1.147534e+05        0
       0        0        0

-1.653497e+05 9.000769e+04        0
9.000769e+04 -1.167341e+05        0
       0        0        0

-1.979384e+05 5.591692e+04        0
5.591692e+04 -1.201833e+05        0
       0        0        0

-2.416132e+05 1.710010e+04        0
1.710010e+04 -1.211410e+05        0
       0        0        0

-3.838756e+04 1.780089e+04        0
1.780089e+04 -1.241547e+05        0
       0        0        0

-8.056431e+04 6.133461e+04        0
6.133461e+04 -1.329179e+05        0
       0        0        0

-9.823377e+04 9.241439e+04        0
9.241439e+04 -1.376493e+05        0
       0        0        0

-1.069299e+05 1.101518e+05        0
1.101518e+05 -1.330247e+05        0
       0        0        0

-1.134903e+05 1.182691e+05        0
1.182691e+05 -1.226657e+05        0
       0        0        0

-1.199857e+05 1.182695e+05        0
1.182695e+05 -1.108102e+05        0
       0        0        0

-1.278480e+05 1.101525e+05        0
1.101525e+05 -1.017531e+05        0
       0        0        0

-1.390687e+05 9.241419e+04        0
9.241419e+04 -9.965328e+04        0
       0        0        0

-1.602170e+05 6.133242e+04        0
6.133242e+04 -1.078653e+05        0
       0        0        0

-2.060740e+05 1.779909e+04        0
1.779909e+04 -1.203165e+05        0
       0        0        0

-9.041227e+04 4.054631e+04        0
4.054631e+04 -1.562833e+05        0
       0        0        0

-1.138421e+05 7.593486e+04        0
7.593486e+04 -1.858539e+05        0
       0        0        0

-1.150718e+05 8.920336e+04        0
8.920336e+04 -1.817339e+05        0
       0        0        0

-1.153875e+05 9.571255e+04        0
9.571255e+04 -1.608397e+05        0
       0        0        0

-1.157489e+05 9.856239e+04        0
9.856239e+04 -1.317915e+05        0
       0        0        0

-1.168366e+05 9.856429e+04        0
9.856429e+04 -1.007937e+05        0
       0        0        0

-1.188659e+05 9.571771e+04        0
9.571771e+04 -7.341100e+04        0
       0        0        0

-1.225609e+05 8.921016e+04        0
8.921016e+04 -5.589328e+04        0
       0        0        0

-1.289065e+05 7.594047e+04        0
7.594047e+04 -5.688864e+04        0
       0        0        0

-1.586523e+05 4.054609e+04        0
4.054609e+04 -9.278138e+04        0
       0        0        0

POINT_DATA     451
VECTORS DISPLACEMENT_9.600000e-01 double
0.000000e+00    0.000000e+00    0.000000e+00
0.000000e+00    0.000000e+00    0.000000e+00
0.000000e+00    0.000000e+00    0.000000e+00
0.000000e+00    0.000000e+00    0.000000e+00
0.000000e+00    0.000000e+00    0.000000e+00
0.000000e+00    0.000000e+00    0.000000e+00
0.000000e+00    0.000000e+00    0.000000e+00
0.000000e+00    0.000000e+00    0.000000e+00
0.000000e+00    0.000000e+00    0.000000e+00
0.000000e+00    0.000000e+00    0.000000e+00
0.000000e+00    0.000000e+00    0.000000e+00
-1.141595e-06    -8.299605e-07    0.000000e+00
-7.233448e-07    -4.163094e-07    0.000000e+00
-5.161144e-07    -2.157261e-07    0.000000e+00
-3.332233e-07    -1.068318e-07    0.000000e+00
-1.642863e-07    -5.047426e-08    0.000000e+00
-3.475678e-20    -3.295145e-08    0.000000e+00
1.642863e-07    -5.047426e-08    0.000000e+00
3.332233e-07    -1.068318e-07    0.000000e+00
5.161144e-07    -2.157261e-07    0.000000e+00
7.233448e-07    -4.163094e-07    0.000000e+00
1.141595e-06    -8.299605e-07    0.000000e+00
-2.153941e-06    -1.380309e-06    0.000000e+00
-1.574436e-06    -9.987668e-07    0.000000e+00
-1.105093e-06    -7.015532e-07    0.000000e+00
-7.128292e-07    -5.177059e-07    0.000000e+00
-3.501023e-07    -4.175298e-07    0.000000e+00
-7.346687e-20    -3.857102e-07    0.000000e+00
3.501023e-07    -4.175298e-07    0.000000e+00
7.128292e-07    -5.177059e-07    0.000000e+00
1.105093e-06    -7.015532e-07    0.000000e+00
1.574436e-06    -9.987668e-07    0.000000e+00
2.153941e-06    -1.380309e-06    0.000000e+00
-3.132427e-06    -2.064634e-06    0.000000e+00
-2.394168e-06    -1.682257e-06    0.000000e+00
-1.722702e-06    -1.380761e-06    0.000000e+00
-1.115240e-06    -1.168096e-06    0.000000e+00
-5.487489e-07    -1.045521e-06    0.000000e+00
-1.156696e-19    -1.005593e-06    0.000000e+00
5.487489e-07    -1.045521e-06    0.000000e+00
1.115240e-06    -1.168096e-06    0.000000e+00
1.722702e-06    -1.380761e-06    0.000000e+00
2.394168e-06    -1.682257e-06    0.000000e+00
3.132427e-06    -2.064634e-06    0.000000e+00
-4.100076e-06    -2.909172e-06    0.000000e+00
-3.186876e-06    -2.535522e-06    0.000000e+00
-2.326958e-06    -2.239053e-06    0.000000e+00
-1.519408e-06    -2.025105e-06    0.000000e+00
-7.500557e-07    -1.896684e-06    0.000000e+00
-1.597451e-19    -1.854101e-06    0.000000e+00
7.500557e-07    -1.896684e-06    0.000000e+00
1.519408e-06    -2.025105e-06    0.000000e+00
2.326958e-06    -2.239053e-06    0.000000e+00
3.186876e-06    -2.535522e-06    0.000000e+00
4.100076e-06    -2.909172e-06    0.000000e+00
-5.051341e-06    -3.936654e-06    0.000000e+00
-3.956477e-06    -3.571725e-06    0.000000e+00
-2.911986e-06    -3.284208e-06    0.000000e+00
-1.912865e-06    -3.075889e-06    0.000000e+00
-9.475500e-07    -2.949778e-06    0.000000e+00
-2.050481e-19    -2.907564e-06    0.000000e+00
9.475500e-07    -2.949778e-06    0.000000e+00
1.912865e-06    -3.075889e-06    0.000000e+00
2.911986e-06    -3.284208e-06    0.000000e+00
3.956477e-06    -3.571725e-06    0.000000e+00
5.051341e-06    -3.936654e-06    0.000000e+00
-5.981873e-06    -5.149742e-06    0.000000e+00
-4.704513e-06    -4.794468e-06    0.000000e+00
-3.477740e-06    -4.516043e-06    0.000000e+00
-2.292922e-06    -4.315096e-06    0.000000e+00
-1.138484e-06    -4.193469e-06    0.000000e+00
-2.512379e-19    -4.152740e-06    0.000000e+00
1.138484e-06    -4.193469e-06    0.000000e+00
2.292922e-06    -4.315096e-06    0.000000e+00
3.477740e-06    -4.516043e-06    0.000000e+00
4.704513e-06    -4.794468e-06    0.000000e+00
5.981873e-06    -5.149742e-06    0.000000e+00
-6.888558e-06    -6.546376e-06    0.000000e+00
-5.431254e-06    -6.201154e-06    0.000000e+00
-4.025294e-06    -5.931590e-06    0.000000e+00
-2.659769e-06    -5.737829e-06    0.000000e+00
-1.322562e-06    -5.620886e-06    0.000000e+00
-2.945028e-19    -5.581769e-06    0.000000e+00
1.322562e-06    -5.620886e-06    0.000000e+00
2.659769e-06    -5.737829e-06    0.000000e+00
4.025294e-06    -5.931590e-06    0.000000e+00
5.431254e-06    -6.201154e-06    0.000000e+00
6.888558e-06    -6.546376e-06    0.000000e+00
-7.769676e-06    -8.122139e-06    0.000000e+00
-6.136609e-06    -7.787205e-06    0.000000e+00
-4.555509e-06    -7.526210e-06    0.000000e+00
-3.014226e-06    -7.339157e-06    0.000000e+00
-1.500173e-06    -7.226543e-06    0.000000e+00
-3.372515e-19    -7.188927e-06    0.000000e+00
1.500173e-06    -7.226543e-06    0.000000e+00
3.014226e-06    -7.339157e-06    0.000000e+00
4.555509e-06    -7.526210e-06    0.000000e+00
6.136609e-06    -7.787205e-06    0.000000e+00
7.769676e-06    -8.122139e-06    0.000000e+00
-8.624338e-06    -9.871838e-06    0.000000e+00
-6.820449e-06    -9.547301e-06    0.000000e+00
-5.068913e-06    -9.294676e-06    0.000000e+00
-3.356973e-06    -9.113935e-06    0.000000e+00
-1.671744e-06    -9.005300e-06    0.000000e+00
-3.811913e-19    -8.969049e-06    0.000000e+00
1.671744e-06    -9.005300e-06    0.000000e+00
3.356973e-06    -9.113935e-06    0.000000e+00
5.068913e-06    -9.294676e-06    0.000000e+00
6.820449e-06    -9.547301e-06    0.000000e+00
8.624338e-06    -9.871838e-06    0.000000e+00
-9.452128e-06    -1.179002e-05    0.000000e+00
-7.482678e-06    -1.147593e-05    0.000000e+00
-5.565791e-06    -1.123156e-05    0.000000e+00
-3.688437e-06    -1.105688e-05    0.000000e+00
-1.837569e-06    -1.095199e-05    0.000000e+00
-4.257929e-19    -1.091701e-05    0.000000e+00
1.837569e-06    -1.095199e-05    0.000000e+00
3.688437e-06    -1.105688e-05    0.000000e+00
5.565791e-06    -1.123156e-05    0.000000e+00
7.482678e-06    -1.147593e-05    0.000000e+00
9.452128e-06    -1.179002e-05    0.000000e+00
-1.025287e-05    -1.387120e-05    0.000000e+00
-8.123242e-06    -1.356758e-05    0.000000e+00
-6.046283e-06    -1.333140e-05    0.000000e+00
-4.008850e-06    -1.316265e-05    0.000000e+00
-1.997814e-06    -1.306137e-05    0.000000e+00
-4.633800e-19    -1.302760e-05    0.000000e+00
1.997814e-06    -1.306137e-05    0.000000e+00
4.008850e-06    -1.316265e-05    0.000000e+00
6.046283e-06    -1.333140e-05    0.000000e+00
8.123242e-06    -1.356758e-05    0.000000e+00
1.025287e-05    -1.387120e-05    0.000000e+00
-1.102648e-05    -1.610989e-05    0.000000e+00
-8.742113e-06    -1.581673e-05    0.000000e+00
-6.510452e-06    -1.558871e-05    0.000000e+00
-4.318325e-06    -1.542583e-05    0.000000e+00
-2.152566e-06    -1.532809e-05    0.000000e+00
-5.012847e-19    -1.529550e-05    0.000000e+00
2.152566e-06    -1.532809e-05    0.000000e+00
4.318325e-06    -1.542583e-05    0.000000e+00
6.510452e-06    -1.558871e-05    0.000000e+00
8.742113e-06    -1.581673e-05    0.000000e+00
1.102648e-05    -1.610989e-05    0.000000e+00
-1.177296e-05    -1.850062e-05    0.000000e+00
-9.339276e-06    -1.821793e-05    0.000000e+00
-6.958324e-06    -1.799806e-05    0.000000e+00
-4.616914e-06    -1.784101e-05    0.000000e+00
-2.301865e-06    -1.774678e-05    0.000000e+00
-5.440598e-19    -1.771537e-05    0.000000e+00
2.301865e-06    -1.774678e-05    0.000000e+00
4.616914e-06    -1.784101e-05    0.000000e+00
6.958324e-06    -1.799806e-05    0.000000e+00
9.339276e-06    -1.821793e-05    0.000000e+00
1.177296e-05    -1.850062e-05    0.000000e+00
-1.249228e-05    -2.103794e-05    0.000000e+00
-9.914727e-06    -2.076572e-05    0.000000e+00
-7.389909e-06    -2.055400e-05    0.000000e+00
-4.904637e-06    -2.040277e-05    0.000000e+00
-2.445728e-06    -2.031204e-05    0.000000e+00
-5.738648e-19    -2.028179e-05    0.000000e+00
2.445728e-06    -2.031204e-05    0.000000e+00
4.904637e-06    -2.040277e-05    0.000000e+00
7.389909e-06    -2.055400e-05    0.000000e+00
9.914727e-06    -2.076572e-05    0.000000e+00
1.249228e-05    -2.103794e-05    0.000000e+00
-1.318446e-05    -2.371642e-05    0.000000e+00
-1.046846e-05    -2.345467e-05    0.000000e+00
-7.805208e-06    -2.325109e-05    0.000000e+00
-5.181501e-06    -2.310568e-05    0.000000e+00
-2.584160e-06    -2.301844e-05    0.000000e+00
-6.006522e-19    -2.298935e-05    0.000000e+00
2.584160e-06    -2.301844e-05    0.000000e+00
5.181501e-06    -2.310568e-05    0.000000e+00
7.805208e-06    -2.325109e-05    0.000000e+00
1.046846e-05    -2.345467e-05    0.000000e+00
1.318446e-05    -2.371642e-05    0.000000e+00
-1.384949e-05    -2.653062e-05    0.000000e+00
-1.100049e-05    -2.627934e-05    0.000000e+00
-8.204222e-06    -2.608391e-05    0.000000e+00
-5.447509e-06    -2.594431e-05    0.000000e+00
-2.717163e-06    -2.586055e-05    0.000000e+00
-6.190752e-19    -2.583264e-05    0.000000e+00
2.717163e-06    -2.586055e-05    0.000000e+00
5.447509e-06    -2.594431e-05    0.000000e+00
8.204222e-06    -2.608391e-05    0.000000e+00
1.100049e-05    -2.627934e-05    0.000000e+00
1.384949e-05    -2.653062e-05    0.000000e+00
-1.448737e-05    -2.947511e-05    0.000000e+00
-1.151079e-05    -2.923430e-05    0.000000e+00
-8.586950e-06    -2.904701e-05    0.000000e+00
-5.702661e-06    -2.891323e-05    0.000000e+00
-2.844739e-06    -2.883296e-05    0.000000e+00
-6.211928e-19    -2.880621e-05    0.000000e+00
2.844739e-06    -2.883296e-05    0.000000e+00
5.702661e-06    -2.891323e-05    0.000000e+00
8.586950e-06    -2.904701e-05    0.000000e+00
1.151079e-05    -2.923430e-05    0.000000e+00
1.448737e-05    -2.947511e-05    0.000000e+00
-1.509811e-05    -3.254446e-05    0.000000e+00
-1.199938e-05    -3.231413e-05    0.000000e+00
-8.953392e-06    -3.213498e-05    0.000000e+00
-5.946955e-06    -3.200701e-05    0.000000e+00
-2.966886e-06    -3.193024e-05    0.000000e+00
-6.349571e-19    -3.190464e-05    0.000000e+00
2.966886e-06    -3.193024e-05    0.000000e+00
5.946955e-06    -3.200701e-05    0.000000e+00
8.953392e-06    -3.213498e-05    0.000000e+00
1.199938e-05    -3.231413e-05    0.000000e+00
1.509811e-05    -3.254446e-05    0.000000e+00
-1.568170e-05    -3.573325e-05    0.000000e+00
-1.246626e-05    -3.551338e-05    0.000000e+00
-9.303549e-06    -3.534238e-05    0.000000e+00
-6.180392e-06    -3.522023e-05    0.000000e+00
-3.083604e-06    -3.514694e-05    0.000000e+00
-6.630150e-19    -3.512251e-05    0.000000e+00
3.083604e-06    -3.514694e-05    0.000000e+00
6.180392e-06    -3.522023e-05    0.000000e+00
9.303549e-06    -3.534238e-05    0.000000e+00
1.246626e-05    -3.551338e-05    0.000000e+00
1.568170e-05    -3.573325e-05    0.000000e+00
-1.623815e-05    -3.903604e-05    0.000000e+00
-1.291142e-05    -3.882665e-05    0.000000e+00
-9.637419e-06    -3.866378e-05    0.000000e+00
-6.402972e-06    -3.854745e-05    0.000000e+00
-3.194894e-06    -3.847765e-05    0.000000e+00
-7.100254e-19    -3.845439e-05    0.000000e+00
3.194894e-06    -3.847765e-05    0.000000e+00
6.402972e-06    -3.854745e-05    0.000000e+00
9.637419e-06    -3.866378e-05    0.000000e+00
1.291142e-05    -3.882665e-05    0.000000e+00
1.623815e-05    -3.903604e-05    0.000000e+00
-1.676746e-05    -4.244741e-05    0.000000e+00
-1.333486e-05    -4.224848e-05    0.000000e+00
-9.955003e-06    -4.209376e-05    0.000000e+00
-6.614695e-06    -4.198325e-05    0.000000e+00
-3.300755e-06    -4.191694e-05    0.000000e+00
-7.773645e-19    -4.189484e-05    0.000000e+00
3.300755e-06    -4.191694e-05    0.000000e+00
6.614695e-06    -4.198325e-05    0.000000e+00
9.955003e-06    -4.209376e-05    0.000000e+00
1.333486e-05    -4.224848e-05    0.000000e+00
1.676746e-05    -4.244741e-05    0.000000e+00
-1.726962e-05    -4.596192e-05    0.000000e+00
-1.373659e-05    -4.577347e-05    0.000000e+00
-1.025630e-05    -4.562689e-05    0.000000e+00
-6.815560e-06    -4.552219e-05    0.000000e+00
-3.401188e-06    -4.545937e-05    0.000000e+00
-8.252218e-19    -4.543843e-05    0.000000e+00
3.401188e-06    -4.545937e-05    0.000000e+00
6.815560e-06    -4.552219e-05    0.000000e+00
1.025630e-05    -4.562689e-05    0.000000e+00
1.373659e-05    -4.577347e-05    0.000000e+00
1.726962e-05    -4.596192e-05    0.000000e+00
-1.774464e-05    -4.957415e-05    0.000000e+00
-1.411661e-05    -4.939617e-05    0.000000e+00
-1.054131e-05    -4.925773e-05    0.000000e+00
-7.005568e-06    -4.915885e-05    0.000000e+00
-3.496192e-06    -4.909952e-05    0.000000e+00
-8.601620e-19    -4.907975e-05    0.000000e+00
3.496192e-06    -4.909952e-05    0.000000e+00
7.005568e-06    -4.915885e-05    0.000000e+00
1.054131e-05    -4.925773e-05    0.000000e+00
1.411661e-05    -4.939617e-05    0.000000e+00
1.774464e-05    -4.957415e-05    0.000000e+00
-1.819252e-05    -5.327868e-05    0.000000e+00
-1.447491e-05    -5.311116e-05    0.000000e+00
-1.081004e-05    -5.298087e-05    0.000000e+00
-7.184718e-06    -5.288780e-05    0.000000e+00
-3.585767e-06    -5.283196e-05    0.000000e+00
-9.016666e-19    -5.281335e-05    0.000000e+00
3.585767e-06    -5.283196e-05    0.000000e+00
7.184718e-06    -5.288780e-05    0.000000e+00
1.081004e-05    -5.298087e-05    0.000000e+00
1.447491e-05    -5.311116e-05    0.000000e+00
1.819252e-05    -5.327868e-05    0.000000e+00
-1.861325e-05    -5.707006e-05    0.000000e+00
-1.481149e-05    -5.691301e-05    0.000000e+00
-1.106248e-05    -5.679086e-05    0.000000e+00
-7.353011e-06    -5.670361e-05    0.000000e+00
-3.669914e-06    -5.665126e-05    0.000000e+00
-9.169132e-19    -5.663381e-05    0.000000e+00
3.669914e-06    -5.665126e-05    0.000000e+00
7.353011e-06    -5.670361e-05    0.000000e+00
1.106248e-05    -5.679086e-05    0.000000e+00
1.481149e-05    -5.691301e-05    0.000000e+00
1.861325e-05    -5.707006e-05    0.000000e+00
-1.900683e-05    -6.094287e-05    0.000000e+00
-1.512636e-05    -6.079629e-05    0.000000e+00
-1.129863e-05    -6.068229e-05    0.000000e+00
-7.510448e-06    -6.060086e-05    0.000000e+00
-3.748633e-06    -6.055200e-05    0.000000e+00
-9.296187e-19    -6.053571e-05    0.000000e+00
3.748633e-06    -6.055200e-05    0.000000e+00
7.510448e-06    -6.060086e-05    0.000000e+00
1.129863e-05    -6.068229e-05    0.000000e+00
1.512636e-05    -6.079629e-05    0.000000e+00
1.900683e-05    -6.094287e-05    0.000000e+00
-1.937327e-05    -6.489169e-05    0.000000e+00
-1.541952e-05    -6.475558e-05    0.000000e+00
-1.151850e-05    -6.464972e-05    0.000000e+00
-7.657028e-06    -6.457410e-05    0.000000e+00
-3.821923e-06    -6.452873e-05    0.000000e+00
-9.347009e-19    -6.451361e-05    0.000000e+00
3.821923e-06    -6.452873e-05    0.000000e+00
7.657028e-06    -6.457410e-05    0.000000e+00
1.151850e-05    -6.464972e-05    0.000000e+00
1.541952e-05    -6.475558e-05    0.000000e+00
1.937327e-05    -6.489169e-05    0.000000e+00
-1.971256e-05    -6.891107e-05    0.000000e+00
-1.569095e-05    -6.878544e-05    0.000000e+00
-1.172208e-05    -6.868772e-05    0.000000e+00
-7.792750e-06    -6.861792e-05    0.000000e+00
-3.889784e-06    -6.857604e-05    0.000000e+00
-9.279246e-19    -6.856208e-05    0.000000e+00
3.889784e-06    -6.857604e-05    0.000000e+00
7.792750e-06    -6.861792e-05    0.000000e+00
1.172208e-05    -6.868772e-05    0.000000e+00
1.569095e-05    -6.878544e-05    0.000000e+00
1.971256e-05    -6.891107e-05    0.000000e+00
-2.002471e-05    -7.299559e-05    0.000000e+00
-1.594068e-05    -7.288043e-05    0.000000e+00
-1.190938e-05    -7.279086e-05    0.000000e+00
-7.917611e-06    -7.272688e-05    0.000000e+00
-3.952212e-06    -7.268851e-05    0.000000e+00
-9.167014e-19    -7.267572e-05    0.000000e+00
3.952212e-06    -7.268851e-05    0.000000e+00
7.917611e-06    -7.272688e-05    0.000000e+00
1.190938e-05    -7.279086e-05    0.000000e+00
1.594068e-05    -7.288043e-05    0.000000e+00
2.002471e-05    -7.299559e-05    0.000000e+00
-2.030971e-05    -7.713981e-05    0.000000e+00
-1.616869e-05    -7.703511e-05    0.000000e+00
-1.208038e-05    -7.695370e-05    0.000000e+00
-8.031599e-06    -7.689557e-05    0.000000e+00
-4.009198e-06    -7.686071e-05    0.000000e+00
-9.499475e-19    -7.684909e-05    0.000000e+00
4.009198e-06    -7.686071e-05    0.000000e+00
8.031599e-06    -7.689557e-05    0.000000e+00
1.208038e-05    -7.695370e-05    0.000000e+00
1.616869e-05    -7.703511e-05    0.000000e+00
2.030971e-05    -7.713981e-05    0.000000e+00
-2.056757e-05    -8.133827e-05    0.000000e+00
-1.637501e-05    -8.124404e-05    0.000000e+00
-1.223508e-05    -8.117079e-05    0.000000e+00
-8.134685e-06    -8.111855e-05    0.000000e+00
-4.060719e-06    -8.108725e-05    0.000000e+00
-9.893345e-19    -8.107682e-05    0.000000e+00
4.060719e-06    -8.108725e-05    0.000000e+00
8.134685e-06    -8.111855e-05    0.000000e+00
1.223508e-05    -8.117079e-05    0.000000e+00
1.637501e-05    -8.124404e-05    0.000000e+00
2.056757e-05    -8.133827e-05    0.000000e+00
-2.079833e-05    -8.558550e-05    0.000000e+00
-1.655963e-05    -8.550173e-05    0.000000e+00
-1.237344e-05    -8.543669e-05    0.000000e+00
-8.226802e-06    -8.539041e-05    0.000000e+00
-4.106724e-06    -8.536275e-05    0.000000e+00
-1.056674e-18    -8.535356e-05    0.000000e+00
4.106724e-06    -8.536275e-05    0.000000e+00
8.226802e-06    -8.539041e-05    0.000000e+00
1.237344e-05    -8.543669e-05    0.000000e+00
1.655963e-05    -8.550173e-05    0.000000e+00
2.079833e-05    -8.558550e-05    0.000000e+00
-2.100210e-05    -8.987603e-05    0.000000e+00
-1.672261e-05    -8.980269e-05    0.000000e+00
-1.249537e-05    -8.974594e-05    0.000000e+00
-8.307807e-06    -8.970578e-05    0.000000e+00
-4.147107e-06    -8.968192e-05    0.000000e+00
-1.133754e-18    -8.967401e-05    0.000000e+00
4.147107e-06    -8.968192e-05    0.000000e+00
8.307807e-06    -8.970578e-05    0.000000e+00
1.249537e-05    -8.974594e-05    0.000000e+00
1.672261e-05    -8.980269e-05    0.000000e+00
2.100210e-05    -8.987603e-05    0.000000e+00
-2.117912e-05    -9.420439e-05    0.000000e+00
-1.686399e-05    -9.414142e-05    0.000000e+00
-1.260070e-05    -9.409307e-05    0.000000e+00
-8.377428e-06    -9.405931e-05    0.000000e+00
-4.181679e-06    -9.403948e-05    0.000000e+00
-1.168482e-18    -9.403296e-05    0.000000e+00
4.181679e-06    -9.403948e-05    0.000000e+00
8.377428e-06    -9.405931e-05    0.000000e+00
1.260070e-05    -9.409307e-05    0.000000e+00
1.686399e-05    -9.414142e-05    0.000000e+00
2.117912e-05    -9.420439e-05    0.000000e+00
-2.132994e-05    -9.856523e-05    0.000000e+00
-1.698387e-05    -9.851248e-05    0.000000e+00
-1.268909e-05    -9.847276e-05    0.000000e+00
-8.435205e-06    -9.844575e-05    0.000000e+00
-4.210141e-06    -9.843026e-05    0.000000e+00
-1.226504e-18    -9.842523e-05    0.000000e+00
4.210141e-06    -9.843026e-05    0.000000e+00
8.435205e-06    -9.844575e-05    0.000000e+00
1.268909e-05    -9.847276e-05    0.000000e+00
1.698387e-05    -9.851248e-05    0.000000e+00
2.132994e-05    -9.856523e-05    0.000000e+00
-2.145562e-05    -1.029537e-04    0.000000e+00
-1.708235e-05    -1.029109e-04    0.000000e+00
-1.275997e-05    -1.028800e-04    0.000000e+00
-8.480517e-06    -1.028600e-04    0.000000e+00
-4.232143e-06    -1.028489e-04    0.000000e+00
-1.269279e-18    -1.028454e-04    0.000000e+00
4.232143e-06    -1.028489e-04    0.000000e+00
8.480517e-06    -1.028600e-04    0.000000e+00
1.275997e-05    -1.028800e-04    0.000000e+00
1.708235e-05    -1.029109e-04    0.000000e+00
2.145562e-05    -1.029537e-04    0.000000e+00
-2.155817e-05    -1.073660e-04    0.000000e+00
-1.715935e-05    -1.073327e-04    0.000000e+00
-1.281258e-05    -1.073105e-04    0.000000e+00
-8.512904e-06    -1.072970e-04    0.000000e+00
-4.247579e-06    -1.072895e-04    0.000000e+00
-1.217186e-18    -1.072870e-04    0.000000e+00
4.247579e-06    -1.072895e-04    0.000000e+00
8.512904e-06    -1.072970e-04    0.000000e+00
1.281258e-05    -1.073105e-04    0.000000e+00
1.715935e-05    -1.073327e-04    0.000000e+00
2.155817e-05    -1.073660e-04    0.000000e+00
-2.164067e-05    -1.118022e-04    0.000000e+00
-1.721429e-05    -1.117772e-04    0.000000e+00
-1.284670e-05    -1.117621e-04    0.000000e+00
-8.533270e-06    -1.117511e-04    0.000000e+00
-4.257281e-06    -1.117436e-04    0.000000e+00
-1.143918e-18    -1.117409e-04    0.000000e+00
4.257281e-06    -1.117436e-04    0.000000e+00
8.533270e-06    -1.117511e-04    0.000000e+00
1.284670e-05    -1.117621e-04    0.000000e+00
1.721429e-05    -1.117772e-04    0.000000e+00
2.164067e-05    -1.118022e-04    0.000000e+00
-2.170513e-05    -1.162704e-04    0.000000e+00
-1.724615e-05    -1.162523e-04    0.000000e+00
-1.286626e-05    -1.162338e-04    0.000000e+00
-8.546206e-06    -1.162132e-04    0.000000e+00
-4.263865e-06    -1.161978e-04    0.000000e+00
-1.145189e-18    -1.161922e-04    0.000000e+00
4.263865e-06    -1.161978e-04    0.000000e+00
8.546206e-06    -1.162132e-04    0.000000e+00
1.286626e-05    -1.162338e-04    0.000000e+00
1.724615e-05    -1.162523e-04    0.000000e+00
2.170513e-05    -1.162704e-04    0.000000e+00
-2.173924e-05    -1.208105e-04    0.000000e+00
-1.726634e-05    -1.207758e-04    0.000000e+00
-1.288608e-05    -1.207173e-04    0.000000e+00
-8.561321e-06    -1.206645e-04    0.000000e+00
-4.272039e-06    -1.206293e-04    0.000000e+00
-1.149212e-18    -1.206170e-04    0.000000e+00
4.272039e-06    -1.206293e-04    0.000000e+00
8.561321e-06    -1.206645e-04    0.000000e+00
1.288608e-05    -1.207173e-04    0.000000e+00
1.726634e-05    -1.207758e-04    0.000000e+00
2.173924e-05    -1.208105e-04    0.000000e+00

CELL_DATA      400
TENSORS Element_Stress9.600000e-01 double
1.820598e+06 2.551812e+05        0
2.551812e+05 4.163488e+05        0
       0        0        0

1.243720e+06 1.308538e+05        0
1.308538e+05 3.566178e+05        0
       0        0        0

8.651185e+05 4.301032e+04        0
4.301032e+04 2.749959e+05        0
       0        0        0

5.100063e+05 -3.578363e+03        0
-3.578363e+03 1.690094e+05        0
       0        0        0

1.688541e+05 -2.488323e+04        0
-2.488323e+04 5.694968e+04        0
       0        0        0

-1.688184e+05 -2.487711e+04        0
-2.487711e+04 -5.695775e+04        0
       0        0        0

-5.095306e+05 -3.579112e+03        0
-3.579112e+03 -1.688447e+05        0
       0        0        0

-8.637077e+05 4.293851e+04        0
4.293851e+04 -2.744671e+05        0
       0        0        0

-1.240734e+06 1.305652e+05        0
1.305652e+05 -3.554740e+05        0
       0        0        0

-1.814375e+06 2.543707e+05        0
2.543707e+05 -4.141970e+05        0
       0        0        0

1.642070e+06 4.159748e+04        0
4.159748e+04 4.234799e+03        0
       0        0        0

1.322354e+06 1.206454e+05        0
1.206454e+05 1.286843e+05        0
       0        0        0

9.082521e+05 9.900755e+04        0
9.900755e+04 1.315191e+05        0
       0        0        0

5.364025e+05 7.580678e+04        0
7.580678e+04 9.193311e+04        0
       0        0        0

1.768172e+05 6.321707e+04        0
6.321707e+04 3.207757e+04        0
       0        0        0

-1.778550e+05 6.319873e+04        0
6.319873e+04 -3.316896e+04        0
       0        0        0

-5.369363e+05 7.574133e+04        0
7.574133e+04 -9.284490e+04        0
       0        0        0

-9.077061e+05 9.886737e+04        0
9.886737e+04 -1.320379e+05        0
       0        0        0

-1.319830e+06 1.204079e+05        0
1.204079e+05 -1.284324e+05        0
       0        0        0

-1.637466e+06 4.151082e+04        0
4.151082e+04 -3.136555e+03        0
       0        0        0

1.584953e+06 1.541639e+04        0
1.541639e+04 6.615316e+03        0
       0        0        0

1.271591e+06 6.833109e+04        0
6.833109e+04 1.757728e+04        0
       0        0        0

9.146413e+05 1.015639e+05        0
1.015639e+05 4.237686e+04        0
       0        0        0

5.430826e+05 1.074765e+05        0
1.074765e+05 3.592346e+04        0
       0        0        0

1.791459e+05 1.074054e+05        0
1.074054e+05 1.272037e+04        0
       0        0        0

-1.824790e+05 1.073775e+05        0
1.073775e+05 -1.611190e+04        0
       0        0        0

-5.458838e+05 1.073933e+05        0
1.073933e+05 -3.912503e+04        0
       0        0        0

-9.163117e+05 1.014348e+05        0
1.014348e+05 -4.515293e+04        0
       0        0        0

-1.271565e+06 6.821622e+04        0
6.821622e+04 -1.966893e+04        0
       0        0        0

-1.582978e+06 1.538448e+04        0
1.538448e+04 -7.911807e+03        0
       0        0        0

1.546129e+06 1.427370e+04        0
1.427370e+04 -3.975752e+03        0
       0        0        0

1.226683e+06 5.548208e+04        0
5.548208e+04 -1.953361e+03        0
       0        0        0

8.865538e+05 9.245024e+04        0
9.245024e+04 2.933168e+03        0
       0        0        0

5.331314e+05 1.146030e+05        0
1.146030e+05 5.877770e+03        0
       0        0        0

1.753740e+05 1.233579e+05        0
1.233579e+05 6.880625e+02        0
       0        0        0

-1.820438e+05 1.233283e+05        0
1.233283e+05 -7.415933e+03        0
       0        0        0

-5.392752e+05 1.145213e+05        0
1.145213e+05 -1.241206e+04        0
       0        0        0

-8.916350e+05 9.234262e+04        0
9.234262e+04 -9.058365e+03        0
       0        0        0

-1.230189e+06 5.539388e+04        0
5.539388e+04 -3.528931e+03        0
       0        0        0

-1.547532e+06 1.424568e+04        0
1.424568e+04 -5.504384e+02        0
       0        0        0

1.509427e+06 1.713063e+04        0
1.713063e+04 -5.567249e+03        0
       0        0        0

1.185340e+06 5.448733e+04        0
5.448733e+04 -8.577651e+03        0
       0        0        0

8.541561e+05 8.905469e+04        0
8.905469e+04 -8.329305e+03        0
       0        0        0

5.137340e+05 1.136408e+05        0
1.136408e+05 -6.745280e+03        0
       0        0        0

1.681056e+05 1.258450e+05        0
1.258450e+05 -5.639044e+03        0
       0        0        0

-1.789903e+05 1.258166e+05        0
1.258166e+05 -5.300819e+03        0
       0        0        0

-5.241237e+05 1.135646e+05        0
1.135646e+05 -4.010288e+03        0
       0        0        0

-8.635542e+05 8.895612e+04        0
8.895612e+04 -2.042812e+03        0
       0        0        0

-1.193244e+06 5.440409e+04        0
5.440409e+04 -1.179541e+03        0
       0        0        0

-1.515273e+06 1.709766e+04        0
1.709766e+04 -3.264824e+03        0
       0        0        0

1.469671e+06 1.958963e+04        0
1.958963e+04 -7.911531e+03        0
       0        0        0

1.147077e+06 5.644559e+04        0
5.644559e+04 -1.054799e+04        0
       0        0        0

8.224151e+05 8.838594e+04        0
8.838594e+04 -1.192774e+04        0
       0        0        0

4.928620e+05 1.117722e+05        0
1.117722e+05 -1.113898e+04        0
       0        0        0

1.594065e+05 1.239614e+05        0
1.239614e+05 -9.157848e+03        0
       0        0        0

-1.752704e+05 1.239347e+05        0
1.239347e+05 -6.757342e+03        0
       0        0        0

-5.082716e+05 1.117003e+05        0
1.117003e+05 -4.611022e+03        0
       0        0        0

-8.369138e+05 8.829171e+04        0
8.829171e+04 -3.479956e+03        0
       0        0        0

-1.160194e+06 5.636191e+04        0
5.636191e+04 -4.312364e+03        0
       0        0        0

-1.480879e+06 1.955284e+04        0
1.955284e+04 -6.139554e+03        0
       0        0        0

1.427069e+06 2.114429e+04        0
2.114429e+04 -1.052964e+04        0
       0        0        0

1.109854e+06 5.834958e+04        0
5.834958e+04 -1.236661e+04        0
       0        0        0

7.924051e+05 8.864128e+04        0
8.864128e+04 -1.362108e+04        0
       0        0        0

4.726277e+05 1.103428e+05        0
1.103428e+05 -1.337050e+04        0
       0        0        0

1.506199e+05 1.216735e+05        0
1.216735e+05 -1.181697e+04        0
       0        0        0

-1.721469e+05 1.216483e+05        0
1.216483e+05 -9.757740e+03        0
       0        0        0

-4.937482e+05 1.102742e+05        0
1.102742e+05 -8.067258e+03        0
       0        0        0

-8.127094e+05 8.854973e+04        0
8.854973e+04 -7.533908e+03        0
       0        0        0

-1.128918e+06 5.826553e+04        0
5.826553e+04 -8.339735e+03        0
       0        0        0

-1.444434e+06 2.110561e+04        0
2.110561e+04 -9.528609e+03        0
       0        0        0

1.382471e+06 2.200181e+04        0
2.200181e+04 -1.363722e+04        0
       0        0        0

1.072891e+06 5.961398e+04        0
5.961398e+04 -1.472183e+04        0
       0        0        0

7.635785e+05 8.901007e+04        0
8.901007e+04 -1.557414e+04        0
       0        0        0

4.533125e+05 1.094858e+05        0
1.094858e+05 -1.552412e+04        0
       0        0        0

1.419522e+05 1.200358e+05        0
1.200358e+05 -1.458784e+04        0
       0        0        0

-1.697603e+05 1.200117e+05        0
1.200117e+05 -1.326479e+04        0
       0        0        0

-4.807667e+05 1.094198e+05        0
1.094198e+05 -1.222641e+04        0
       0        0        0

-7.903212e+05 8.892090e+04        0
8.892090e+04 -1.196593e+04        0
       0        0        0

-1.098554e+06 5.953060e+04        0
5.953060e+04 -1.248635e+04        0
       0        0        0

-1.406666e+06 2.196271e+04        0
2.196271e+04 -1.309846e+04        0
       0        0        0

1.336650e+06 2.243103e+04        0
2.243103e+04 -1.712975e+04        0
       0        0        0

1.035846e+06 6.032508e+04        0
6.032508e+04 -1.770734e+04        0
       0        0        0

7.353690e+05 8.928001e+04        0
8.928001e+04 -1.819357e+04        0
       0        0        0

4.345842e+05 1.090314e+05        0
1.090314e+05 -1.820574e+04        0
       0        0        0

1.333510e+05 1.190751e+05        0
1.190751e+05 -1.770719e+04        0
       0        0        0

-1.679948e+05 1.190519e+05        0
1.190519e+05 -1.697818e+04        0
       0        0        0

-4.689286e+05 1.089678e+05        0
1.089678e+05 -1.641605e+04        0
       0        0        0

-7.691116e+05 8.919329e+04        0
8.919329e+04 -1.629667e+04        0
       0        0        0

-1.068676e+06 6.024325e+04        0
6.024325e+04 -1.657480e+04        0
       0        0        0

-1.368246e+06 2.239236e+04        0
2.239236e+04 -1.685617e+04        0
       0        0        0

1.290108e+06 2.262769e+04        0
2.262769e+04 -2.093370e+04        0
       0        0        0

9.986145e+05 6.068320e+04        0
6.068320e+04 -2.119241e+04        0
       0        0        0

7.073840e+05 8.943847e+04        0
8.943847e+04 -2.142407e+04        0
       0        0        0

4.161153e+05 1.088122e+05        0
1.088122e+05 -2.143279e+04        0
       0        0        0

1.247137e+05 1.185759e+05        0
1.185759e+05 -2.118594e+04        0
       0        0        0

-1.666835e+05 1.185536e+05        0
1.185536e+05 -2.082274e+04        0
       0        0        0

-4.578408e+05 1.087507e+05        0
1.087507e+05 -2.055219e+04        0
       0        0        0

-7.486181e+05 8.935433e+04        0
8.935433e+04 -2.051028e+04        0
       0        0        0

-1.039104e+06 6.060345e+04        0
6.060345e+04 -2.065826e+04        0
       0        0        0

-1.329592e+06 2.258991e+04        0
2.258991e+04 -2.079207e+04        0
       0        0        0

1.243138e+06 2.270943e+04        0
2.270943e+04 -2.498210e+04        0
       0        0        0

9.611829e+05 6.084707e+04        0
6.084707e+04 -2.504187e+04        0
       0        0        0

6.794119e+05 8.952007e+04        0
8.952007e+04 -2.510676e+04        0
       0        0        0

3.976942e+05 1.087151e+05        0
1.087151e+05 -2.508705e+04        0
       0        0        0

1.159751e+05 1.183403e+05        0
1.183403e+05 -2.496213e+04        0
       0        0        0

-1.656966e+05 1.183187e+05        0
1.183187e+05 -2.479576e+04        0
       0        0        0

-4.472257e+05 1.086557e+05        0
1.086557e+05 -2.468699e+04        0
       0        0        0

-7.285608e+05 8.943859e+04        0
8.943859e+04 -2.469694e+04        0
       0        0        0

-1.009752e+06 6.076971e+04        0
6.076971e+04 -2.480000e+04        0
       0        0        0

-1.290922e+06 2.267274e+04        0
2.267274e+04 -2.489961e+04        0
       0        0        0

1.195902e+06 2.273919e+04        0
2.273919e+04 -2.922324e+04        0
       0        0        0

9.235708e+05 6.091458e+04        0
6.091458e+04 -2.915047e+04        0
       0        0        0

6.513590e+05 8.955767e+04        0
8.955767e+04 -2.910387e+04        0
       0        0        0

3.792147e+05 1.086759e+05        0
1.086759e+05 -2.904718e+04        0
       0        0        0

1.071092e+05 1.182389e+05        0
1.182389e+05 -2.896999e+04        0
       0        0        0

-1.649443e+05 1.182180e+05        0
1.182180e+05 -2.889900e+04        0
       0        0        0

-4.369126e+05 1.086185e+05        0
1.086185e+05 -2.887696e+04        0
       0        0        0

-7.087800e+05 8.947891e+04        0
8.947891e+04 -2.892824e+04        0
       0        0        0

-9.805709e+05 6.083975e+04        0
6.083975e+04 -2.903784e+04        0
       0        0        0

-1.252330e+06 2.270369e+04        0
2.270369e+04 -2.916302e+04        0
       0        0        0

1.148491e+06 2.274763e+04        0
2.274763e+04 -3.361527e+04        0
       0        0        0

8.858087e+05 6.093851e+04        0
6.093851e+04 -3.344415e+04        0
       0        0        0

6.231974e+05 8.957284e+04        0
8.957284e+04 -3.331675e+04        0
       0        0        0

3.606384e+05 1.086618e+05        0
1.086618e+05 -3.322145e+04        0
       0        0        0

9.811734e+04 1.181997e+05        0
1.181997e+05 -3.315416e+04        0
       0        0        0

-1.643651e+05 1.181796e+05        0
1.181796e+05 -3.312513e+04        0
       0        0        0

-4.268000e+05 1.086064e+05        0
1.086064e+05 -3.315081e+04        0
       0        0        0

-6.891844e+05 8.949683e+04        0
8.949683e+04 -3.323922e+04        0
       0        0        0

-9.515284e+05 6.086627e+04        0
6.086627e+04 -3.338182e+04        0
       0        0        0

-1.213844e+06 2.271337e+04        0
2.271337e+04 -3.356049e+04        0
       0        0        0

1.100960e+06 2.274841e+04        0
2.274841e+04 -3.812278e+04        0
       0        0        0

8.479289e+05 6.094459e+04        0
6.094459e+04 -3.787019e+04        0
       0        0        0

5.949322e+05 8.957762e+04        0
8.957762e+04 -3.767803e+04        0
       0        0        0

3.419635e+05 1.086573e+05        0
1.086573e+05 -3.754494e+04        0
       0        0        0

8.901558e+04 1.181867e+05        0
1.181867e+05 -3.747027e+04        0
       0        0        0

-1.639142e+05 1.181674e+05        0
1.181674e+05 -3.745768e+04        0
       0        0        0

-4.168253e+05 1.086039e+05        0
1.086039e+05 -3.751247e+04        0
       0        0        0

-6.697180e+05 8.950436e+04        0
8.950436e+04 -3.763608e+04        0
       0        0        0

-9.225952e+05 6.087498e+04        0
6.087498e+04 -3.782343e+04        0
       0        0        0

-1.175457e+06 2.271539e+04        0
2.271539e+04 -3.806658e+04        0
       0        0        0

1.053347e+06 2.274703e+04        0
2.274703e+04 -4.271420e+04        0
       0        0        0

8.099626e+05 6.094429e+04        0
6.094429e+04 -4.238866e+04        0
       0        0        0

5.665832e+05 8.957803e+04        0
8.957803e+04 -4.214000e+04        0
       0        0        0

3.232060e+05 1.086559e+05        0
1.086559e+05 -4.197068e+04        0
       0        0        0

7.982720e+04 1.181835e+05        0
1.181835e+05 -4.188171e+04        0
       0        0        0

-1.635563e+05 1.181649e+05        0
1.181649e+05 -4.187447e+04        0
       0        0        0

-4.069457e+05 1.086046e+05        0
1.086046e+05 -4.195008e+04        0
       0        0        0

-6.503417e+05 8.950753e+04        0
8.950753e+04 -4.210767e+04        0
       0        0        0

-8.937438e+05 6.087730e+04        0
6.087730e+04 -4.234382e+04        0
       0        0        0

-1.137148e+06 2.271526e+04        0
2.271526e+04 -4.265429e+04        0
       0        0        0

1.005683e+06 2.274539e+04        0
2.274539e+04 -4.736038e+04        0
       0        0        0

7.719394e+05 6.094219e+04        0
6.094219e+04 -4.696667e+04        0
       0        0        0

5.381756e+05 8.957681e+04        0
8.957681e+04 -4.666608e+04        0
       0        0        0

3.043894e+05 1.086553e+05        0
1.086553e+05 -4.646218e+04        0
       0        0        0

7.057816e+04 1.181832e+05        0
1.181832e+05 -4.635676e+04        0
       0        0        0

-1.632605e+05 1.181653e+05        0
1.181653e+05 -4.635058e+04        0
       0        0        0

-3.971278e+05 1.086060e+05        0
1.086060e+05 -4.644347e+04        0
       0        0        0

-6.310240e+05 8.950907e+04        0
8.950907e+04 -4.663394e+04        0
       0        0        0

-8.649473e+05 6.087783e+04        0
6.087783e+04 -4.691929e+04        0
       0        0        0

-1.098893e+06 2.271487e+04        0
2.271487e+04 -4.729637e+04        0
       0        0        0

9.579955e+05 2.274400e+04        0
2.274400e+04 -5.203381e+04        0
       0        0        0

7.338873e+05 6.093989e+04        0
6.093989e+04 -5.157525e+04        0
       0        0        0

5.097360e+05 8.957508e+04        0
8.957508e+04 -5.122566e+04        0
       0        0        0

2.855393e+05 1.086546e+05        0
1.086546e+05 -5.098880e+04        0
       0        0        0

6.129495e+04 1.181835e+05        0
1.181835e+05 -5.086675e+04        0
       0        0        0

-1.629989e+05 1.181663e+05        0
1.181663e+05 -5.086025e+04        0
       0        0        0

-3.873432e+05 1.086073e+05        0
1.086073e+05 -5.096887e+04        0
       0        0        0

-6.117373e+05 8.951011e+04        0
8.951011e+04 -5.119108e+04        0
       0        0        0

-8.361791e+05 6.087815e+04        0
6.087815e+04 -5.152449e+04        0
       0        0        0

-1.060664e+06 2.271473e+04        0
2.271473e+04 -5.196605e+04        0
       0        0        0

9.103102e+05 2.274290e+04        0
2.274290e+04 -5.670829e+04        0
       0        0        0

6.958326e+05 6.093780e+04        0
6.093780e+04 -5.618768e+04        0
       0        0        0

4.812907e+05 8.957328e+04        0
8.957328e+04 -5.579141e+04        0
       0        0        0

2.666817e+05 1.086537e+05        0
1.086537e+05 -5.552312e+04        0
       0        0        0

5.200354e+04 1.181835e+05        0
1.181835e+05 -5.538500e+04        0
       0        0        0

-1.627453e+05 1.181671e+05        0
1.181671e+05 -5.537790e+04        0
       0        0        0

-3.775653e+05 1.086084e+05        0
1.086084e+05 -5.550144e+04        0
       0        0        0

-5.924555e+05 8.951107e+04        0
8.951107e+04 -5.575422e+04        0
       0        0        0

-8.074137e+05 6.087870e+04        0
6.087870e+04 -5.613390e+04        0
       0        0        0

-1.022436e+06 2.271486e+04        0
2.271486e+04 -5.663735e+04        0
       0        0        0

8.626520e+05 2.274198e+04        0
2.274198e+04 -6.135878e+04        0
       0        0        0

6.578008e+05 6.093596e+04        0
6.093596e+04 -6.077882e+04        0
       0        0        0

4.528650e+05 8.957150e+04        0
8.957150e+04 -6.033795e+04        0
       0        0        0

2.478418e+05 1.086526e+05        0
1.086526e+05 -6.003971e+04        0
       0        0        0

4.272898e+04 1.181833e+05        0
1.181833e+05 -5.988630e+04        0
       0        0        0

-1.624747e+05 1.181676e+05        0
1.181676e+05 -5.987867e+04        0
       0        0        0

-3.677693e+05 1.086093e+05        0
1.086093e+05 -6.001656e+04        0
       0        0        0

-5.731539e+05 8.951206e+04        0
8.951206e+04 -6.029866e+04        0
       0        0        0

-7.786261e+05 6.087948e+04        0
6.087948e+04 -6.072266e+04        0
       0        0        0

-9.841819e+05 2.271520e+04        0
2.271520e+04 -6.128530e+04        0
       0        0        0

8.150447e+05 2.274119e+04        0
2.274119e+04 -6.596136e+04        0
       0        0        0

6.198157e+05 6.093429e+04        0
6.093429e+04 -6.532473e+04        0
       0        0        0

4.244830e+05 8.956978e+04        0
8.956978e+04 -6.484132e+04        0
       0        0        0

2.290436e+05 1.086514e+05        0
1.086514e+05 -6.451456e+04        0
       0        0        0

3.349528e+04 1.181828e+05        0
1.181828e+05 -6.434667e+04        0
       0        0        0

-1.621631e+05 1.181678e+05        0
1.181678e+05 -6.433865e+04        0
       0        0        0

-3.579315e+05 1.086101e+05        0
1.086101e+05 -6.449035e+04        0
       0        0        0

-5.538087e+05 8.951311e+04        0
8.951311e+04 -6.480052e+04        0
       0        0        0

-7.497925e+05 6.088043e+04        0
6.088043e+04 -6.526685e+04        0
       0        0        0

-9.458791e+05 2.271565e+04        0
2.271565e+04 -6.588596e+04        0
       0        0        0

7.675109e+05 2.274046e+04        0
2.274046e+04 -7.049318e+04        0
       0        0        0

5.819002e+05 6.093273e+04        0
6.093273e+04 -6.980260e+04        0
       0        0        0

3.961677e+05 8.956811e+04        0
8.956811e+04 -6.927870e+04        0
       0        0        0

2.103102e+05 1.086501e+05        0
1.086501e+05 -6.892486e+04        0
       0        0        0

2.432535e+04 1.181822e+05        0
1.181822e+05 -6.874327e+04        0
       0        0        0

-1.617877e+05 1.181679e+05        0
1.181679e+05 -6.873499e+04        0
       0        0        0

-3.480290e+05 1.086108e+05        0
1.086108e+05 -6.889993e+04        0
       0        0        0

-5.343973e+05 8.951420e+04        0
8.951420e+04 -6.923690e+04        0
       0        0        0

-7.208901e+05 6.088150e+04        0
6.088150e+04 -6.974356e+04        0
       0        0        0

-9.075041e+05 2.271617e+04        0
2.271617e+04 -7.041649e+04        0
       0        0        0

7.200723e+05 2.273978e+04        0
2.273978e+04 -7.493249e+04        0
       0        0        0

5.440762e+05 6.093125e+04        0
6.093125e+04 -7.419071e+04        0
       0        0        0

3.679410e+05 8.956648e+04        0
8.956648e+04 -7.362841e+04        0
       0        0        0

1.916633e+05 1.086488e+05        0
1.086488e+05 -7.324889e+04        0
       0        0        0

1.524098e+04 1.181815e+05        0
1.181815e+05 -7.305436e+04        0
       0        0        0

-1.613270e+05 1.181679e+05        0
1.181679e+05 -7.304590e+04        0
       0        0        0

-3.380404e+05 1.086115e+05        0
1.086115e+05 -7.322349e+04        0
       0        0        0

-5.148979e+05 8.951533e+04        0
8.951533e+04 -7.358598e+04        0
       0        0        0

-6.918973e+05 6.088265e+04        0
6.088265e+04 -7.413101e+04        0
       0        0        0

-8.690350e+05 2.271673e+04        0
2.271673e+04 -7.485511e+04        0
       0        0        0

6.727496e+05 2.273915e+04        0
2.273915e+04 -7.925863e+04        0
       0        0        0

5.063643e+05 6.092987e+04        0
6.092987e+04 -7.846843e+04        0
       0        0        0

3.398235e+05 8.956489e+04        0
8.956489e+04 -7.786983e+04        0
       0        0        0

1.731238e+05 1.086474e+05        0
1.086474e+05 -7.746605e+04        0
       0        0        0

6.262879e+03 1.181806e+05        0
1.181806e+05 -7.725929e+04        0
       0        0        0

-1.607601e+05 1.181679e+05        0
1.181679e+05 -7.725069e+04        0
       0        0        0

-3.279448e+05 1.086121e+05        0
1.086121e+05 -7.744030e+04        0
       0        0        0

-4.952900e+05 8.951651e+04        0
8.951651e+04 -7.782701e+04        0
       0        0        0

-6.627933e+05 6.088389e+04        0
6.088389e+04 -7.840849e+04        0
       0        0        0

-8.304513e+05 2.271735e+04        0
2.271735e+04 -7.918115e+04        0
       0        0        0

6.255623e+05 2.273859e+04        0
2.273859e+04 -8.345202e+04        0
       0        0        0

4.687842e+05 6.092860e+04        0
6.092860e+04 -8.261621e+04        0
       0        0        0

3.118350e+05 8.956335e+04        0
8.956335e+04 -8.198342e+04        0
       0        0        0

1.547113e+05 1.086460e+05        0
1.086460e+05 -8.155678e+04        0
       0        0        0

-2.589332e+03 1.181797e+05        0
1.181797e+05 -8.133849e+04        0
       0        0        0

-1.600676e+05 1.181676e+05        0
1.181676e+05 -8.132976e+04        0
       0        0        0

-3.177230e+05 1.086127e+05        0
1.086127e+05 -8.153073e+04        0
       0        0        0

-4.755540e+05 8.951773e+04        0
8.951773e+04 -8.194037e+04        0
       0        0        0

-6.335585e+05 6.088526e+04        0
6.088526e+04 -8.255636e+04        0
       0        0        0

-7.917331e+05 2.271804e+04        0
2.271804e+04 -8.337502e+04        0
       0        0        0

5.785286e+05 2.273817e+04        0
2.273817e+04 -8.749418e+04        0
       0        0        0

4.313542e+05 6.092752e+04        0
6.092752e+04 -8.661559e+04        0
       0        0        0

2.839942e+05 8.956185e+04        0
8.956185e+04 -8.595072e+04        0
       0        0        0

1.364444e+05 1.086444e+05        0
1.086444e+05 -8.550260e+04        0
       0        0        0

-1.129712e+04 1.181785e+05        0
1.181785e+05 -8.527347e+04        0
       0        0        0

-1.592310e+05 1.181672e+05        0
1.181672e+05 -8.526462e+04        0
       0        0        0

-3.073564e+05 1.086132e+05        0
1.086132e+05 -8.547630e+04        0
       0        0        0

-4.556717e+05 8.951900e+04        0
8.951900e+04 -8.590754e+04        0
       0        0        0

-6.041745e+05 6.088680e+04        0
6.088680e+04 -8.655609e+04        0
       0        0        0

-7.528619e+05 2.271886e+04        0
2.271886e+04 -8.741819e+04        0
       0        0        0

5.316658e+05 2.273795e+04        0
2.273795e+04 -9.136769e+04        0
       0        0        0

3.940921e+05 6.092663e+04        0
6.092663e+04 -9.044910e+04        0
       0        0        0

2.563184e+05 8.956035e+04        0
8.956035e+04 -8.975416e+04        0
       0        0        0

1.183407e+05 1.086427e+05        0
1.086427e+05 -8.928591e+04        0
       0        0        0

-1.984304e+04 1.181771e+05        0
1.181771e+05 -8.904673e+04        0
       0        0        0

-1.582329e+05 1.181665e+05        0
1.181665e+05 -8.903797e+04        0
       0        0        0

-2.968278e+05 1.086135e+05        0
1.086135e+05 -8.925978e+04        0
       0        0        0

-4.356257e+05 8.952026e+04        0
8.952026e+04 -8.971126e+04        0
       0        0        0

-5.746240e+05 6.088854e+04        0
6.088854e+04 -9.039032e+04        0
       0        0        0

-7.138200e+05 2.271989e+04        0
2.271989e+04 -9.129325e+04        0
       0        0        0

4.849900e+05 2.273796e+04        0
2.273796e+04 -9.505616e+04        0
       0        0        0

3.570143e+05 6.092577e+04        0
6.092577e+04 -9.410011e+04        0
       0        0        0

2.288244e+05 8.955862e+04        0
8.955862e+04 -9.337680e+04        0
       0        0        0

1.004164e+05 1.086409e+05        0
1.086409e+05 -9.288973e+04        0
       0        0        0

-2.821084e+04 1.181759e+05        0
1.181759e+05 -9.264170e+04        0
       0        0        0

-1.570570e+05 1.181660e+05        0
1.181660e+05 -9.263378e+04        0
       0        0        0

-2.861209e+05 1.086137e+05        0
1.086137e+05 -9.286554e+04        0
       0        0        0

-4.153999e+05 8.952130e+04        0
8.952130e+04 -9.333582e+04        0
       0        0        0

-5.448908e+05 6.089031e+04        0
6.089031e+04 -9.404299e+04        0
       0        0        0

-6.745908e+05 2.272114e+04        0
2.272114e+04 -9.498387e+04        0
       0        0        0

4.385165e+05 2.273798e+04        0
2.273798e+04 -9.854412e+04        0
       0        0        0

3.201365e+05 6.092413e+04        0
6.092413e+04 -9.755241e+04        0
       0        0        0

2.015270e+05 8.955604e+04        0
8.955604e+04 -9.680154e+04        0
       0        0        0

8.268605e+04 1.086393e+05        0
1.086393e+05 -9.629692e+04        0
       0        0        0

-3.638570e+04 1.181760e+05        0
1.181760e+05 -9.604233e+04        0
       0        0        0

-1.556878e+05 1.181669e+05        0
1.181669e+05 -9.603768e+04        0
       0        0        0

-2.752197e+05 1.086142e+05        0
1.086142e+05 -9.628030e+04        0
       0        0        0

-3.949789e+05 8.952148e+04        0
8.952148e+04 -9.676788e+04        0
       0        0        0

-5.149601e+05 6.089129e+04        0
6.089129e+04 -9.749979e+04        0
       0        0        0

-6.351590e+05 2.272241e+04        0
2.272241e+04 -9.847493e+04        0
       0        0        0

3.922608e+05 2.273705e+04        0
2.273705e+04 -1.018168e+05        0
       0        0        0

2.834737e+05 6.091918e+04        0
6.091918e+04 -1.007892e+05        0
       0        0        0

1.744389e+05 8.955103e+04        0
8.955103e+04 -1.000095e+05        0
       0        0        0

6.516112e+04 1.086394e+05        0
1.086394e+05 -9.948864e+04        0
       0        0        0

-4.435479e+04 1.181814e+05        0
1.181814e+05 -9.923256e+04        0
       0        0        0

-1.541098e+05 1.181730e+05        0
1.181730e+05 -9.923756e+04        0
       0        0        0

-2.641076e+05 1.086162e+05        0
1.086162e+05 -9.949471e+04        0
       0        0        0

-3.743470e+05 8.951924e+04        0
8.951924e+04 -9.999807e+04        0
       0        0        0

-4.848186e+05 6.088897e+04        0
6.088897e+04 -1.007491e+05        0
       0        0        0

-5.955116e+05 2.272272e+04        0
2.272272e+04 -1.017526e+05        0
       0        0        0

3.462408e+05 2.273213e+04        0
2.273213e+04 -1.048596e+05        0
       0        0        0

2.470402e+05 6.090435e+04        0
6.090435e+04 -1.037913e+05        0
       0        0        0

1.475679e+05 8.953998e+04        0
8.953998e+04 -1.029768e+05        0
       0        0        0

4.784706e+04 1.086446e+05        0
1.086446e+05 -1.024414e+05        0
       0        0        0

-5.210859e+04 1.182015e+05        0
1.182015e+05 -1.021950e+05        0
       0        0        0

-1.523066e+05 1.181938e+05        0
1.181938e+05 -1.022248e+05        0
       0        0        0

-2.527641e+05 1.086235e+05        0
1.086235e+05 -1.025064e+05        0
       0        0        0

-3.534861e+05 8.951095e+04        0
8.951095e+04 -1.030243e+05        0
       0        0        0

-4.544544e+05 6.087677e+04        0
6.087677e+04 -1.037842e+05        0
       0        0        0

-5.556397e+05 2.271905e+04        0
2.271905e+04 -1.048050e+05        0
       0        0        0

3.004822e+05 2.271539e+04        0
2.271539e+04 -1.076574e+05        0
       0        0        0

2.108493e+05 6.086437e+04        0
6.086437e+04 -1.065333e+05        0
       0        0        0

1.209111e+05 8.951546e+04        0
8.951546e+04 -1.056691e+05        0
       0        0        0

3.073692e+04 1.086641e+05        0
1.086641e+05 -1.051219e+05        0
       0        0        0

-5.964355e+04 1.182578e+05        0
1.182578e+05 -1.049091e+05        0
       0        0        0

-1.502580e+05 1.182508e+05        0
1.182508e+05 -1.049962e+05        0
       0        0        0

-2.411586e+05 1.086450e+05        0
1.086450e+05 -1.053249e+05        0
       0        0        0

-3.323700e+05 8.948920e+04        0
8.948920e+04 -1.058577e+05        0
       0        0        0

-4.238570e+05 6.083943e+04        0
6.083943e+04 -1.066065e+05        0
       0        0        0

-5.155448e+05 2.270357e+04        0
2.270357e+04 -1.076228e+05        0
       0        0        0

2.550302e+05 2.266861e+04        0
2.266861e+04 -1.101928e+05        0
       0        0        0

1.749112e+05 6.076689e+04        0
6.076689e+04 -1.089786e+05        0
       0        0        0

9.444394e+04 8.946363e+04        0
8.946363e+04 -1.080332e+05        0
       0        0        0

1.379929e+04 1.087177e+05        0
1.087177e+05 -1.074804e+05        0
       0        0        0

-6.696699e+04 1.183950e+05        0
1.183950e+05 -1.073481e+05        0
       0        0        0

-1.479345e+05 1.183887e+05        0
1.183887e+05 -1.075565e+05        0
       0        0        0

-2.292386e+05 1.087005e+05        0
1.087005e+05 -1.079789e+05        0
       0        0        0

-3.109536e+05 8.944014e+04        0
8.944014e+04 -1.085307e+05        0
       0        0        0

-3.930164e+05 6.074460e+04        0
6.074460e+04 -1.092323e+05        0
       0        0        0

-4.752498e+05 2.265805e+04        0
2.265805e+04 -1.102010e+05        0
       0        0        0

2.099707e+05 2.255312e+04        0
2.255312e+04 -1.124452e+05        0
       0        0        0

1.392276e+05 6.054966e+04        0
6.054966e+04 -1.110720e+05        0
       0        0        0

6.809783e+04 8.936201e+04        0
8.936201e+04 -1.099896e+05        0
       0        0        0

-3.042201e+03 1.088455e+05        0
1.088455e+05 -1.094456e+05        0
       0        0        0

-7.410476e+04 1.186961e+05        0
1.186961e+05 -1.094775e+05        0
       0        0        0

-1.452897e+05 1.186906e+05        0
1.186906e+05 -1.099193e+05        0
       0        0        0

-2.169085e+05 1.088304e+05        0
1.088304e+05 -1.105207e+05        0
       0        0        0

-2.891518e+05 8.934130e+04        0
8.934130e+04 -1.111065e+05        0
       0        0        0

-3.619182e+05 6.053005e+04        0
6.053005e+04 -1.117009e+05        0
       0        0        0

-4.348222e+05 2.254384e+04        0
2.254384e+04 -1.125421e+05        0
       0        0        0

1.654676e+05 2.229389e+04        0
2.229389e+04 -1.143894e+05        0
       0        0        0

1.037757e+05 6.010633e+04        0
6.010633e+04 -1.127378e+05        0
       0        0        0

4.172434e+04 8.918285e+04        0
8.918285e+04 -1.114369e+05        0
       0        0        0

-1.993674e+04 1.091211e+05        0
1.091211e+05 -1.109352e+05        0
       0        0        0

-8.111029e+04 1.192969e+05        0
1.192969e+05 -1.112604e+05        0
       0        0        0

-1.422485e+05 1.192922e+05        0
1.192922e+05 -1.121001e+05        0
       0        0        0

-2.040019e+05 1.091080e+05        0
1.091080e+05 -1.130150e+05        0
       0        0        0

-2.668047e+05 8.916493e+04        0
8.916493e+04 -1.136749e+05        0
       0        0        0

-3.305323e+05 6.008944e+04        0
6.008944e+04 -1.140806e+05        0
       0        0        0

-3.944153e+05 2.228592e+04        0
2.228592e+04 -1.146607e+05        0
       0        0        0

1.218143e+05 2.175987e+04        0
2.175987e+04 -1.160001e+05        0
       0        0        0

6.846991e+04 5.928775e+04        0
5.928775e+04 -1.139016e+05        0
       0        0        0

1.504776e+04 8.891653e+04        0
8.891653e+04 -1.123083e+05        0
       0        0        0

-3.712658e+04 1.096611e+05        0
1.096611e+05 -1.119237e+05        0
       0        0        0

-8.806576e+04 1.203706e+05        0
1.203706e+05 -1.126850e+05        0
       0        0        0

-1.387020e+05 1.203666e+05        0
1.203666e+05 -1.140839e+05        0
       0        0        0

-1.902583e+05 1.096500e+05        0
1.096500e+05 -1.154691e+05        0
       0        0        0

-2.436324e+05 8.890144e+04        0
8.890144e+04 -1.162985e+05        0
       0        0        0

-2.987810e+05 5.927361e+04        0
5.927361e+04 -1.164537e+05        0
       0        0        0

-3.543298e+05 2.175326e+04        0
2.175326e+04 -1.165894e+05        0
       0        0        0

7.947515e+04 2.075678e+04        0
2.075678e+04 -1.172821e+05        0
       0        0        0

3.307865e+04 5.797447e+04        0
5.797447e+04 -1.145899e+05        0
       0        0        0

-1.236393e+04 8.865059e+04        0
8.865059e+04 -1.127886e+05        0
       0        0        0

-5.490063e+04 1.106013e+05        0
1.106013e+05 -1.126577e+05        0
       0        0        0

-9.504947e+04 1.220074e+05        0
1.220074e+05 -1.138552e+05        0
       0        0        0

-1.345317e+05 1.220041e+05        0
1.220041e+05 -1.157267e+05        0
       0        0        0

-1.753639e+05 1.105923e+05        0
1.105923e+05 -1.176118e+05        0
       0        0        0

-2.192067e+05 8.863840e+04        0
8.863840e+04 -1.187962e+05        0
       0        0        0

-2.664683e+05 5.796312e+04        0
5.796312e+04 -1.188293e+05        0
       0        0        0

-3.150782e+05 2.075156e+04        0
2.075156e+04 -1.183719e+05        0
       0        0        0

3.901604e+04 1.910250e+04        0
1.910250e+04 -1.183311e+05        0
       0        0        0

-2.945801e+03 5.638064e+04        0
5.638064e+04 -1.153385e+05        0
       0        0        0

-4.097162e+04 8.874194e+04        0
8.874194e+04 -1.139163e+05        0
       0        0        0

-7.334316e+04 1.119428e+05        0
1.119428e+05 -1.141993e+05        0
       0        0        0

-1.020044e+05 1.238170e+05        0
1.238170e+05 -1.151847e+05        0
       0        0        0

-1.297257e+05 1.238146e+05        0
1.238146e+05 -1.165458e+05        0
       0        0        0

-1.591896e+05 1.119363e+05        0
1.119363e+05 -1.183359e+05        0
       0        0        0

-1.930733e+05 8.873286e+04        0
8.873286e+04 -1.201362e+05        0
       0        0        0

-2.331278e+05 5.637209e+04        0
5.637209e+04 -1.207525e+05        0
       0        0        0

-2.773664e+05 1.909865e+04        0
1.909865e+04 -1.200521e+05        0
       0        0        0

5.231885e+02 1.710271e+04        0
1.710271e+04 -1.199683e+05        0
       0        0        0

-4.055900e+04 5.592265e+04        0
5.592265e+04 -1.183223e+05        0
       0        0        0

-7.064224e+04 9.001307e+04        0
9.001307e+04 -1.192608e+05        0
       0        0        0

-9.160225e+04 1.128998e+05        0
1.128998e+05 -1.193451e+05        0
       0        0        0

-1.084793e+05 1.240404e+05        0
1.240404e+05 -1.176209e+05        0
       0        0        0

-1.246149e+05 1.240392e+05        0
1.240392e+05 -1.154734e+05        0
       0        0        0

-1.424954e+05 1.128964e+05        0
1.128964e+05 -1.147534e+05        0
       0        0        0

-1.653497e+05 9.000769e+04        0
9.000769e+04 -1.167341e+05        0
       0        0        0

-1.979384e+05 5.591692e+04        0
5.591692e+04 -1.201833e+05        0
       0        0        0

-2.416132e+05 1.710010e+04        0
1.710010e+04 -1.211410e+05        0
       0        0        0

-3.838756e+04 1.780089e+04        0
1.780089e+04 -1.241547e+05        0
       0        0        0

-8.056431e+04 6.133461e+04        0
6.133461e+04 -1.329179e+05        0
       0        0        0

-9.823377e+04 9.241439e+04        0
9.241439e+04 -1.376493e+05        0
       0        0        0

-1.069299e+05 1.101518e+05        0
1.101518e+05 -1.330247e+05        0
       0        0        0

-1.134903e+05 1.182691e+05        0
1.182691e+05 -1.226657e+05        0
       0        0        0

-1.199857e+05 1.182695e+05        0
1.182695e+05 -1.108102e+05        0
       0        0        0

-1.278480e+05 1.101525e+05        0
1.101525e+05 -1.017531e+05        0
       0        0        0

-1.390687e+05 9.241419e+04        0
9.241419e+04 -9.965328e+04        0
       0        0        0

-1.602170e+05 6.133242e+04        0
6.133242e+04 -1.078653e+05        0
       0        0        0

-2.060740e+05 1.779909e+04        0
1.779909e+04 -1.203165e+05        0
       0        0        0

-9.041227e+04 4.054631e+04        0
4.054631e+04 -1.562833e+05        0
       0        0        0

-1.138421e+05 7.593486e+04        0
7.593486e+04 -1.858539e+05        0
       0        0        0

-1.150718e+05 8.920336e+04        0
8.920336e+04 -1.817339e+05        0
       0        0        0

-1.153875e+05 9.571255e+04        0
9.571255e+04 -1.608397e+05        0
       0        0        0

-1.157489e+05 9.856239e+04        0
9.856239e+04 -1.317915e+05        0
       0        0        0

-1.168366e+05 9.856429e+04        0
9.856429e+04 -1.007937e+05        0
       0        0        0

-1.188659e+05 9.571771e+04        0
9.571771e+04 -7.341100e+04        0
       0        0        0

-1.225609e+05 8.921016e+04        0
8.921016e+04 -5.589328e+04        0
       0        0        0

-1.289065e+05 7.594047e+04        0
7.594047e+04 -5.688864e+04        0
       0        0        0

-1.586523e+05 4.054609e+04        0
4.054609e+04 -9.278138e+04        0
       0        0        0

POINT_DATA     451
VECTORS DISPLACEMENT_9.800000e-01 double
0.000000e+00    0.000000e+00    0.000000e+00
0.000000e+00    0.000000e+00    0.000000e+00
0.000000e+00    0.000000e+00    0.000000e+00
0.000000e+00    0.000000e+00    0.000000e+00
0.000000e+00    0.000000e+00    0.000000e+00
0.000000e+00    0.000000e+00    0.000000e+00
0.000000e+00    0.000000e+00    0.000000e+00
0.000000e+00    0.000000e+00    0.000000e+00
0.000000e+00    0.000000e+00    0.000000e+00
0.000000e+00    0.000000e+00    0.000000e+00
0.000000e+00    0.000000e+00    0.000000e+00
-1.141595e-06    -8.299605e-07    0.000000e+00
-7.233448e-07    -4.163094e-07    0.000000e+00
-5.161144e-07    -2.157261e-07    0.000000e+00
-3.332233e-07    -1.068318e-07    0.000000e+00
-1.642863e-07    -5.047426e-08    0.000000e+00
-3.101626e-20    -3.295145e-08    0.000000e+00
1.642863e-07    -5.047426e-08    0.000000e+00
3.332233e-07    -1.068318e-07    0.000000e+00
5.161144e-07    -2.157261e-07    0.000000e+00
7.233448e-07    -4.163094e-07    0.000000e+00
1.141595e-06    -8.299605e-07    0.000000e+00
-2.153941e-06    -1.380309e-06    0.000000e+00
-1.574436e-06    -9.987668e-07    0.000000e+00
-1.105093e-06    -7.015532e-07    0.000000e+00
-7.128292e-07    -5.177059e-07    0.000000e+00
-3.501023e-07    -4.175298e-07    0.000000e+00
-6.561527e-20    -3.857102e-07    0.000000e+00
3.501023e-07    -4.175298e-07    0.000000e+00
7.128292e-07    -5.177059e-07    0.000000e+00
1.105093e-06    -7.015532e-07    0.000000e+00
1.574436e-06    -9.987668e-07    0.000000e+00
2.153941e-06    -1.380309e-06    0.000000e+00
-3.132427e-06    -2.064634e-06    0.000000e+00
-2.394168e-06    -1.682257e-06    0.000000e+00
-1.722702e-06    -1.380761e-06    0.000000e+00
-1.115240e-06    -1.168096e-06    0.000000e+00
-5.487489e-07    -1.045521e-06    0.000000e+00
-1.033843e-19    -1.005593e-06    0.000000e+00
5.487489e-07    -1.045521e-06    0.000000e+00
1.115240e-06    -1.168096e-06    0.000000e+00
1.722702e-06    -1.380761e-06    0.000000e+00
2.394168e-06    -1.682257e-06    0.000000e+00
3.132427e-06    -2.064634e-06    0.000000e+00
-4.100076e-06    -2.909172e-06    0.000000e+00
-3.186876e-06    -2.535522e-06    0.000000e+00
-2.326958e-06    -2.239053e-06    0.000000e+00
-1.519408e-06    -2.025105e-06    0.000000e+00
-7.500557e-07    -1.896684e-06    0.000000e+00
-1.426258e-19    -1.854101e-06    0.000000e+00
7.500557e-07    -1.896684e-06    0.000000e+00
1.519408e-06    -2.025105e-06    0.000000e+00
2.326958e-06    -2.239053e-06    0.000000e+00
3.186876e-06    -2.535522e-06    0.000000e+00
4.100076e-06    -2.909172e-06    0.000000e+00
-5.051341e-06    -3.936654e-06    0.000000e+00
-3.956477e-06    -3.571725e-06    0.000000e+00
-2.911986e-06    -3.284208e-06    0.000000e+00
-1.912865e-06    -3.075889e-06    0.000000e+00
-9.475500e-07    -2.949778e-06    0.000000e+00
-1.829724e-19    -2.907564e-06    0.000000e+00
9.475500e-07    -2.949778e-06    0.000000e+00
1.912865e-06    -3.075889e-06    0.000000e+00
2.911986e-06    -3.284208e-06    0.000000e+00
3.956477e-06    -3.571725e-06    0.000000e+00
5.051341e-06    -3.936654e-06    0.000000e+00
-5.981873e-06    -5.149742e-06    0.000000e+00
-4.704513e-06    -4.794468e-06    0.000000e+00
-3.477740e-06    -4.516043e-06    0.000000e+00
-2.292922e-06    -4.315096e-06    0.000000e+00
-1.138484e-06    -4.193469e-06    0.000000e+00
-2.249137e-19    -4.152740e-06    0.000000e+00
1.138484e-06    -4.193469e-06    0.000000e+00
2.292922e-06    -4.315096e-06    0.000000e+00
3.477740e-06    -4.516043e-06    0.000000e+00
4.704513e-06    -4.794468e-06    0.000000e+00
5.981873e-06    -5.149742e-06    0.000000e+00
-6.888558e-06    -6.546376e-06    0.000000e+00
-5.431254e-06    -6.201154e-06    0.000000e+00
-4.025294e-06    -5.931590e-06    0.000000e+00
-2.659769e-06    -5.737829e-06    0.000000e+00
-1.322562e-06    -5.620886e-06    0.000000e+00
-2.648566e-19    -5.581769e-06    0.000000e+00
1.322562e-06    -5.620886e-06    0.000000e+00
2.659769e-06    -5.737829e-06    0.000000e+00
4.025294e-06    -5.931590e-06    0.000000e+00
5.431254e-06    -6.201154e-06    0.000000e+00
6.888558e-06    -6.546376e-06    0.000000e+00
-7.769676e-06    -8.122139e-06    0.000000e+00
-6.136609e-06    -7.787205e-06    0.000000e+00
-4.555509e-06    -7.526210e-06    0.000000e+00
-3.014226e-06    -7.339157e-06    0.000000e+00
-1.500173e-06    -7.226543e-06    0.000000e+00
-3.040848e-19    -7.188927e-06    0.000000e+00
1.500173e-06    -7.226543e-06    0.000000e+00
3.014226e-06    -7.339157e-06    0.000000e+00
4.555509e-06    -7.526210e-06    0.000000e+00
6.136609e-06    -7.787205e-06    0.000000e+00
7.769676e-06    -8.122139e-06    0.000000e+00
-8.624338e-06    -9.871838e-06    0.000000e+00
-6.820449e-06    -9.547301e-06    0.000000e+00
-5.068913e-06    -9.294676e-06    0.000000e+00
-3.356973e-06    -9.113935e-06    0.000000e+00
-1.671744e-06    -9.005300e-06    0.000000e+00
-3.447424e-19    -8.969049e-06    0.000000e+00
1.671744e-06    -9.005300e-06    0.000000e+00
3.356973e-06    -9.113935e-06    0.000000e+00
5.068913e-06    -9.294676e-06    0.000000e+00
6.820449e-06    -9.547301e-06    0.000000e+00
8.624338e-06    -9.871838e-06    0.000000e+00
-9.452128e-06    -1.179002e-05    0.000000e+00
-7.482678e-06    -1.147593e-05    0.000000e+00
-5.565791e-06    -1.123156e-05    0.000000e+00
-3.688437e-06    -1.105688e-05    0.000000e+00
-1.837569e-06    -1.095199e-05    0.000000e+00
-3.852941e-19    -1.091701e-05    0.000000e+00
1.837569e-06    -1.095199e-05    0.000000e+00
3.688437e-06    -1.105688e-05    0.000000e+00
5.565791e-06    -1.123156e-05    0.000000e+00
7.482678e-06    -1.147593e-05    0.000000e+00
9.452128e-06    -1.179002e-05    0.000000e+00
-1.025287e-05    -1.387120e-05    0.000000e+00
-8.123242e-06    -1.356758e-05    0.000000e+00
-6.046283e-06    -1.333140e-05    0.000000e+00
-4.008850e-06    -1.316265e-05    0.000000e+00
-1.997814e-06    -1.306137e-05    0.000000e+00
-4.190696e-19    -1.302760e-05    0.000000e+00
1.997814e-06    -1.306137e-05    0.000000e+00
4.008850e-06    -1.316265e-05    0.000000e+00
6.046283e-06    -1.333140e-05    0.000000e+00
8.123242e-06    -1.356758e-05    0.000000e+00
1.025287e-05    -1.387120e-05    0.000000e+00
-1.102648e-05    -1.610989e-05    0.000000e+00
-8.742113e-06    -1.581673e-05    0.000000e+00
-6.510452e-06    -1.558871e-05    0.000000e+00
-4.318325e-06    -1.542583e-05    0.000000e+00
-2.152566e-06    -1.532809e-05    0.000000e+00
-4.568155e-19    -1.529550e-05    0.000000e+00
2.152566e-06    -1.532809e-05    0.000000e+00
4.318325e-06    -1.542583e-05    0.000000e+00
6.510452e-06    -1.558871e-05    0.000000e+00
8.742113e-06    -1.581673e-05    0.000000e+00
1.102648e-05    -1.610989e-05    0.000000e+00
-1.177296e-05    -1.850062e-05    0.000000e+00
-9.339276e-06    -1.821793e-05    0.000000e+00
-6.958324e-06    -1.799806e-05    0.000000e+00
-4.616914e-06    -1.784101e-05    0.000000e+00
-2.301865e-06    -1.774678e-05    0.000000e+00
-4.994847e-19    -1.771537e-05    0.000000e+00
2.301865e-06    -1.774678e-05    0.000000e+00
4.616914e-06    -1.784101e-05    0.000000e+00
6.958324e-06    -1.799806e-05    0.000000e+00
9.339276e-06    -1.821793e-05    0.000000e+00
1.177296e-05    -1.850062e-05    0.000000e+00
-1.249228e-05    -2.103794e-05    0.000000e+00
-9.914727e-06    -2.076572e-05    0.000000e+00
-7.389909e-06    -2.055400e-05    0.000000e+00
-4.904637e-06    -2.040277e-05    0.000000e+00
-2.445728e-06    -2.031204e-05    0.000000e+00
-5.241016e-19    -2.028179e-05    0.000000e+00
2.445728e-06    -2.031204e-05    0.000000e+00
4.904637e-06    -2.040277e-05    0.000000e+00
7.389909e-06    -2.055400e-05    0.000000e+00
9.914727e-06    -2.076572e-05    0.000000e+00
1.249228e-05    -2.103794e-05    0.000000e+00
-1.318446e-05    -2.371642e-05    0.000000e+00
-1.046846e-05    -2.345467e-05    0.000000e+00
-7.805208e-06    -2.325109e-05    0.000000e+00
-5.181501e-06    -2.310568e-05    0.000000e+00
-2.584160e-06    -2.301844e-05    0.000000e+00
-5.446422e-19    -2.298935e-05    0.000000e+00
2.584160e-06    -2.301844e-05    0.000000e+00
5.181501e-06    -2.310568e-05    0.000000e+00
7.805208e-06    -2.325109e-05    0.000000e+00
1.046846e-05    -2.345467e-05    0.000000e+00
1.318446e-05    -2.371642e-05    0.000000e+00
-1.384949e-05    -2.653062e-05    0.000000e+00
-1.100049e-05    -2.627934e-05    0.000000e+00
-8.204222e-06    -2.608391e-05    0.000000e+00
-5.447509e-06    -2.594431e-05    0.000000e+00
-2.717163e-06    -2.586055e-05    0.000000e+00
-5.584065e-19    -2.583264e-05    0.000000e+00
2.717163e-06    -2.586055e-05    0.000000e+00
5.447509e-06    -2.594431e-05    0.000000e+00
8.204222e-06    -2.608391e-05    0.000000e+00
1.100049e-05    -2.627934e-05    0.000000e+00
1.384949e-05    -2.653062e-05    0.000000e+00
-1.448737e-05    -2.947511e-05    0.000000e+00
-1.151079e-05    -2.923430e-05    0.000000e+00
-8.586950e-06    -2.904701e-05    0.000000e+00
-5.702661e-06    -2.891323e-05    0.000000e+00
-2.844739e-06    -2.883296e-05    0.000000e+00
-5.599947e-19    -2.880621e-05    0.000000e+00
2.844739e-06    -2.883296e-05    0.000000e+00
5.702661e-06    -2.891323e-05    0.000000e+00
8.586950e-06    -2.904701e-05    0.000000e+00
1.151079e-05    -2.923430e-05    0.000000e+00
1.448737e-05    -2.947511e-05    0.000000e+00
-1.509811e-05    -3.254446e-05    0.000000e+00
-1.199938e-05    -3.231413e-05    0.000000e+00
-8.953392e-06    -3.213498e-05    0.000000e+00
-5.946955e-06    -3.200701e-05    0.000000e+00
-2.966886e-06    -3.193024e-05    0.000000e+00
-5.747119e-19    -3.190464e-05    0.000000e+00
2.966886e-06    -3.193024e-05    0.000000e+00
5.946955e-06    -3.200701e-05    0.000000e+00
8.953392e-06    -3.213498e-05    0.000000e+00
1.199938e-05    -3.231413e-05    0.000000e+00
1.509811e-05    -3.254446e-05    0.000000e+00
-1.568170e-05    -3.573325e-05    0.000000e+00
-1.246626e-05    -3.551338e-05    0.000000e+00
-9.303549e-06    -3.534238e-05    0.000000e+00
-6.180392e-06    -3.522023e-05    0.000000e+00
-3.083604e-06    -3.514694e-05    0.000000e+00
-6.009699e-19    -3.512251e-05    0.000000e+00
3.083604e-06    -3.514694e-05    0.000000e+00
6.180392e-06    -3.522023e-05    0.000000e+00
9.303549e-06    -3.534238e-05    0.000000e+00
1.246626e-05    -3.551338e-05    0.000000e+00
1.568170e-05    -3.573325e-05    0.000000e+00
-1.623815e-05    -3.903604e-05    0.000000e+00
-1.291142e-05    -3.882665e-05    0.000000e+00
-9.637419e-06    -3.866378e-05    0.000000e+00
-6.402972e-06    -3.854745e-05    0.000000e+00
-3.194894e-06    -3.847765e-05    0.000000e+00
-6.426862e-19    -3.845439e-05    0.000000e+00
3.194894e-06    -3.847765e-05    0.000000e+00
6.402972e-06    -3.854745e-05    0.000000e+00
9.637419e-06    -3.866378e-05    0.000000e+00
1.291142e-05    -3.882665e-05    0.000000e+00
1.623815e-05    -3.903604e-05    0.000000e+00
-1.676746e-05    -4.244741e-05    0.000000e+00
-1.333486e-05    -4.224848e-05    0.000000e+00
-9.955003e-06    -4.209376e-05    0.000000e+00
-6.614695e-06    -4.198325e-05    0.000000e+00
-3.300755e-06    -4.191694e-05    0.000000e+00
-7.021903e-19    -4.189484e-05    0.000000e+00
3.300755e-06    -4.191694e-05    0.000000e+00
6.614695e-06    -4.198325e-05    0.000000e+00
9.955003e-06    -4.209376e-05    0.000000e+00
1.333486e-05    -4.224848e-05    0.000000e+00
1.676746e-05    -4.244741e-05    0.000000e+00
-1.726962e-05    -4.596192e-05    0.000000e+00
-1.373659e-05    -4.577347e-05    0.000000e+00
-1.025630e-05    -4.562689e-05    0.000000e+00
-6.815560e-06    -4.552219e-05    0.000000e+00
-3.401188e-06    -4.545937e-05    0.000000e+00
-7.428479e-19    -4.543843e-05    0.000000e+00
3.401188e-06    -4.545937e-05    0.000000e+00
6.815560e-06    -4.552219e-05    0.000000e+00
1.025630e-05    -4.562689e-05    0.000000e+00
1.373659e-05    -4.577347e-05    0.000000e+00
1.726962e-05    -4.596192e-05    0.000000e+00
-1.774464e-05    -4.957415e-05    0.000000e+00
-1.411661e-05    -4.939617e-05    0.000000e+00
-1.054131e-05    -4.925773e-05    0.000000e+00
-7.005568e-06    -4.915885e-05    0.000000e+00
-3.496192e-06    -4.909952e-05    0.000000e+00
-7.684706e-19    -4.907975e-05    0.000000e+00
3.496192e-06    -4.909952e-05    0.000000e+00
7.005568e-06    -4.915885e-05    0.000000e+00
1.054131e-05    -4.925773e-05    0.000000e+00
1.411661e-05    -4.939617e-05    0.000000e+00
1.774464e-05    -4.957415e-05    0.000000e+00
-1.819252e-05    -5.327868e-05    0.000000e+00
-1.447491e-05    -5.311116e-05    0.000000e+00
-1.081004e-05    -5.298087e-05    0.000000e+00
-7.184718e-06    -5.288780e-05    0.000000e+00
-3.585767e-06    -5.283196e-05    0.000000e+00
-8.091282e-19    -5.281335e-05    0.000000e+00
3.585767e-06    -5.283196e-05    0.000000e+00
7.184718e-06    -5.288780e-05    0.000000e+00
1.081004e-05    -5.298087e-05    0.000000e+00
1.447491e-05    -5.311116e-05    0.000000e+00
1.819252e-05    -5.327868e-05    0.000000e+00
-1.861325e-05    -5.707006e-05    0.000000e+00
-1.481149e-05    -5.691301e-05    0.000000e+00
-1.106248e-05    -5.679086e-05    0.000000e+00
-7.353011e-06    -5.670361e-05    0.000000e+00
-3.669914e-06    -5.665126e-05    0.000000e+00
-8.178103e-19    -5.663381e-05    0.000000e+00
3.669914e-06    -5.665126e-05    0.000000e+00
7.353011e-06    -5.670361e-05    0.000000e+00
1.106248e-05    -5.679086e-05    0.000000e+00
1.481149e-05    -5.691301e-05    0.000000e+00
1.861325e-05    -5.707006e-05    0.000000e+00
-1.900683e-05    -6.094287e-05    0.000000e+00
-1.512636e-05    -6.079629e-05    0.000000e+00
-1.129863e-05    -6.068229e-05    0.000000e+00
-7.510448e-06    -6.060086e-05    0.000000e+00
-3.748633e-06    -6.055200e-05    0.000000e+00
-8.258571e-19    -6.053571e-05    0.000000e+00
3.748633e-06    -6.055200e-05    0.000000e+00
7.510448e-06    -6.060086e-05    0.000000e+00
1.129863e-05    -6.068229e-05    0.000000e+00
1.512636e-05    -6.079629e-05    0.000000e+00
1.900683e-05    -6.094287e-05    0.000000e+00
-1.937327e-05    -6.489169e-05    0.000000e+00
-1.541952e-05    -6.475558e-05    0.000000e+00
-1.151850e-05    -6.464972e-05    0.000000e+00
-7.657028e-06    -6.457410e-05    0.000000e+00
-3.821923e-06    -6.452873e-05    0.000000e+00
-8.370803e-19    -6.451361e-05    0.000000e+00
3.821923e-06    -6.452873e-05    0.000000e+00
7.657028e-06    -6.457410e-05    0.000000e+00
1.151850e-05    -6.464972e-05    0.000000e+00
1.541952e-05    -6.475558e-05    0.000000e+00
1.937327e-05    -6.489169e-05    0.000000e+00
-1.971256e-05    -6.891107e-05    0.000000e+00
-1.569095e-05    -6.878544e-05    0.000000e+00
-1.172208e-05    -6.868772e-05    0.000000e+00
-7.792750e-06    -6.861792e-05    0.000000e+00
-3.889784e-06    -6.857604e-05    0.000000e+00
-8.307276e-19    -6.856208e-05    0.000000e+00
3.889784e-06    -6.857604e-05    0.000000e+00
7.792750e-06    -6.861792e-05    0.000000e+00
1.172208e-05    -6.868772e-05    0.000000e+00
1.569095e-05    -6.878544e-05    0.000000e+00
1.971256e-05    -6.891107e-05    0.000000e+00
-2.002471e-05    -7.299559e-05    0.000000e+00
-1.594068e-05    -7.288043e-05    0.000000e+00
-1.190938e-05    -7.279086e-05    0.000000e+00
-7.917611e-06    -7.272688e-05    0.000000e+00
-3.952212e-06    -7.268851e-05    0.000000e+00
-8.377156e-19    -7.267572e-05    0.000000e+00
3.952212e-06    -7.268851e-05    0.000000e+00
7.917611e-06    -7.272688e-05    0.000000e+00
1.190938e-05    -7.279086e-05    0.000000e+00
1.594068e-05    -7.288043e-05    0.000000e+00
2.002471e-05    -7.299559e-05    0.000000e+00
-2.030971e-05    -7.713981e-05    0.000000e+00
-1.616869e-05    -7.703511e-05    0.000000e+00
-1.208038e-05    -7.695370e-05    0.000000e+00
-8.031599e-06    -7.689557e-05    0.000000e+00
-4.009198e-06    -7.686071e-05    0.000000e+00
-8.741380e-19    -7.684909e-05    0.000000e+00
4.009198e-06    -7.686071e-05    0.000000e+00
8.031599e-06    -7.689557e-05    0.000000e+00
1.208038e-05    -7.695370e-05    0.000000e+00
1.616869e-05    -7.703511e-05    0.000000e+00
2.030971e-05    -7.713981e-05    0.000000e+00
-2.056757e-05    -8.133827e-05    0.000000e+00
-1.637501e-05    -8.124404e-05    0.000000e+00
-1.223508e-05    -8.117079e-05    0.000000e+00
-8.134685e-06    -8.111855e-05    0.000000e+00
-4.060719e-06    -8.108725e-05    0.000000e+00
-9.207248e-19    -8.107682e-05    0.000000e+00
4.060719e-06    -8.108725e-05    0.000000e+00
8.134685e-06    -8.111855e-05    0.000000e+00
1.223508e-05    -8.117079e-05    0.000000e+00
1.637501e-05    -8.124404e-05    0.000000e+00
2.056757e-05    -8.133827e-05    0.000000e+00
-2.079833e-05    -8.558550e-05    0.000000e+00
-1.655963e-05    -8.550173e-05    0.000000e+00
-1.237344e-05    -8.543669e-05    0.000000e+00
-8.226802e-06    -8.539041e-05    0.000000e+00
-4.106724e-06    -8.536275e-05    0.000000e+00
-9.863699e-19    -8.535356e-05    0.000000e+00
4.106724e-06    -8.536275e-05    0.000000e+00
8.226802e-06    -8.539041e-05    0.000000e+00
1.237344e-05    -8.543669e-05    0.000000e+00
1.655963e-05    -8.550173e-05    0.000000e+00
2.079833e-05    -8.558550e-05    0.000000e+00
-2.100210e-05    -8.987603e-05    0.000000e+00
-1.672261e-05    -8.980269e-05    0.000000e+00
-1.249537e-05    -8.974594e-05    0.000000e+00
-8.307807e-06    -8.970578e-05    0.000000e+00
-4.147107e-06    -8.968192e-05    0.000000e+00
-1.041003e-18    -8.967401e-05    0.000000e+00
4.147107e-06    -8.968192e-05    0.000000e+00
8.307807e-06    -8.970578e-05    0.000000e+00
1.249537e-05    -8.974594e-05    0.000000e+00
1.672261e-05    -8.980269e-05    0.000000e+00
2.100210e-05    -8.987603e-05    0.000000e+00
-2.117912e-05    -9.420439e-05    0.000000e+00
-1.686399e-05    -9.414142e-05    0.000000e+00
-1.260070e-05    -9.409307e-05    0.000000e+00
-8.377428e-06    -9.405931e-05    0.000000e+00
-4.181679e-06    -9.403948e-05    0.000000e+00
-1.066838e-18    -9.403296e-05    0.000000e+00
4.181679e-06    -9.403948e-05    0.000000e+00
8.377428e-06    -9.405931e-05    0.000000e+00
1.260070e-05    -9.409307e-05    0.000000e+00
1.686399e-05    -9.414142e-05    0.000000e+00
2.117912e-05    -9.420439e-05    0.000000e+00
-2.132994e-05    -9.856523e-05    0.000000e+00
-1.698387e-05    -9.851248e-05    0.000000e+00
-1.268909e-05    -9.847276e-05    0.000000e+00
-8.435205e-06    -9.844575e-05    0.000000e+00
-4.210141e-06    -9.843026e-05    0.000000e+00
-1.112578e-18    -9.842523e-05    0.000000e+00
4.210141e-06    -9.843026e-05    0.000000e+00
8.435205e-06    -9.844575e-05    0.000000e+00
1.268909e-05    -9.847276e-05    0.000000e+00
1.698387e-05    -9.851248e-05    0.000000e+00
2.132994e-05    -9.856523e-05    0.000000e+00
-2.145562e-05    -1.029537e-04    0.000000e+00
-1.708235e-05    -1.029109e-04    0.000000e+00
-1.275997e-05    -1.028800e-04    0.000000e+00
-8.480517e-06    -1.028600e-04    0.000000e+00
-4.232143e-06    -1.028489e-04    0.000000e+00
-1.158318e-18    -1.028454e-04    0.000000e+00
4.232143e-06    -1.028489e-04    0.000000e+00
8.480517e-06    -1.028600e-04    0.000000e+00
1.275997e-05    -1.028800e-04    0.000000e+00
1.708235e-05    -1.029109e-04    0.000000e+00
2.145562e-05    -1.029537e-04    0.000000e+00
-2.155817e-05    -1.073660e-04    0.000000e+00
-1.715935e-05    -1.073327e-04    0.000000e+00
-1.281258e-05    -1.073105e-04    0.000000e+00
-8.512904e-06    -1.072970e-04    0.000000e+00
-4.247579e-06    -1.072895e-04    0.000000e+00
-1.101990e-18    -1.072870e-04    0.000000e+00
4.247579e-06    -1.072895e-04    0.000000e+00
8.512904e-06    -1.072970e-04    0.000000e+00
1.281258e-05    -1.073105e-04    0.000000e+00
1.715935e-05    -1.073327e-04    0.000000e+00
2.155817e-05    -1.073660e-04    0.000000e+00
-2.164067e-05    -1.118022e-04    0.000000e+00
-1.721429e-05    -1.117772e-04    0.000000e+00
-1.284670e-05    -1.117621e-04    0.000000e+00
-8.533270e-06    -1.117511e-04    0.000000e+00
-4.257281e-06    -1.117436e-04    0.000000e+00
-1.029992e-18    -1.117409e-04    0.000000e+00
4.257281e-06    -1.117436e-04    0.000000e+00
8.533270e-06    -1.117511e-04    0.000000e+00
1.284670e-05    -1.117621e-04    0.000000e+00
1.721429e-05    -1.117772e-04    0.000000e+00
2.164067e-05    -1.118022e-04    0.000000e+00
-2.170513e-05    -1.162704e-04    0.000000e+00
-1.724615e-05    -1.162523e-04    0.000000e+00
-1.286626e-05    -1.162338e-04    0.000000e+00
-8.546206e-06    -1.162132e-04    0.000000e+00
-4.263865e-06    -1.161978e-04    0.000000e+00
-1.029569e-18    -1.161922e-04    0.000000e+00
4.263865e-06    -1.161978e-04    0.000000e+00
8.546206e-06    -1.162132e-04    0.000000e+00
1.286626e-05    -1.162338e-04    0.000000e+00
1.724615e-05    -1.162523e-04    0.000000e+00
2.170513e-05    -1.162704e-04    0.000000e+00
-2.173924e-05    -1.208105e-04    0.000000e+00
-1.726634e-05    -1.207758e-04    0.000000e+00
-1.288608e-05    -1.207173e-04    0.000000e+00
-8.561321e-06    -1.206645e-04    0.000000e+00
-4.272039e-06    -1.206293e-04    0.000000e+00
-1.024063e-18    -1.206170e-04    0.000000e+00
4.272039e-06    -1.206293e-04    0.000000e+00
8.561321e-06    -1.206645e-04    0.000000e+00
1.288608e-05    -1.207173e-04    0.000000e+00
1.726634e-05    -1.207758e-04    0.000000e+00
2.173924e-05    -1.208105e-04    0.000000e+00

CELL_DATA      400
TENSORS Element_Stress9.800000e-01 double
1.820598e+06 2.551812e+05        0
2.551812e+05 4.163488e+05        0
       0        0        0

1.243720e+06 1.308538e+05        0
1.308538e+05 3.566178e+05        0
       0        0        0

8.651185e+05 4.301032e+04        0
4.301032e+04 2.749959e+05        0
       0        0        0

5.100063e+05 -3.578363e+03        0
-3.578363e+03 1.690094e+05        0
       0        0        0

1.688541e+05 -2.488323e+04        0
-2.488323e+04 5.694968e+04        0
       0        0        0

-1.688184e+05 -2.487711e+04        0
-2.487711e+04 -5.695775e+04        0
       0        0        0

-5.095306e+05 -3.579112e+03        0
-3.579112e+03 -1.688447e+05        0
       0        0        0

-8.637077e+05 4.293851e+04        0
4.293851e+04 -2.744671e+05        0
       0        0        0

-1.240734e+06 1.305652e+05        0
1.305652e+05 -3.554740e+05        0
       0        0        0

-1.814375e+06 2.543707e+05        0
2.543707e+05 -4.141970e+05        0
       0        0        0

1.642070e+06 4.159748e+04        0
4.159748e+04 4.234799e+03        0
       0        0        0

1.322354e+06 1.206454e+05        0
1.206454e+05 1.286843e+05        0
       0        0        0

9.082521e+05 9.900755e+04        0
9.900755e+04 1.315191e+05        0
       0        0        0

5.364025e+05 7.580678e+04        0
7.580678e+04 9.193311e+04        0
       0        0        0

1.768172e+05 6.321707e+04        0
6.321707e+04 3.207757e+04        0
       0        0        0

-1.778550e+05 6.319873e+04        0
6.319873e+04 -3.316896e+04        0
       0        0        0

-5.369363e+05 7.574133e+04        0
7.574133e+04 -9.284490e+04        0
       0        0        0

-9.077061e+05 9.886737e+04        0
9.886737e+04 -1.320379e+05        0
       0        0        0

-1.319830e+06 1.204079e+05        0
1.204079e+05 -1.284324e+05        0
       0        0        0

-1.637466e+06 4.151082e+04        0
4.151082e+04 -3.136555e+03        0
       0        0        0

1.584953e+06 1.541639e+04        0
1.541639e+04 6.615316e+03        0
       0        0        0

1.271591e+06 6.833109e+04        0
6.833109e+04 1.757728e+04        0
       0        0        0

9.146413e+05 1.015639e+05        0
1.015639e+05 4.237686e+04        0
       0        0        0

5.430826e+05 1.074765e+05        0
1.074765e+05 3.592346e+04        0
       0        0        0

1.791459e+05 1.074054e+05        0
1.074054e+05 1.272037e+04        0
       0        0        0

-1.824790e+05 1.073775e+05        0
1.073775e+05 -1.611190e+04        0
       0        0        0

-5.458838e+05 1.073933e+05        0
1.073933e+05 -3.912503e+04        0
       0        0        0

-9.163117e+05 1.014348e+05        0
1.014348e+05 -4.515293e+04        0
       0        0        0

-1.271565e+06 6.821622e+04        0
6.821622e+04 -1.966893e+04        0
       0        0        0

-1.582978e+06 1.538448e+04        0
1.538448e+04 -7.911807e+03        0
       0        0        0

1.546129e+06 1.427370e+04        0
1.427370e+04 -3.975752e+03        0
       0        0        0

1.226683e+06 5.548208e+04        0
5.548208e+04 -1.953361e+03        0
       0        0        0

8.865538e+05 9.245024e+04        0
9.245024e+04 2.933168e+03        0
       0        0        0

5.331314e+05 1.146030e+05        0
1.146030e+05 5.877770e+03        0
       0        0        0

1.753740e+05 1.233579e+05        0
1.233579e+05 6.880625e+02        0
       0        0        0

-1.820438e+05 1.233283e+05        0
1.233283e+05 -7.415933e+03        0
       0        0        0

-5.392752e+05 1.145213e+05        0
1.145213e+05 -1.241206e+04        0
       0        0        0

-8.916350e+05 9.234262e+04        0
9.234262e+04 -9.058365e+03        0
       0        0        0

-1.230189e+06 5.539388e+04        0
5.539388e+04 -3.528931e+03        0
       0        0        0

-1.547532e+06 1.424568e+04        0
1.424568e+04 -5.504384e+02        0
       0        0        0

1.509427e+06 1.713063e+04        0
1.713063e+04 -5.567249e+03        0
       0        0        0

1.185340e+06 5.448733e+04        0
5.448733e+04 -8.577651e+03        0
       0        0        0

8.541561e+05 8.905469e+04        0
8.905469e+04 -8.329305e+03        0
       0        0        0

5.137340e+05 1.136408e+05        0
1.136408e+05 -6.745280e+03        0
       0        0        0

1.681056e+05 1.258450e+05        0
1.258450e+05 -5.639044e+03        0
       0        0        0

-1.789903e+05 1.258166e+05        0
1.258166e+05 -5.300819e+03        0
       0        0        0

-5.241237e+05 1.135646e+05        0
1.135646e+05 -4.010288e+03        0
       0        0        0

-8.635542e+05 8.895612e+04        0
8.895612e+04 -2.042812e+03        0
       0        0        0

-1.193244e+06 5.440409e+04        0
5.440409e+04 -1.179541e+03        0
       0        0        0

-1.515273e+06 1.709766e+04        0
1.709766e+04 -3.264824e+03        0
       0        0        0

1.469671e+06 1.958963e+04        0
1.958963e+04 -7.911531e+03        0
       0        0        0

1.147077e+06 5.644559e+04        0
5.644559e+04 -1.054799e+04        0
       0        0        0

8.224151e+05 8.838594e+04        0
8.838594e+04 -1.192774e+04        0
       0        0        0

4.928620e+05 1.117722e+05        0
1.117722e+05 -1.113898e+04        0
       0        0        0

1.594065e+05 1.239614e+05        0
1.239614e+05 -9.157848e+03        0
       0        0        0

-1.752704e+05 1.239347e+05        0
1.239347e+05 -6.757342e+03        0
       0        0        0

-5.082716e+05 1.117003e+05        0
1.117003e+05 -4.611022e+03        0
       0        0        0

-8.369138e+05 8.829171e+04        0
8.829171e+04 -3.479956e+03        0
       0        0        0

-1.160194e+06 5.636191e+04        0
5.636191e+04 -4.312364e+03        0
       0        0        0

-1.480879e+06 1.955284e+04        0
1.955284e+04 -6.139554e+03        0
       0        0        0

1.427069e+06 2.114429e+04        0
2.114429e+04 -1.052964e+04        0
       0        0        0

1.109854e+06 5.834958e+04        0
5.834958e+04 -1.236661e+04        0
       0        0        0

7.924051e+05 8.864128e+04        0
8.864128e+04 -1.362108e+04        0
       0        0        0

4.726277e+05 1.103428e+05        0
1.103428e+05 -1.337050e+04        0
       0        0        0

1.506199e+05 1.216735e+05        0
1.216735e+05 -1.181697e+04        0
       0        0        0

-1.721469e+05 1.216483e+05        0
1.216483e+05 -9.757740e+03        0
       0        0        0

-4.937482e+05 1.102742e+05        0
1.102742e+05 -8.067258e+03        0
       0        0        0

-8.127094e+05 8.854973e+04        0
8.854973e+04 -7.533908e+03        0
       0        0        0

-1.128918e+06 5.826553e+04        0
5.826553e+04 -8.339735e+03        0
       0        0        0

-1.444434e+06 2.110561e+04        0
2.110561e+04 -9.528609e+03        0
       0        0        0

1.382471e+06 2.200181e+04        0
2.200181e+04 -1.363722e+04        0
       0        0        0

1.072891e+06 5.961398e+04        0
5.961398e+04 -1.472183e+04        0
       0        0        0

7.635785e+05 8.901007e+04        0
8.901007e+04 -1.557414e+04        0
       0        0        0

4.533125e+05 1.094858e+05        0
1.094858e+05 -1.552412e+04        0
       0        0        0

1.419522e+05 1.200358e+05        0
1.200358e+05 -1.458784e+04        0
       0        0        0

-1.697603e+05 1.200117e+05        0
1.200117e+05 -1.326479e+04        0
       0        0        0

-4.807667e+05 1.094198e+05        0
1.094198e+05 -1.222641e+04        0
       0        0        0

-7.903212e+05 8.892090e+04        0
8.892090e+04 -1.196593e+04        0
       0        0        0

-1.098554e+06 5.953060e+04        0
5.953060e+04 -1.248635e+04        0
       0        0        0

-1.406666e+06 2.196271e+04        0
2.196271e+04 -1.309846e+04        0
       0        0        0

1.336650e+06 2.243103e+04        0
2.243103e+04 -1.712975e+04        0
       0        0        0

1.035846e+06 6.032508e+04        0
6.032508e+04 -1.770734e+04        0
       0        0        0

7.353690e+05 8.928001e+04        0
8.928001e+04 -1.819357e+04        0
       0        0        0

4.345842e+05 1.090314e+05        0
1.090314e+05 -1.820574e+04        0
       0        0        0

1.333510e+05 1.190751e+05        0
1.190751e+05 -1.770719e+04        0
       0        0        0

-1.679948e+05 1.190519e+05        0
1.190519e+05 -1.697818e+04        0
       0        0        0

-4.689286e+05 1.089678e+05        0
1.089678e+05 -1.641605e+04        0
       0        0        0

-7.691116e+05 8.919329e+04        0
8.919329e+04 -1.629667e+04        0
       0        0        0

-1.068676e+06 6.024325e+04        0
6.024325e+04 -1.657480e+04        0
       0        0        0

-1.368246e+06 2.239236e+04        0
2.239236e+04 -1.685617e+04        0
       0        0        0

1.290108e+06 2.262769e+04        0
2.262769e+04 -2.093370e+04        0
       0        0        0

9.986145e+05 6.068320e+04        0
6.068320e+04 -2.119241e+04        0
       0        0        0

7.073840e+05 8.943847e+04        0
8.943847e+04 -2.142407e+04        0
       0        0        0

4.161153e+05 1.088122e+05        0
1.088122e+05 -2.143279e+04        0
       0        0        0

1.247137e+05 1.185759e+05        0
1.185759e+05 -2.118594e+04        0
       0        0        0

-1.666835e+05 1.185536e+05        0
1.185536e+05 -2.082274e+04        0
       0        0        0

-4.578408e+05 1.087507e+05        0
1.087507e+05 -2.055219e+04        0
       0        0        0

-7.486181e+05 8.935433e+04        0
8.935433e+04 -2.051028e+04        0
       0        0        0

-1.039104e+06 6.060345e+04        0
6.060345e+04 -2.065826e+04        0
       0        0        0

-1.329592e+06 2.258991e+04        0
2.258991e+04 -2.079207e+04        0
       0        0        0

1.243138e+06 2.270943e+04        0
2.270943e+04 -2.498210e+04        0
       0        0        0

9.611829e+05 6.084707e+04        0
6.084707e+04 -2.504187e+04        0
       0        0        0

6.794119e+05 8.952007e+04        0
8.952007e+04 -2.510676e+04        0
       0        0        0

3.976942e+05 1.087151e+05        0
1.087151e+05 -2.508705e+04        0
       0        0        0

1.159751e+05 1.183403e+05        0
1.183403e+05 -2.496213e+04        0
       0        0        0

-1.656966e+05 1.183187e+05        0
1.183187e+05 -2.479576e+04        0
       0        0        0

-4.472257e+05 1.086557e+05        0
1.086557e+05 -2.468699e+04        0
       0        0        0

-7.285608e+05 8.943859e+04        0
8.943859e+04 -2.469694e+04        0
       0        0        0

-1.009752e+06 6.076971e+04        0
6.076971e+04 -2.480000e+04        0
       0        0        0

-1.290922e+06 2.267274e+04        0
2.267274e+04 -2.489961e+04        0
       0        0        0

1.195902e+06 2.273919e+04        0
2.273919e+04 -2.922324e+04        0
       0        0        0

9.235708e+05 6.091458e+04        0
6.091458e+04 -2.915047e+04        0
       0        0        0

6.513590e+05 8.955767e+04        0
8.955767e+04 -2.910387e+04        0
       0        0        0

3.792147e+05 1.086759e+05        0
1.086759e+05 -2.904718e+04        0
       0        0        0

1.071092e+05 1.182389e+05        0
1.182389e+05 -2.896999e+04        0
       0        0        0

-1.649443e+05 1.182180e+05        0
1.182180e+05 -2.889900e+04        0
       0        0        0

-4.369126e+05 1.086185e+05        0
1.086185e+05 -2.887696e+04        0
       0        0        0

-7.087800e+05 8.947891e+04        0
8.947891e+04 -2.892824e+04        0
       0        0        0

-9.805709e+05 6.083975e+04        0
6.083975e+04 -2.903784e+04        0
       0        0        0

-1.252330e+06 2.270369e+04        0
2.270369e+04 -2.916302e+04        0
       0        0        0

1.148491e+06 2.274763e+04        0
2.274763e+04 -3.361527e+04        0
       0        0        0

8.858087e+05 6.093851e+04        0
6.093851e+04 -3.344415e+04        0
       0        0        0

6.231974e+05 8.957284e+04        0
8.957284e+04 -3.331675e+04        0
       0        0        0

3.606384e+05 1.086618e+05        0
1.086618e+05 -3.322145e+04        0
       0        0        0

9.811734e+04 1.181997e+05        0
1.181997e+05 -3.315416e+04        0
       0        0        0

-1.643651e+05 1.181796e+05        0
1.181796e+05 -3.312513e+04        0
       0        0        0

-4.268000e+05 1.086064e+05        0
1.086064e+05 -3.315081e+04        0
       0        0        0

-6.891844e+05 8.949683e+04        0
8.949683e+04 -3.323922e+04        0
       0        0        0

-9.515284e+05 6.086627e+04        0
6.086627e+04 -3.338182e+04        0
       0        0        0

-1.213844e+06 2.271337e+04        0
2.271337e+04 -3.356049e+04        0
       0        0        0

1.100960e+06 2.274841e+04        0
2.274841e+04 -3.812278e+04        0
       0        0        0

8.479289e+05 6.094459e+04        0
6.094459e+04 -3.787019e+04        0
       0        0        0

5.949322e+05 8.957762e+04        0
8.957762e+04 -3.767803e+04        0
       0        0        0

3.419635e+05 1.086573e+05        0
1.086573e+05 -3.754494e+04        0
       0        0        0

8.901558e+04 1.181867e+05        0
1.181867e+05 -3.747027e+04        0
       0        0        0

-1.639142e+05 1.181674e+05        0
1.181674e+05 -3.745768e+04        0
       0        0        0

-4.168253e+05 1.086039e+05        0
1.086039e+05 -3.751247e+04        0
       0        0        0

-6.697180e+05 8.950436e+04        0
8.950436e+04 -3.763608e+04        0
       0        0        0

-9.225952e+05 6.087498e+04        0
6.087498e+04 -3.782343e+04        0
       0        0        0

-1.175457e+06 2.271539e+04        0
2.271539e+04 -3.806658e+04        0
       0        0        0

1.053347e+06 2.274703e+04        0
2.274703e+04 -4.271420e+04        0
       0        0        0

8.099626e+05 6.094429e+04        0
6.094429e+04 -4.238866e+04        0
       0        0        0

5.665832e+05 8.957803e+04        0
8.957803e+04 -4.214000e+04        0
       0        0        0

3.232060e+05 1.086559e+05        0
1.086559e+05 -4.197068e+04        0
       0        0        0

7.982720e+04 1.181835e+05        0
1.181835e+05 -4.188171e+04        0
       0        0        0

-1.635563e+05 1.181649e+05        0
1.181649e+05 -4.187447e+04        0
       0        0        0

-4.069457e+05 1.086046e+05        0
1.086046e+05 -4.195008e+04        0
       0        0        0

-6.503417e+05 8.950753e+04        0
8.950753e+04 -4.210767e+04        0
       0        0        0

-8.937438e+05 6.087730e+04        0
6.087730e+04 -4.234382e+04        0
       0        0        0

-1.137148e+06 2.271526e+04        0
2.271526e+04 -4.265429e+04        0
       0        0        0

1.005683e+06 2.274539e+04        0
2.274539e+04 -4.736038e+04        0
       0        0        0

7.719394e+05 6.094219e+04        0
6.094219e+04 -4.696667e+04        0
       0        0        0

5.381756e+05 8.957681e+04        0
8.957681e+04 -4.666608e+04        0
       0        0        0

3.043894e+05 1.086553e+05        0
1.086553e+05 -4.646218e+04        0
       0        0        0

7.057816e+04 1.181832e+05        0
1.181832e+05 -4.635676e+04        0
       0        0        0

-1.632605e+05 1.181653e+05        0
1.181653e+05 -4.635058e+04        0
       0        0        0

-3.971278e+05 1.086060e+05        0
1.086060e+05 -4.644347e+04        0
       0        0        0

-6.310240e+05 8.950907e+04        0
8.950907e+04 -4.663394e+04        0
       0        0        0

-8.649473e+05 6.087783e+04        0
6.087783e+04 -4.691929e+04        0
       0        0        0

-1.098893e+06 2.271487e+04        0
2.271487e+04 -4.729637e+04        0
       0        0        0

9.579955e+05 2.274400e+04        0
2.274400e+04 -5.203381e+04        0
       0        0        0

7.338873e+05 6.093989e+04        0
6.093989e+04 -5.157525e+04        0
       0        0        0

5.097360e+05 8.957508e+04        0
8.957508e+04 -5.122566e+04        0
       0        0        0

2.855393e+05 1.086546e+05        0
1.086546e+05 -5.098880e+04        0
       0        0        0

6.129495e+04 1.181835e+05        0
1.181835e+05 -5.086675e+04        0
       0        0        0

-1.629989e+05 1.181663e+05        0
1.181663e+05 -5.086025e+04        0
       0        0        0

-3.873432e+05 1.086073e+05        0
1.086073e+05 -5.096887e+04        0
       0        0        0

-6.117373e+05 8.951011e+04        0
8.951011e+04 -5.119108e+04        0
       0        0        0

-8.361791e+05 6.087815e+04        0
6.087815e+04 -5.152449e+04        0
       0        0        0

-1.060664e+06 2.271473e+04        0
2.271473e+04 -5.196605e+04        0
       0        0        0

9.103102e+05 2.274290e+04        0
2.274290e+04 -5.670829e+04        0
       0        0        0

6.958326e+05 6.093780e+04        0
6.093780e+04 -5.618768e+04        0
       0        0        0

4.812907e+05 8.957328e+04        0
8.957328e+04 -5.579141e+04        0
       0        0        0

2.666817e+05 1.086537e+05        0
1.086537e+05 -5.552312e+04        0
       0        0        0

5.200354e+04 1.181835e+05        0
1.181835e+05 -5.538500e+04        0
       0        0        0

-1.627453e+05 1.181671e+05        0
1.181671e+05 -5.537790e+04        0
       0        0        0

-3.775653e+05 1.086084e+05        0
1.086084e+05 -5.550144e+04        0
       0        0        0

-5.924555e+05 8.951107e+04        0
8.951107e+04 -5.575422e+04        0
       0        0        0

-8.074137e+05 6.087870e+04        0
6.087870e+04 -5.613390e+04        0
       0        0        0

-1.022436e+06 2.271486e+04        0
2.271486e+04 -5.663735e+04        0
       0        0        0

8.626520e+05 2.274198e+04        0
2.274198e+04 -6.135878e+04        0
       0        0        0

6.578008e+05 6.093596e+04        0
6.093596e+04 -6.077882e+04        0
       0        0        0

4.528650e+05 8.957150e+04        0
8.957150e+04 -6.033795e+04        0
       0        0        0

2.478418e+05 1.086526e+05        0
1.086526e+05 -6.003971e+04        0
       0        0        0

4.272898e+04 1.181833e+05        0
1.181833e+05 -5.988630e+04        0
       0        0        0

-1.624747e+05 1.181676e+05        0
1.181676e+05 -5.987867e+04        0
       0        0        0

-3.677693e+05 1.086093e+05        0
1.086093e+05 -6.001656e+04        0
       0        0        0

-5.731539e+05 8.951206e+04        0
8.951206e+04 -6.029866e+04        0
       0        0        0

-7.786261e+05 6.087948e+04        0
6.087948e+04 -6.072266e+04        0
       0        0        0

-9.841819e+05 2.271520e+04        0
2.271520e+04 -6.128530e+04        0
       0        0        0

8.150447e+05 2.274119e+04        0
2.274119e+04 -6.596136e+04        0
       0        0        0

6.198157e+05 6.093429e+04        0
6.093429e+04 -6.532473e+04        0
       0        0        0

4.244830e+05 8.956978e+04        0
8.956978e+04 -6.484132e+04        0
       0        0        0

2.290436e+05 1.086514e+05        0
1.086514e+05 -6.451456e+04        0
       0        0        0

3.349528e+04 1.181828e+05        0
1.181828e+05 -6.434667e+04        0
       0        0        0

-1.621631e+05 1.181678e+05        0
1.181678e+05 -6.433865e+04        0
       0        0        0

-3.579315e+05 1.086101e+05        0
1.086101e+05 -6.449035e+04        0
       0        0        0

-5.538087e+05 8.951311e+04        0
8.951311e+04 -6.480052e+04        0
       0        0        0

-7.497925e+05 6.088043e+04        0
6.088043e+04 -6.526685e+04        0
       0        0        0

-9.458791e+05 2.271565e+04        0
2.271565e+04 -6.588596e+04        0
       0        0        0

7.675109e+05 2.274046e+04        0
2.274046e+04 -7.049318e+04        0
       0        0        0

5.819002e+05 6.093273e+04        0
6.093273e+04 -6.980260e+04        0
       0        0        0

3.961677e+05 8.956811e+04        0
8.956811e+04 -6.927870e+04        0
       0        0        0

2.103102e+05 1.086501e+05        0
1.086501e+05 -6.892486e+04        0
       0        0        0

2.432535e+04 1.181822e+05        0
1.181822e+05 -6.874327e+04        0
       0        0        0

-1.617877e+05 1.181679e+05        0
1.181679e+05 -6.873499e+04        0
       0        0        0

-3.480290e+05 1.086108e+05        0
1.086108e+05 -6.889993e+04        0
       0        0        0

-5.343973e+05 8.951420e+04        0
8.951420e+04 -6.923690e+04        0
       0        0        0

-7.208901e+05 6.088150e+04        0
6.088150e+04 -6.974356e+04        0
       0        0        0

-9.075041e+05 2.271617e+04        0
2.271617e+04 -7.041649e+04        0
       0        0        0

7.200723e+05 2.273978e+04        0
2.273978e+04 -7.493249e+04        0
       0        0        0

5.440762e+05 6.093125e+04        0
6.093125e+04 -7.419071e+04        0
       0        0        0

3.679410e+05 8.956648e+04        0
8.956648e+04 -7.362841e+04        0
       0        0        0

1.916633e+05 1.086488e+05        0
1.086488e+05 -7.324889e+04        0
       0        0        0

1.524098e+04 1.181815e+05        0
1.181815e+05 -7.305436e+04        0
       0        0        0

-1.613270e+05 1.181679e+05        0
1.181679e+05 -7.304590e+04        0
       0        0        0

-3.380404e+05 1.086115e+05        0
1.086115e+05 -7.322349e+04        0
       0        0        0

-5.148979e+05 8.951533e+04        0
8.951533e+04 -7.358598e+04        0
       0        0        0

-6.918973e+05 6.088265e+04        0
6.088265e+04 -7.413101e+04        0
       0        0        0

-8.690350e+05 2.271673e+04        0
2.271673e+04 -7.485511e+04        0
       0        0        0

6.727496e+05 2.273915e+04        0
2.273915e+04 -7.925863e+04        0
       0        0        0

5.063643e+05 6.092987e+04        0
6.092987e+04 -7.846843e+04        0
       0        0        0

3.398235e+05 8.956489e+04        0
8.956489e+04 -7.786983e+04        0
       0        0        0

1.731238e+05 1.086474e+05        0
1.086474e+05 -7.746605e+04        0
       0        0        0

6.262879e+03 1.181806e+05        0
1.181806e+05 -7.725929e+04        0
       0        0        0

-1.607601e+05 1.181679e+05        0
1.181679e+05 -7.725069e+04        0
       0        0        0

-3.279448e+05 1.086121e+05        0
1.086121e+05 -7.744030e+04        0
       0        0        0

-4.952900e+05 8.951651e+04        0
8.951651e+04 -7.782701e+04        0
       0        0        0

-6.627933e+05 6.088389e+04        0
6.088389e+04 -7.840849e+04        0
       0        0        0

-8.304513e+05 2.271735e+04        0
2.271735e+04 -7.918115e+04        0
       0        0        0

6.255623e+05 2.273859e+04        0
2.273859e+04 -8.345202e+04        0
       0        0        0

4.687842e+05 6.092860e+04        0
6.092860e+04 -8.261621e+04        0
       0        0        0

3.118350e+05 8.956335e+04        0
8.956335e+04 -8.198342e+04        0
       0        0        0

1.547113e+05 1.086460e+05        0
1.086460e+05 -8.155678e+04        0
       0        0        0

-2.589332e+03 1.181797e+05        0
1.181797e+05 -8.133849e+04        0
       0        0        0

-1.600676e+05 1.181676e+05        0
1.181676e+05 -8.132976e+04        0
       0        0        0

-3.177230e+05 1.086127e+05        0
1.086127e+05 -8.153073e+04        0
       0        0        0

-4.755540e+05 8.951773e+04        0
8.951773e+04 -8.194037e+04        0
       0        0        0

-6.335585e+05 6.088526e+04        0
6.088526e+04 -8.255636e+04        0
       0        0        0

-7.917331e+05 2.271804e+04        0
2.271804e+04 -8.337502e+04        0
       0        0        0

5.785286e+05 2.273817e+04        0
2.273817e+04 -8.749418e+04        0
       0        0        0

4.313542e+05 6.092752e+04        0
6.092752e+04 -8.661559e+04        0
       0        0        0

2.839942e+05 8.956185e+04        0
8.956185e+04 -8.595072e+04        0
       0        0        0

1.364444e+05 1.086444e+05        0
1.086444e+05 -8.550260e+04        0
       0        0        0

-1.129712e+04 1.181785e+05        0
1.181785e+05 -8.527347e+04        0
       0        0        0

-1.592310e+05 1.181672e+05        0
1.181672e+05 -8.526462e+04        0
       0        0        0

-3.073564e+05 1.086132e+05        0
1.086132e+05 -8.547630e+04        0
       0        0        0

-4.556717e+05 8.951900e+04        0
8.951900e+04 -8.590754e+04        0
       0        0        0

-6.041745e+05 6.088680e+04        0
6.088680e+04 -8.655609e+04        0
       0        0        0

-7.528619e+05 2.271886e+04        0
2.271886e+04 -8.741819e+04        0
       0        0        0

5.316658e+05 2.273795e+04        0
2.273795e+04 -9.136769e+04        0
       0        0        0

3.940921e+05 6.092663e+04        0
6.092663e+04 -9.044910e+04        0
       0        0        0

2.563184e+05 8.956035e+04        0
8.956035e+04 -8.975416e+04        0
       0        0        0

1.183407e+05 1.086427e+05        0
1.086427e+05 -8.928591e+04        0
       0        0        0

-1.984304e+04 1.181771e+05        0
1.181771e+05 -8.904673e+04        0
       0        0        0

-1.582329e+05 1.181665e+05        0
1.181665e+05 -8.903797e+04        0
       0        0        0

-2.968278e+05 1.086135e+05        0
1.086135e+05 -8.925978e+04        0
       0        0        0

-4.356257e+05 8.952026e+04        0
8.952026e+04 -8.971126e+04        0
       0        0        0

-5.746240e+05 6.088854e+04        0
6.088854e+04 -9.039032e+04        0
       0        0        0

-7.138200e+05 2.271989e+04        0
2.271989e+04 -9.129325e+04        0
       0        0        0

4.849900e+05 2.273796e+04        0
2.273796e+04 -9.505616e+04        0
       0        0        0

3.570143e+05 6.092577e+04        0
6.092577e+04 -9.410011e+04        0
       0        0        0

2.288244e+05 8.955862e+04        0
8.955862e+04 -9.337680e+04        0
       0        0        0

1.004164e+05 1.086409e+05        0
1.086409e+05 -9.288973e+04        0
       0        0        0

-2.821084e+04 1.181759e+05        0
1.181759e+05 -9.264170e+04        0
       0        0        0

-1.570570e+05 1.181660e+05        0
1.181660e+05 -9.263378e+04        0
       0        0        0

-2.861209e+05 1.086137e+05        0
1.086137e+05 -9.286554e+04        0
       0        0        0

-4.153999e+05 8.952130e+04        0
8.952130e+04 -9.333582e+04        0
       0        0        0

-5.448908e+05 6.089031e+04        0
6.089031e+04 -9.404299e+04        0
       0        0        0

-6.745908e+05 2.272114e+04        0
2.272114e+04 -9.498387e+04        0
       0        0        0

4.385165e+05 2.273798e+04        0
2.273798e+04 -9.854412e+04        0
       0        0        0

3.201365e+05 6.092413e+04        0
6.092413e+04 -9.755241e+04        0
       0        0        0

2.015270e+05 8.955604e+04        0
8.955604e+04 -9.680154e+04        0
       0        0        0

8.268605e+04 1.086393e+05        0
1.086393e+05 -9.629692e+04        0
       0        0        0

-3.638570e+04 1.181760e+05        0
1.181760e+05 -9.604233e+04        0
       0        0        0

-1.556878e+05 1.181669e+05        0
1.181669e+05 -9.603768e+04        0
       0        0        0

-2.752197e+05 1.086142e+05        0
1.086142e+05 -9.628030e+04        0
       0        0        0

-3.949789e+05 8.952148e+04        0
8.952148e+04 -9.676788e+04        0
       0        0        0

-5.149601e+05 6.089129e+04        0
6.089129e+04 -9.749979e+04        0
       0        0        0

-6.351590e+05 2.272241e+04        0
2.272241e+04 -9.847493e+04        0
       0        0        0

3.922608e+05 2.273705e+04        0
2.273705e+04 -1.018168e+05        0
       0        0        0

2.834737e+05 6.091918e+04        0
6.091918e+04 -1.007892e+05        0
       0        0        0

1.744389e+05 8.955103e+04        0
8.955103e+04 -1.000095e+05        0
       0        0        0

6.516112e+04 1.086394e+05        0
1.086394e+05 -9.948864e+04        0
       0        0        0

-4.435479e+04 1.181814e+05        0
1.181814e+05 -9.923256e+04        0
       0        0        0

-1.541098e+05 1.181730e+05        0
1.181730e+05 -9.923756e+04        0
       0        0        0

-2.641076e+05 1.086162e+05        0
1.086162e+05 -9.949471e+04        0
       0        0        0

-3.743470e+05 8.951924e+04        0
8.951924e+04 -9.999807e+04        0
       0        0        0

-4.848186e+05 6.088897e+04        0
6.088897e+04 -1.007491e+05        0
       0        0        0

-5.955116e+05 2.272272e+04        0
2.272272e+04 -1.017526e+05        0
       0        0        0

3.462408e+05 2.273213e+04        0
2.273213e+04 -1.048596e+05        0
       0        0        0

2.470402e+05 6.090435e+04        0
6.090435e+04 -1.037913e+05        0
       0        0        0

1.475679e+05 8.953998e+04        0
8.953998e+04 -1.029768e+05        0
       0        0        0

4.784706e+04 1.086446e+05        0
1.086446e+05 -1.024414e+05        0
       0        0        0

-5.210859e+04 1.182015e+05        0
1.182015e+05 -1.021950e+05        0
       0        0        0

-1.523066e+05 1.181938e+05        0
1.181938e+05 -1.022248e+05        0
       0        0        0

-2.527641e+05 1.086235e+05        0
1.086235e+05 -1.025064e+05        0
       0        0        0

-3.534861e+05 8.951095e+04        0
8.951095e+04 -1.030243e+05        0
       0        0        0

-4.544544e+05 6.087677e+04        0
6.087677e+04 -1.037842e+05        0
       0        0        0

-5.556397e+05 2.271905e+04        0
2.271905e+04 -1.048050e+05        0
       0        0        0

3.004822e+05 2.271539e+04        0
2.271539e+04 -1.076574e+05        0
       0        0        0

2.108493e+05 6.086437e+04        0
6.086437e+04 -1.065333e+05        0
       0        0        0

1.209111e+05 8.951546e+04        0
8.951546e+04 -1.056691e+05        0
       0        0        0

3.073692e+04 1.086641e+05        0
1.086641e+05 -1.051219e+05        0
       0        0        0

-5.964355e+04 1.182578e+05        0
1.182578e+05 -1.049091e+05        0
       0        0        0

-1.502580e+05 1.182508e+05        0
1.182508e+05 -1.049962e+05        0
       0        0        0

-2.411586e+05 1.086450e+05        0
1.086450e+05 -1.053249e+05        0
       0        0        0

-3.323700e+05 8.948920e+04        0
8.948920e+04 -1.058577e+05        0
       0        0        0

-4.238570e+05 6.083943e+04        0
6.083943e+04 -1.066065e+05        0
       0        0        0

-5.155448e+05 2.270357e+04        0
2.270357e+04 -1.076228e+05        0
       0        0        0

2.550302e+05 2.266861e+04        0
2.266861e+04 -1.101928e+05        0
       0        0        0

1.749112e+05 6.076689e+04        0
6.076689e+04 -1.089786e+05        0
       0        0        0

9.444394e+04 8.946363e+04        0
8.946363e+04 -1.080332e+05        0
       0        0        0

1.379929e+04 1.087177e+05        0
1.087177e+05 -1.074804e+05        0
       0        0        0

-6.696699e+04 1.183950e+05        0
1.183950e+05 -1.073481e+05        0
       0        0        0

-1.479345e+05 1.183887e+05        0
1.183887e+05 -1.075565e+05        0
       0        0        0

-2.292386e+05 1.087005e+05        0
1.087005e+05 -1.079789e+05        0
       0        0        0

-3.109536e+05 8.944014e+04        0
8.944014e+04 -1.085307e+05        0
       0        0        0

-3.930164e+05 6.074460e+04        0
6.074460e+04 -1.092323e+05        0
       0        0        0

-4.752498e+05 2.265805e+04        0
2.265805e+04 -1.102010e+05        0
       0        0        0

2.099707e+05 2.255312e+04        0
2.255312e+04 -1.124452e+05        0
       0        0        0

1.392276e+05 6.054966e+04        0
6.054966e+04 -1.110720e+05        0
       0        0        0

6.809783e+04 8.936201e+04        0
8.936201e+04 -1.099896e+05        0
       0        0        0

-3.042201e+03 1.088455e+05        0
1.088455e+05 -1.094456e+05        0
       0        0        0

-7.410476e+04 1.186961e+05        0
1.186961e+05 -1.094775e+05        0
       0        0        0

-1.452897e+05 1.186906e+05        0
1.186906e+05 -1.099193e+05        0
       0        0        0

-2.169085e+05 1.088304e+05        0
1.088304e+05 -1.105207e+05        0
       0        0        0

-2.891518e+05 8.934130e+04        0
8.934130e+04 -1.111065e+05        0
       0        0        0

-3.619182e+05 6.053005e+04        0
6.053005e+04 -1.117009e+05        0
       0        0        0

-4.348222e+05 2.254384e+04        0
2.254384e+04 -1.125421e+05        0
       0        0        0

1.654676e+05 2.229389e+04        0
2.229389e+04 -1.143894e+05        0
       0        0        0

1.037757e+05 6.010633e+04        0
6.010633e+04 -1.127378e+05        0
       0        0        0

4.172434e+04 8.918285e+04        0
8.918285e+04 -1.114369e+05        0
       0        0        0

-1.993674e+04 1.091211e+05        0
1.091211e+05 -1.109352e+05        0
       0        0        0

-8.111029e+04 1.192969e+05        0
1.192969e+05 -1.112604e+05        0
       0        0        0

-1.422485e+05 1.192922e+05        0
1.192922e+05 -1.121001e+05        0
       0        0        0

-2.040019e+05 1.091080e+05        0
1.091080e+05 -1.130150e+05        0
       0        0        0

-2.668047e+05 8.916493e+04        0
8.916493e+04 -1.136749e+05        0
       0        0        0

-3.305323e+05 6.008944e+04        0
6.008944e+04 -1.140806e+05        0
       0        0        0

-3.944153e+05 2.228592e+04        0
2.228592e+04 -1.146607e+05        0
       0        0        0

1.218143e+05 2.175987e+04        0
2.175987e+04 -1.160001e+05        0
       0        0        0

6.846991e+04 5.928775e+04        0
5.928775e+04 -1.139016e+05        0
       0        0        0

1.504776e+04 8.891653e+04        0
8.891653e+04 -1.123083e+05        0
       0        0        0

-3.712658e+04 1.096611e+05        0
1.096611e+05 -1.119237e+05        0
       0        0        0

-8.806576e+04 1.203706e+05        0
1.203706e+05 -1.126850e+05        0
       0        0        0

-1.387020e+05 1.203666e+05        0
1.203666e+05 -1.140839e+05        0
       0        0        0

-1.902583e+05 1.096500e+05        0
1.096500e+05 -1.154691e+05        0
       0        0        0

-2.436324e+05 8.890144e+04        0
8.890144e+04 -1.162985e+05        0
       0        0        0

-2.987810e+05 5.927361e+04        0
5.927361e+04 -1.164537e+05        0
       0        0        0

-3.543298e+05 2.175326e+04        0
2.175326e+04 -1.165894e+05        0
       0        0        0

7.947515e+04 2.075678e+04        0
2.075678e+04 -1.172821e+05        0
       0        0        0

3.307865e+04 5.797447e+04        0
5.797447e+04 -1.145899e+05        0
       0        0        0

-1.236393e+04 8.865059e+04        0
8.865059e+04 -1.127886e+05        0
       0        0        0

-5.490063e+04 1.106013e+05        0
1.106013e+05 -1.126577e+05        0
       0        0        0

-9.504947e+04 1.220074e+05        0
1.220074e+05 -1.138552e+05        0
       0        0        0

-1.345317e+05 1.220041e+05        0
1.220041e+05 -1.157267e+05        0
       0        0        0

-1.753639e+05 1.105923e+05        0
1.105923e+05 -1.176118e+05        0
       0        0        0

-2.192067e+05 8.863840e+04        0
8.863840e+04 -1.187962e+05        0
       0        0        0

-2.664683e+05 5.796312e+04        0
5.796312e+04 -1.188293e+05        0
       0        0        0

-3.150782e+05 2.075156e+04        0
2.075156e+04 -1.183719e+05        0
       0        0        0

3.901604e+04 1.910250e+04        0
1.910250e+04 -1.183311e+05        0
       0        0        0

-2.945801e+03 5.638064e+04        0
5.638064e+04 -1.153385e+05        0
       0        0        0

-4.097162e+04 8.874194e+04        0
8.874194e+04 -1.139163e+05        0
       0        0        0

-7.334316e+04 1.119428e+05        0
1.119428e+05 -1.141993e+05        0
       0        0        0

-1.020044e+05 1.238170e+05        0
1.238170e+05 -1.151847e+05        0
       0        0        0

-1.297257e+05 1.238146e+05        0
1.238146e+05 -1.165458e+05        0
       0        0        0

-1.591896e+05 1.119363e+05        0
1.119363e+05 -1.183359e+05        0
       0        0        0

-1.930733e+05 8.873286e+04        0
8.873286e+04 -1.201362e+05        0
       0        0        0

-2.331278e+05 5.637209e+04        0
5.637209e+04 -1.207525e+05        0
       0        0        0

-2.773664e+05 1.909865e+04        0
1.909865e+04 -1.200521e+05        0
       0        0        0

5.231885e+02 1.710271e+04        0
1.710271e+04 -1.199683e+05        0
       0        0        0

-4.055900e+04 5.592265e+04        0
5.592265e+04 -1.183223e+05        0
       0        0        0

-7.064224e+04 9.001307e+04        0
9.001307e+04 -1.192608e+05        0
       0        0        0

-9.160225e+04 1.128998e+05        0
1.128998e+05 -1.193451e+05        0
       0        0        0

-1.084793e+05 1.240404e+05        0
1.240404e+05 -1.176209e+05        0
       0        0        0

-1.246149e+05 1.240392e+05        0
1.240392e+05 -1.154734e+05        0
       0        0        0

-1.424954e+05 1.128964e+05        0
1.128964e+05 -1.147534e+05        0
       0        0        0

-1.653497e+05 9.000769e+04        0
9.000769e+04 -1.167341e+05        0
       0        0        0

-1.979384e+05 5.591692e+04        0
5.591692e+04 -1.201833e+05        0
       0        0        0

-2.416132e+05 1.710010e+04        0
1.710010e+04 -1.211410e+05        0
       0        0        0

-3.838756e+04 1.780089e+04        0
1.780089e+04 -1.241547e+05        0
       0        0        0

-8.056431e+04 6.133461e+04        0
6.133461e+04 -1.329179e+05        0
       0        0        0

-9.823377e+04 9.241439e+04        0
9.241439e+04 -1.376493e+05        0
       0        0        0

-1.069299e+05 1.101518e+05        0
1.101518e+05 -1.330247e+05        0
       0        0        0

-1.134903e+05 1.182691e+05        0
1.182691e+05 -1.226657e+05        0
       0        0        0

-1.199857e+05 1.182695e+05        0
1.182695e+05 -1.108102e+05        0
       0        0        0

-1.278480e+05 1.101525e+05        0
1.101525e+05 -1.017531e+05        0
       0        0        0

-1.390687e+05 9.241419e+04        0
9.241419e+04 -9.965328e+04        0
       0        0        0

-1.602170e+05 6.133242e+04        0
6.133242e+04 -1.078653e+05        0
       0        0        0

-2.060740e+05 1.779909e+04        0
1.779909e+04 -1.203165e+05        0
       0        0        0

-9.041227e+04 4.054631e+04        0
4.054631e+04 -1.562833e+05        0
       0        0        0

-1.138421e+05 7.593486e+04        0
7.593486e+04 -1.858539e+05        0
       0        0        0

-1.150718e+05 8.920336e+04        0
8.920336e+04 -1.817339e+05        0
       0        0        0

-1.153875e+05 9.571255e+04        0
9.571255e+04 -1.608397e+05        0
       0        0        0

-1.157489e+05 9.856239e+04        0
9.856239e+04 -1.317915e+05        0
       0        0        0

-1.168366e+05 9.856429e+04        0
9.856429e+04 -1.007937e+05        0
       0        0        0

-1.188659e+05 9.571771e+04        0
9.571771e+04 -7.341100e+04        0
       0        0        0

-1.225609e+05 8.921016e+04        0
8.921016e+04 -5.589328e+04        0
       0        0        0

-1.289065e+05 7.594047e+04        0
7.594047e+04 -5.688864e+04        0
       0        0        0

-1.586523e+05 4.054609e+04        0
4.054609e+04 -9.278138e+04        0
       0        0        0

POINT_DATA     451
VECTORS DISPLACEMENT_1.000000e+00 double
0.000000e+00    0.000000e+00    0.000000e+00
0.000000e+00    0.000000e+00    0.000000e+00
0.000000e+00    0.000000e+00    0.000000e+00
0.000000e+00    0.000000e+00    0.000000e+00
0.000000e+00    0.000000e+00    0.000000e+00
0.000000e+00    0.000000e+00    0.000000e+00
0.000000e+00    0.000000e+00    0.000000e+00
0.000000e+00    0.000000e+00    0.000000e+00
0.000000e+00    0.000000e+00    0.000000e+00
0.000000e+00    0.000000e+00    0.000000e+00
0.000000e+00    0.000000e+00    0.000000e+00
-1.141595e-06    -8.299605e-07    0.000000e+00
-7.233448e-07    -4.163094e-07    0.000000e+00
-5.161144e-07    -2.157261e-07    0.000000e+00
-3.332233e-07    -1.068318e-07    0.000000e+00
-1.642863e-07    -5.047426e-08    0.000000e+00
-3.542679e-20    -3.295145e-08    0.000000e+00
1.642863e-07    -5.047426e-08    0.000000e+00
3.332233e-07    -1.068318e-07    0.000000e+00
5.161144e-07    -2.157261e-07    0.000000e+00
7.233448e-07    -4.163094e-07    0.000000e+00
1.141595e-06    -8.299605e-07    0.000000e+00
-2.153941e-06    -1.380309e-06    0.000000e+00
-1.574436e-06    -9.987668e-07    0.000000e+00
-1.105093e-06    -7.015532e-07    0.000000e+00
-7.128292e-07    -5.177059e-07    0.000000e+00
-3.501023e-07    -4.175298e-07    0.000000e+00
-7.487308e-20    -3.857102e-07    0.000000e+00
3.501023e-07    -4.175298e-07    0.000000e+00
7.128292e-07    -5.177059e-07    0.000000e+00
1.105093e-06    -7.015532e-07    0.000000e+00
1.574436e-06    -9.987668e-07    0.000000e+00
2.153941e-06    -1.380309e-06    0.000000e+00
-3.132427e-06    -2.064634e-06    0.000000e+00
-2.394168e-06    -1.682257e-06    0.000000e+00
-1.722702e-06    -1.380761e-06    0.000000e+00
-1.115240e-06    -1.168096e-06    0.000000e+00
-5.487489e-07    -1.045521e-06    0.000000e+00
-1.180155e-19    -1.005593e-06    0.000000e+00
5.487489e-07    -1.045521e-06    0.000000e+00
1.115240e-06    -1.168096e-06    0.000000e+00
1.722702e-06    -1.380761e-06    0.000000e+00
2.394168e-06    -1.682257e-06    0.000000e+00
3.132427e-06    -2.064634e-06    0.000000e+00
-4.100076e-06    -2.909172e-06    0.000000e+00
-3.186876e-06    -2.535522e-06    0.000000e+00
-2.326958e-06    -2.239053e-06    0.000000e+00
-1.519408e-06    -2.025105e-06    0.000000e+00
-7.500557e-07    -1.896684e-06    0.000000e+00
-1.627958e-19    -1.854101e-06    0.000000e+00
7.500557e-07    -1.896684e-06    0.000000e+00
1.519408e-06    -2.025105e-06    0.000000e+00
2.326958e-06    -2.239053e-06    0.000000e+00
3.186876e-06    -2.535522e-06    0.000000e+00
4.100076e-06    -2.909172e-06    0.000000e+00
-5.051341e-06    -3.936654e-06    0.000000e+00
-3.956477e-06    -3.571725e-06    0.000000e+00
-2.911986e-06    -3.284208e-06    0.000000e+00
-1.912865e-06    -3.075889e-06    0.000000e+00
-9.475500e-07    -2.949778e-06    0.000000e+00
-2.090186e-19    -2.907564e-06    0.000000e+00
9.475500e-07    -2.949778e-06    0.000000e+00
1.912865e-06    -3.075889e-06    0.000000e+00
2.911986e-06    -3.284208e-06    0.000000e+00
3.956477e-06    -3.571725e-06    0.000000e+00
5.051341e-06    -3.936654e-06    0.000000e+00
-5.981873e-06    -5.149742e-06    0.000000e+00
-4.704513e-06    -4.794468e-06    0.000000e+00
-3.477740e-06    -4.516043e-06    0.000000e+00
-2.292922e-06    -4.315096e-06    0.000000e+00
-1.138484e-06    -4.193469e-06    0.000000e+00
-2.563466e-19    -4.152740e-06    0.000000e+00
1.138484e-06    -4.193469e-06    0.000000e+00
2.292922e-06    -4.315096e-06    0.000000e+00
3.477740e-06    -4.516043e-06    0.000000e+00
4.704513e-06    -4.794468e-06    0.000000e+00
5.981873e-06    -5.149742e-06    0.000000e+00
-6.888558e-06    -6.546376e-06    0.000000e+00
-5.431254e-06    -6.201154e-06    0.000000e+00
-4.025294e-06    -5.931590e-06    0.000000e+00
-2.659769e-06    -5.737829e-06    0.000000e+00
-1.322562e-06    -5.620886e-06    0.000000e+00
-3.009349e-19    -5.581769e-06    0.000000e+00
1.322562e-06    -5.620886e-06    0.000000e+00
2.659769e-06    -5.737829e-06    0.000000e+00
4.025294e-06    -5.931590e-06    0.000000e+00
5.431254e-06    -6.201154e-06    0.000000e+00
6.888558e-06    -6.546376e-06    0.000000e+00
-7.769676e-06    -8.122139e-06    0.000000e+00
-6.136609e-06    -7.787205e-06    0.000000e+00
-4.555509e-06    -7.526210e-06    0.000000e+00
-3.014226e-06    -7.339157e-06    0.000000e+00
-1.500173e-06    -7.226543e-06    0.000000e+00
-3.447424e-19    -7.188927e-06    0.000000e+00
1.500173e-06    -7.226543e-06    0.000000e+00
3.014226e-06    -7.339157e-06    0.000000e+00
4.555509e-06    -7.526210e-06    0.000000e+00
6.136609e-06    -7.787205e-06    0.000000e+00
7.769676e-06    -8.122139e-06    0.000000e+00
-8.624338e-06    -9.871838e-06    0.000000e+00
-6.820449e-06    -9.547301e-06    0.000000e+00
-5.068913e-06    -9.294676e-06    0.000000e+00
-3.356973e-06    -9.113935e-06    0.000000e+00
-1.671744e-06    -9.005300e-06    0.000000e+00
-3.909586e-19    -8.969049e-06    0.000000e+00
1.671744e-06    -9.005300e-06    0.000000e+00
3.356973e-06    -9.113935e-06    0.000000e+00
5.068913e-06    -9.294676e-06    0.000000e+00
6.820449e-06    -9.547301e-06    0.000000e+00
8.624338e-06    -9.871838e-06    0.000000e+00
-9.452128e-06    -1.179002e-05    0.000000e+00
-7.482678e-06    -1.147593e-05    0.000000e+00
-5.565791e-06    -1.123156e-05    0.000000e+00
-3.688437e-06    -1.105688e-05    0.000000e+00
-1.837569e-06    -1.095199e-05    0.000000e+00
-4.373337e-19    -1.091701e-05    0.000000e+00
1.837569e-06    -1.095199e-05    0.000000e+00
3.688437e-06    -1.105688e-05    0.000000e+00
5.565791e-06    -1.123156e-05    0.000000e+00
7.482678e-06    -1.147593e-05    0.000000e+00
9.452128e-06    -1.179002e-05    0.000000e+00
-1.025287e-05    -1.387120e-05    0.000000e+00
-8.123242e-06    -1.356758e-05    0.000000e+00
-6.046283e-06    -1.333140e-05    0.000000e+00
-4.008850e-06    -1.316265e-05    0.000000e+00
-1.997814e-06    -1.306137e-05    0.000000e+00
-4.770384e-19    -1.302760e-05    0.000000e+00
1.997814e-06    -1.306137e-05    0.000000e+00
4.008850e-06    -1.316265e-05    0.000000e+00
6.046283e-06    -1.333140e-05    0.000000e+00
8.123242e-06    -1.356758e-05    0.000000e+00
1.025287e-05    -1.387120e-05    0.000000e+00
-1.102648e-05    -1.610989e-05    0.000000e+00
-8.742113e-06    -1.581673e-05    0.000000e+00
-6.510452e-06    -1.558871e-05    0.000000e+00
-4.318325e-06    -1.542583e-05    0.000000e+00
-2.152566e-06    -1.532809e-05    0.000000e+00
-5.172724e-19    -1.529550e-05    0.000000e+00
2.152566e-06    -1.532809e-05    0.000000e+00
4.318325e-06    -1.542583e-05    0.000000e+00
6.510452e-06    -1.558871e-05    0.000000e+00
8.742113e-06    -1.581673e-05    0.000000e+00
1.102648e-05    -1.610989e-05    0.000000e+00
-1.177296e-05    -1.850062e-05    0.000000e+00
-9.339276e-06    -1.821793e-05    0.000000e+00
-6.958324e-06    -1.799806e-05    0.000000e+00
-4.616914e-06    -1.784101e-05    0.000000e+00
-2.301865e-06    -1.774678e-05    0.000000e+00
-5.637004e-19    -1.771537e-05    0.000000e+00
2.301865e-06    -1.774678e-05    0.000000e+00
4.616914e-06    -1.784101e-05    0.000000e+00
6.958324e-06    -1.799806e-05    0.000000e+00
9.339276e-06    -1.821793e-05    0.000000e+00
1.177296e-05    -1.850062e-05    0.000000e+00
-1.249228e-05    -2.103794e-05    0.000000e+00
-9.914727e-06    -2.076572e-05    0.000000e+00
-7.389909e-06    -2.055400e-05    0.000000e+00
-4.904637e-06    -2.040277e-05    0.000000e+00
-2.445728e-06    -2.031204e-05    0.000000e+00
-5.936642e-19    -2.028179e-05    0.000000e+00
2.445728e-06    -2.031204e-05    0.000000e+00
4.904637e-06    -2.040277e-05    0.000000e+00
7.389909e-06    -2.055400e-05    0.000000e+00
9.914727e-06    -2.076572e-05    0.000000e+00
1.249228e-05    -2.103794e-05    0.000000e+00
-1.318446e-05    -2.371642e-05    0.000000e+00
-1.046846e-05    -2.345467e-05    0.000000e+00
-7.805208e-06    -2.325109e-05    0.000000e+00
-5.181501e-06    -2.310568e-05    0.000000e+00
-2.584160e-06    -2.301844e-05    0.000000e+00
-6.236280e-19    -2.298935e-05    0.000000e+00
2.584160e-06    -2.301844e-05    0.000000e+00
5.181501e-06    -2.310568e-05    0.000000e+00
7.805208e-06    -2.325109e-05    0.000000e+00
1.046846e-05    -2.345467e-05    0.000000e+00
1.318446e-05    -2.371642e-05    0.000000e+00
-1.384949e-05    -2.653062e-05    0.000000e+00
-1.100049e-05    -2.627934e-05    0.000000e+00
-8.204222e-06    -2.608391e-05    0.000000e+00
-5.447509e-06    -2.594431e-05    0.000000e+00
-2.717163e-06    -2.586055e-05    0.000000e+00
-6.463920e-19    -2.583264e-05    0.000000e+00
2.717163e-06    -2.586055e-05    0.000000e+00
5.447509e-06    -2.594431e-05    0.000000e+00
8.204222e-06    -2.608391e-05    0.000000e+00
1.100049e-05    -2.627934e-05    0.000000e+00
1.384949e-05    -2.653062e-05    0.000000e+00
-1.448737e-05    -2.947511e-05    0.000000e+00
-1.151079e-05    -2.923430e-05    0.000000e+00
-8.586950e-06    -2.904701e-05    0.000000e+00
-5.702661e-06    -2.891323e-05    0.000000e+00
-2.844739e-06    -2.883296e-05    0.000000e+00
-6.529565e-19    -2.880621e-05    0.000000e+00
2.844739e-06    -2.883296e-05    0.000000e+00
5.702661e-06    -2.891323e-05    0.000000e+00
8.586950e-06    -2.904701e-05    0.000000e+00
1.151079e-05    -2.923430e-05    0.000000e+00
1.448737e-05    -2.947511e-05    0.000000e+00
-1.509811e-05    -3.254446e-05    0.000000e+00
-1.199938e-05    -3.231413e-05    0.000000e+00
-8.953392e-06    -3.213498e-05    0.000000e+00
-5.946955e-06    -3.200701e-05    0.000000e+00
-2.966886e-06    -3.193024e-05    0.000000e+00
-6.737088e-19    -3.190464e-05    0.000000e+00
2.966886e-06    -3.193024e-05    0.000000e+00
5.946955e-06    -3.200701e-05    0.000000e+00
8.953392e-06    -3.213498e-05    0.000000e+00
1.199938e-05    -3.231413e-05    0.000000e+00
1.509811e-05    -3.254446e-05    0.000000e+00
-1.568170e-05    -3.573325e-05    0.000000e+00
-1.246626e-05    -3.551338e-05    0.000000e+00
-9.303549e-06    -3.534238e-05    0.000000e+00
-6.180392e-06    -3.522023e-05    0.000000e+00
-3.083604e-06    -3.514694e-05    0.000000e+00
-7.028256e-19    -3.512251e-05    0.000000e+00
3.083604e-06    -3.514694e-05    0.000000e+00
6.180392e-06    -3.522023e-05    0.000000e+00
9.303549e-06    -3.534238e-05    0.000000e+00
1.246626e-05    -3.551338e-05    0.000000e+00
1.568170e-05    -3.573325e-05    0.000000e+00
-1.623815e-05    -3.903604e-05    0.000000e+00
-1.291142e-05    -3.882665e-05    0.000000e+00
-9.637419e-06    -3.866378e-05    0.000000e+00
-6.402972e-06    -3.854745e-05    0.000000e+00
-3.194894e-06    -3.847765e-05    0.000000e+00
-7.538593e-19    -3.845439e-05    0.000000e+00
3.194894e-06    -3.847765e-05    0.000000e+00
6.402972e-06    -3.854745e-05    0.000000e+00
9.637419e-06    -3.866378e-05    0.000000e+00
1.291142e-05    -3.882665e-05    0.000000e+00
1.623815e-05    -3.903604e-05    0.000000e+00
-1.676746e-05    -4.244741e-05    0.000000e+00
-1.333486e-05    -4.224848e-05    0.000000e+00
-9.955003e-06    -4.209376e-05    0.000000e+00
-6.614695e-06    -4.198325e-05    0.000000e+00
-3.300755e-06    -4.191694e-05    0.000000e+00
-8.205632e-19    -4.189484e-05    0.000000e+00
3.300755e-06    -4.191694e-05    0.000000e+00
6.614695e-06    -4.198325e-05    0.000000e+00
9.955003e-06    -4.209376e-05    0.000000e+00
1.333486e-05    -4.224848e-05    0.000000e+00
1.676746e-05    -4.244741e-05    0.000000e+00
-1.726962e-05    -4.596192e-05    0.000000e+00
-1.373659e-05    -4.577347e-05    0.000000e+00
-1.025630e-05    -4.562689e-05    0.000000e+00
-6.815560e-06    -4.552219e-05    0.000000e+00
-3.401188e-06    -4.545937e-05    0.000000e+00
-8.735027e-19    -4.543843e-05    0.000000e+00
3.401188e-06    -4.545937e-05    0.000000e+00
6.815560e-06    -4.552219e-05    0.000000e+00
1.025630e-05    -4.562689e-05    0.000000e+00
1.373659e-05    -4.577347e-05    0.000000e+00
1.726962e-05    -4.596192e-05    0.000000e+00
-1.774464e-05    -4.957415e-05    0.000000e+00
-1.411661e-05    -4.939617e-05    0.000000e+00
-1.054131e-05    -4.925773e-05    0.000000e+00
-7.005568e-06    -4.915885e-05    0.000000e+00
-3.496192e-06    -4.909952e-05    0.000000e+00
-9.209366e-19    -4.907975e-05    0.000000e+00
3.496192e-06    -4.909952e-05    0.000000e+00
7.005568e-06    -4.915885e-05    0.000000e+00
1.054131e-05    -4.925773e-05    0.000000e+00
1.411661e-05    -4.939617e-05    0.000000e+00
1.774464e-05    -4.957415e-05    0.000000e+00
-1.819252e-05    -5.327868e-05    0.000000e+00
-1.447491e-05    -5.311116e-05    0.000000e+00
-1.081004e-05    -5.298087e-05    0.000000e+00
-7.184718e-06    -5.288780e-05    0.000000e+00
-3.585767e-06    -5.283196e-05    0.000000e+00
-9.711233e-19    -5.281335e-05    0.000000e+00
3.585767e-06    -5.283196e-05    0.000000e+00
7.184718e-06    -5.288780e-05    0.000000e+00
1.081004e-05    -5.298087e-05    0.000000e+00
1.447491e-05    -5.311116e-05    0.000000e+00
1.819252e-05    -5.327868e-05    0.000000e+00
-1.861325e-05    -5.707006e-05    0.000000e+00
-1.481149e-05    -5.691301e-05    0.000000e+00
-1.106248e-05    -5.679086e-05    0.000000e+00
-7.353011e-06    -5.670361e-05    0.000000e+00
-3.669914e-06    -5.665126e-05    0.000000e+00
-9.895462e-19    -5.663381e-05    0.000000e+00
3.669914e-06    -5.665126e-05    0.000000e+00
7.353011e-06    -5.670361e-05    0.000000e+00
1.106248e-05    -5.679086e-05    0.000000e+00
1.481149e-05    -5.691301e-05    0.000000e+00
1.861325e-05    -5.707006e-05    0.000000e+00
-1.900683e-05    -6.094287e-05    0.000000e+00
-1.512636e-05    -6.079629e-05    0.000000e+00
-1.129863e-05    -6.068229e-05    0.000000e+00
-7.510448e-06    -6.060086e-05    0.000000e+00
-3.748633e-06    -6.055200e-05    0.000000e+00
-1.009875e-18    -6.053571e-05    0.000000e+00
3.748633e-06    -6.055200e-05    0.000000e+00
7.510448e-06    -6.060086e-05    0.000000e+00
1.129863e-05    -6.068229e-05    0.000000e+00
1.512636e-05    -6.079629e-05    0.000000e+00
1.900683e-05    -6.094287e-05    0.000000e+00
-1.937327e-05    -6.489169e-05    0.000000e+00
-1.541952e-05    -6.475558e-05    0.000000e+00
-1.151850e-05    -6.464972e-05    0.000000e+00
-7.657028e-06    -6.457410e-05    0.000000e+00
-3.821923e-06    -6.452873e-05    0.000000e+00
-1.027239e-18    -6.451361e-05    0.000000e+00
3.821923e-06    -6.452873e-05    0.000000e+00
7.657028e-06    -6.457410e-05    0.000000e+00
1.151850e-05    -6.464972e-05    0.000000e+00
1.541952e-05    -6.475558e-05    0.000000e+00
1.937327e-05    -6.489169e-05    0.000000e+00
-1.971256e-05    -6.891107e-05    0.000000e+00
-1.569095e-05    -6.878544e-05    0.000000e+00
-1.172208e-05    -6.868772e-05    0.000000e+00
-7.792750e-06    -6.861792e-05    0.000000e+00
-3.889784e-06    -6.857604e-05    0.000000e+00
-1.026816e-18    -6.856208e-05    0.000000e+00
3.889784e-06    -6.857604e-05    0.000000e+00
7.792750e-06    -6.861792e-05    0.000000e+00
1.172208e-05    -6.868772e-05    0.000000e+00
1.569095e-05    -6.878544e-05    0.000000e+00
1.971256e-05    -6.891107e-05    0.000000e+00
-2.002471e-05    -7.299559e-05    0.000000e+00
-1.594068e-05    -7.288043e-05    0.000000e+00
-1.190938e-05    -7.279086e-05    0.000000e+00
-7.917611e-06    -7.272688e-05    0.000000e+00
-3.952212e-06    -7.268851e-05    0.000000e+00
-1.029145e-18    -7.267572e-05    0.000000e+00
3.952212e-06    -7.268851e-05    0.000000e+00
7.917611e-06    -7.272688e-05    0.000000e+00
1.190938e-05    -7.279086e-05    0.000000e+00
1.594068e-05    -7.288043e-05    0.000000e+00
2.002471e-05    -7.299559e-05    0.000000e+00
-2.030971e-05    -7.713981e-05    0.000000e+00
-1.616869e-05    -7.703511e-05    0.000000e+00
-1.208038e-05    -7.695370e-05    0.000000e+00
-8.031599e-06    -7.689557e-05    0.000000e+00
-4.009198e-06    -7.686071e-05    0.000000e+00
-1.068109e-18    -7.684909e-05    0.000000e+00
4.009198e-06    -7.686071e-05    0.000000e+00
8.031599e-06    -7.689557e-05    0.000000e+00
1.208038e-05    -7.695370e-05    0.000000e+00
1.616869e-05    -7.703511e-05    0.000000e+00
2.030971e-05    -7.713981e-05    0.000000e+00
-2.056757e-05    -8.133827e-05    0.000000e+00
-1.637501e-05    -8.124404e-05    0.000000e+00
-1.223508e-05    -8.117079e-05    0.000000e+00
-8.134685e-06    -8.111855e-05    0.000000e+00
-4.060719e-06    -8.108725e-05    0.000000e+00
-1.105802e-18    -8.107682e-05    0.000000e+00
4.060719e-06    -8.108725e-05    0.000000e+00
8.134685e-06    -8.111855e-05    0.000000e+00
1.223508e-05    -8.117079e-05    0.000000e+00
1.637501e-05    -8.124404e-05    0.000000e+00
2.056757e-05    -8.133827e-05    0.000000e+00
-2.079833e-05    -8.558550e-05    0.000000e+00
-1.655963e-05    -8.550173e-05    0.000000e+00
-1.237344e-05    -8.543669e-05    0.000000e+00
-8.226802e-06    -8.539041e-05    0.000000e+00
-4.106724e-06    -8.536275e-05    0.000000e+00
-1.182034e-18    -8.535356e-05    0.000000e+00
4.106724e-06    -8.536275e-05    0.000000e+00
8.226802e-06    -8.539041e-05    0.000000e+00
1.237344e-05    -8.543669e-05    0.000000e+00
1.655963e-05    -8.550173e-05    0.000000e+00
2.079833e-05    -8.558550e-05    0.000000e+00
-2.100210e-05    -8.987603e-05    0.000000e+00
-1.672261e-05    -8.980269e-05    0.000000e+00
-1.249537e-05    -8.974594e-05    0.000000e+00
-8.307807e-06    -8.970578e-05    0.000000e+00
-4.147107e-06    -8.968192e-05    0.000000e+00
-1.260385e-18    -8.967401e-05    0.000000e+00
4.147107e-06    -8.968192e-05    0.000000e+00
8.307807e-06    -8.970578e-05    0.000000e+00
1.249537e-05    -8.974594e-05    0.000000e+00
1.672261e-05    -8.980269e-05    0.000000e+00
2.100210e-05    -8.987603e-05    0.000000e+00
-2.117912e-05    -9.420439e-05    0.000000e+00
-1.686399e-05    -9.414142e-05    0.000000e+00
-1.260070e-05    -9.409307e-05    0.000000e+00
-8.377428e-06    -9.405931e-05    0.000000e+00
-4.181679e-06    -9.403948e-05    0.000000e+00
-1.310360e-18    -9.403296e-05    0.000000e+00
4.181679e-06    -9.403948e-05    0.000000e+00
8.377428e-06    -9.405931e-05    0.000000e+00
1.260070e-05    -9.409307e-05    0.000000e+00
1.686399e-05    -9.414142e-05    0.000000e+00
2.117912e-05    -9.420439e-05    0.000000e+00
-2.132994e-05    -9.856523e-05    0.000000e+00
-1.698387e-05    -9.851248e-05    0.000000e+00
-1.268909e-05    -9.847276e-05    0.000000e+00
-8.435205e-06    -9.844575e-05    0.000000e+00
-4.210141e-06    -9.843026e-05    0.000000e+00
-1.370076e-18    -9.842523e-05    0.000000e+00
4.210141e-06    -9.843026e-05    0.000000e+00
8.435205e-06    -9.844575e-05    0.000000e+00
1.268909e-05    -9.847276e-05    0.000000e+00
1.698387e-05    -9.851248e-05    0.000000e+00
2.132994e-05    -9.856523e-05    0.000000e+00
-2.145562e-05    -1.029537e-04    0.000000e+00
-1.708235e-05    -1.029109e-04    0.000000e+00
-1.275997e-05    -1.028800e-04    0.000000e+00
-8.480517e-06    -1.028600e-04    0.000000e+00
-4.232143e-06    -1.028489e-04    0.000000e+00
-1.424709e-18    -1.028454e-04    0.000000e+00
4.232143e-06    -1.028489e-04    0.000000e+00
8.480517e-06    -1.028600e-04    0.000000e+00
1.275997e-05    -1.028800e-04    0.000000e+00
1.708235e-05    -1.029109e-04    0.000000e+00
2.145562e-05    -1.029537e-04    0.000000e+00
-2.155817e-05    -1.073660e-04    0.000000e+00
-1.715935e-05    -1.073327e-04    0.000000e+00
-1.281258e-05    -1.073105e-04    0.000000e+00
-8.512904e-06    -1.072970e-04    0.000000e+00
-4.247579e-06    -1.072895e-04    0.000000e+00
-1.364147e-18    -1.072870e-04    0.000000e+00
4.247579e-06    -1.072895e-04    0.000000e+00
8.512904e-06    -1.072970e-04    0.000000e+00
1.281258e-05    -1.073105e-04    0.000000e+00
1.715935e-05    -1.073327e-04    0.000000e+00
2.155817e-05    -1.073660e-04    0.000000e+00
-2.164067e-05    -1.118022e-04    0.000000e+00
-1.721429e-05    -1.117772e-04    0.000000e+00
-1.284670e-05    -1.117621e-04    0.000000e+00
-8.533270e-06    -1.117511e-04    0.000000e+00
-4.257281e-06    -1.117436e-04    0.000000e+00
-1.287067e-18    -1.117409e-04    0.000000e+00
4.257281e-06    -1.117436e-04    0.000000e+00
8.533270e-06    -1.117511e-04    0.000000e+00
1.284670e-05    -1.117621e-04    0.000000e+00
1.721429e-05    -1.117772e-04    0.000000e+00
2.164067e-05    -1.118022e-04    0.000000e+00
-2.170513e-05    -1.162704e-04    0.000000e+00
-1.724615e-05    -1.162523e-04    0.000000e+00
-1.286626e-05    -1.162338e-04    0.000000e+00
-8.546206e-06    -1.162132e-04    0.000000e+00
-4.263865e-06    -1.161978e-04    0.000000e+00
-1.283678e-18    -1.161922e-04    0.000000e+00
4.263865e-06    -1.161978e-04    0.000000e+00
8.546206e-06    -1.162132e-04    0.000000e+00
1.286626e-05    -1.162338e-04    0.000000e+00
1.724615e-05    -1.162523e-04    0.000000e+00
2.170513e-05    -1.162704e-04    0.000000e+00
-2.173924e-05    -1.208105e-04    0.000000e+00
-1.726634e-05    -1.207758e-04    0.000000e+00
-1.288608e-05    -1.207173e-04    0.000000e+00
-8.561321e-06    -1.206645e-04    0.000000e+00
-4.272039e-06    -1.206293e-04    0.000000e+00
-1.286643e-18    -1.206170e-04    0.000000e+00
4.272039e-06    -1.206293e-04    0.000000e+00
8.561321e-06    -1.206645e-04    0.000000e+00
1.288608e-05    -1.207173e-04    0.000000e+00
1.726634e-05    -1.207758e-04    0.000000e+00
2.173924e-05    -1.208105e-04    0.000000e+00

CELL_DATA      400
TENSORS Element_Stress1.000000e+00 double
1.820598e+06 2.551812e+05        0
2.551812e+05 4.163488e+05        0
       0        0        0

1.243720e+06 1.308538e+05        0
1.308538e+05 3.566178e+05        0
       0        0        0

8.651185e+05 4.301032e+04        0
4.301032e+04 2.749959e+05        0
       0        0        0

5.100063e+05 -3.578363e+03        0
-3.578363e+03 1.690094e+05        0
       0        0        0

1.688541e+05 -2.488323e+04        0
-2.488323e+04 5.694968e+04        0
       0        0        0

-1.688184e+05 -2.487711e+04        0
-2.487711e+04 -5.695775e+04        0
       0        0        0

-5.095306e+05 -3.579112e+03        0
-3.579112e+03 -1.688447e+05        0
       0        0        0

-8.637077e+05 4.293851e+04        0
4.293851e+04 -2.744671e+05        0
       0        0        0

-1.240734e+06 1.305652e+05        0
1.305652e+05 -3.554740e+05        0
       0        0        0

-1.814375e+06 2.543707e+05        0
2.543707e+05 -4.141970e+05        0
       0        0        0

1.642070e+06 4.159748e+04        0
4.159748e+04 4.234799e+03        0
       0        0        0

1.322354e+06 1.206454e+05        0
1.206454e+05 1.286843e+05        0
       0        0        0

9.082521e+05 9.900755e+04        0
9.900755e+04 1.315191e+05        0
       0        0        0

5.364025e+05 7.580678e+04        0
7.580678e+04 9.193311e+04        0
       0        0        0

1.768172e+05 6.321707e+04        0
6.321707e+04 3.207757e+04        0
       0        0        0

-1.778550e+05 6.319873e+04        0
6.319873e+04 -3.316896e+04        0
       0        0        0

-5.369363e+05 7.574133e+04        0
7.574133e+04 -9.284490e+04        0
       0        0        0

-9.077061e+05 9.886737e+04        0
9.886737e+04 -1.320379e+05        0
       0        0        0

-1.319830e+06 1.204079e+05        0
1.204079e+05 -1.284324e+05        0
       0        0        0

-1.637466e+06 4.151082e+04        0
4.151082e+04 -3.136555e+03        0
       0        0        0

1.584953e+06 1.541639e+04        0
1.541639e+04 6.615316e+03        0
       0        0        0

1.271591e+06 6.833109e+04        0
6.833109e+04 1.757728e+04        0
       0        0        0

9.146413e+05 1.015639e+05        0
1.015639e+05 4.237686e+04        0
       0        0        0

5.430826e+05 1.074765e+05        0
1.074765e+05 3.592346e+04        0
       0        0        0

1.791459e+05 1.074054e+05        0
1.074054e+05 1.272037e+04        0
       0        0        0

-1.824790e+05 1.073775e+05        0
1.073775e+05 -1.611190e+04        0
       0        0        0

-5.458838e+05 1.073933e+05        0
1.073933e+05 -3.912503e+04        0
       0        0        0

-9.163117e+05 1.014348e+05        0
1.014348e+05 -4.515293e+04        0
       0        0        0

-1.271565e+06 6.821622e+04        0
6.821622e+04 -1.966893e+04        0
       0        0        0

-1.582978e+06 1.538448e+04        0
1.538448e+04 -7.911807e+03        0
       0        0        0

1.546129e+06 1.427370e+04        0
1.427370e+04 -3.975752e+03        0
       0        0        0

1.226683e+06 5.548208e+04        0
5.548208e+04 -1.953361e+03        0
       0        0        0

8.865538e+05 9.245024e+04        0
9.245024e+04 2.933168e+03        0
       0        0        0

5.331314e+05 1.146030e+05        0
1.146030e+05 5.877770e+03        0
       0        0        0

1.753740e+05 1.233579e+05        0
1.233579e+05 6.880625e+02        0
       0        0        0

-1.820438e+05 1.233283e+05        0
1.233283e+05 -7.415933e+03        0
       0        0        0

-5.392752e+05 1.145213e+05        0
1.145213e+05 -1.241206e+04        0
       0        0        0

-8.916350e+05 9.234262e+04        0
9.234262e+04 -9.058365e+03        0
       0        0        0

-1.230189e+06 5.539388e+04        0
5.539388e+04 -3.528931e+03        0
       0        0        0

-1.547532e+06 1.424568e+04        0
1.424568e+04 -5.504384e+02        0
       0        0        0

1.509427e+06 1.713063e+04        0
1.713063e+04 -5.567249e+03        0
       0        0        0

1.185340e+06 5.448733e+04        0
5.448733e+04 -8.577651e+03        0
       0        0        0

8.541561e+05 8.905469e+04        0
8.905469e+04 -8.329305e+03        0
       0        0        0

5.137340e+05 1.136408e+05        0
1.136408e+05 -6.745280e+03        0
       0        0        0

1.681056e+05 1.258450e+05        0
1.258450e+05 -5.639044e+03        0
       0        0        0

-1.789903e+05 1.258166e+05        0
1.258166e+05 -5.300819e+03        0
       0        0        0

-5.241237e+05 1.135646e+05        0
1.135646e+05 -4.010288e+03        0
       0        0        0

-8.635542e+05 8.895612e+04        0
8.895612e+04 -2.042812e+03        0
       0        0        0

-1.193244e+06 5.440409e+04        0
5.440409e+04 -1.179541e+03        0
       0        0        0

-1.515273e+06 1.709766e+04        0
1.709766e+04 -3.264824e+03        0
       0        0        0

1.469671e+06 1.958963e+04        0
1.958963e+04 -7.911531e+03        0
       0        0        0

1.147077e+06 5.644559e+04        0
5.644559e+04 -1.054799e+04        0
       0        0        0

8.224151e+05 8.838594e+04        0
8.838594e+04 -1.192774e+04        0
       0        0        0

4.928620e+05 1.117722e+05        0
1.117722e+05 -1.113898e+04        0
       0        0        0

1.594065e+05 1.239614e+05        0
1.239614e+05 -9.157848e+03        0
       0        0        0

-1.752704e+05 1.239347e+05        0
1.239347e+05 -6.757342e+03        0
       0        0        0

-5.082716e+05 1.117003e+05        0
1.117003e+05 -4.611022e+03        0
       0        0        0

-8.369138e+05 8.829171e+04        0
8.829171e+04 -3.479956e+03        0
       0        0        0

-1.160194e+06 5.636191e+04        0
5.636191e+04 -4.312364e+03        0
       0        0        0

-1.480879e+06 1.955284e+04        0
1.955284e+04 -6.139554e+03        0
       0        0        0

1.427069e+06 2.114429e+04        0
2.114429e+04 -1.052964e+04        0
       0        0        0

1.109854e+06 5.834958e+04        0
5.834958e+04 -1.236661e+04        0
       0        0        0

7.924051e+05 8.864128e+04        0
8.864128e+04 -1.362108e+04        0
       0        0        0

4.726277e+05 1.103428e+05        0
1.103428e+05 -1.337050e+04        0
       0        0        0

1.506199e+05 1.216735e+05        0
1.216735e+05 -1.181697e+04        0
       0        0        0

-1.721469e+05 1.216483e+05        0
1.216483e+05 -9.757740e+03        0
       0        0        0

-4.937482e+05 1.102742e+05        0
1.102742e+05 -8.067258e+03        0
       0        0        0

-8.127094e+05 8.854973e+04        0
8.854973e+04 -7.533908e+03        0
       0        0        0

-1.128918e+06 5.826553e+04        0
5.826553e+04 -8.339735e+03        0
       0        0        0

-1.444434e+06 2.110561e+04        0
2.110561e+04 -9.528609e+03        0
       0        0        0

1.382471e+06 2.200181e+04        0
2.200181e+04 -1.363722e+04        0
       0        0        0

1.072891e+06 5.961398e+04        0
5.961398e+04 -1.472183e+04        0
       0        0        0

7.635785e+05 8.901007e+04        0
8.901007e+04 -1.557414e+04        0
       0        0        0

4.533125e+05 1.094858e+05        0
1.094858e+05 -1.552412e+04        0
       0        0        0

1.419522e+05 1.200358e+05        0
1.200358e+05 -1.458784e+04        0
       0        0        0

-1.697603e+05 1.200117e+05        0
1.200117e+05 -1.326479e+04        0
       0        0        0

-4.807667e+05 1.094198e+05        0
1.094198e+05 -1.222641e+04        0
       0        0        0

-7.903212e+05 8.892090e+04        0
8.892090e+04 -1.196593e+04        0
       0        0        0

-1.098554e+06 5.953060e+04        0
5.953060e+04 -1.248635e+04        0
       0        0        0

-1.406666e+06 2.196271e+04        0
2.196271e+04 -1.309846e+04        0
       0        0        0

1.336650e+06 2.243103e+04        0
2.243103e+04 -1.712975e+04        0
       0        0        0

1.035846e+06 6.032508e+04        0
6.032508e+04 -1.770734e+04        0
       0        0        0

7.353690e+05 8.928001e+04        0
8.928001e+04 -1.819357e+04        0
       0        0        0

4.345842e+05 1.090314e+05        0
1.090314e+05 -1.820574e+04        0
       0        0        0

1.333510e+05 1.190751e+05        0
1.190751e+05 -1.770719e+04        0
       0        0        0

-1.679948e+05 1.190519e+05        0
1.190519e+05 -1.697818e+04        0
       0        0        0

-4.689286e+05 1.089678e+05        0
1.089678e+05 -1.641605e+04        0
       0        0        0

-7.691116e+05 8.919329e+04        0
8.919329e+04 -1.629667e+04        0
       0        0        0

-1.068676e+06 6.024325e+04        0
6.024325e+04 -1.657480e+04        0
       0        0        0

-1.368246e+06 2.239236e+04        0
2.239236e+04 -1.685617e+04        0
       0        0        0

1.290108e+06 2.262769e+04        0
2.262769e+04 -2.093370e+04        0
       0        0        0

9.986145e+05 6.068320e+04        0
6.068320e+04 -2.119241e+04        0
       0        0        0

7.073840e+05 8.943847e+04        0
8.943847e+04 -2.142407e+04        0
       0        0        0

4.161153e+05 1.088122e+05        0
1.088122e+05 -2.143279e+04        0
       0        0        0

1.247137e+05 1.185759e+05        0
1.185759e+05 -2.118594e+04        0
       0        0        0

-1.666835e+05 1.185536e+05        0
1.185536e+05 -2.082274e+04        0
       0        0        0

-4.578408e+05 1.087507e+05        0
1.087507e+05 -2.055219e+04        0
       0        0        0

-7.486181e+05 8.935433e+04        0
8.935433e+04 -2.051028e+04        0
       0        0        0

-1.039104e+06 6.060345e+04        0
6.060345e+04 -2.065826e+04        0
       0        0        0

-1.329592e+06 2.258991e+04        0
2.258991e+04 -2.079207e+04        0
       0        0        0

1.243138e+06 2.270943e+04        0
2.270943e+04 -2.498210e+04        0
       0        0        0

9.611829e+05 6.084707e+04        0
6.084707e+04 -2.504187e+04        0
       0        0        0

6.794119e+05 8.952007e+04        0
8.952007e+04 -2.510676e+04        0
       0        0        0

3.976942e+05 1.087151e+05        0
1.087151e+05 -2.508705e+04        0
       0        0        0

1.159751e+05 1.183403e+05        0
1.183403e+05 -2.496213e+04        0
       0        0        0

-1.656966e+05 1.183187e+05        0
1.183187e+05 -2.479576e+04        0
       0        0        0

-4.472257e+05 1.086557e+05        0
1.086557e+05 -2.468699e+04        0
       0        0        0

-7.285608e+05 8.943859e+04        0
8.943859e+04 -2.469694e+04        0
       0        0        0

-1.009752e+06 6.076971e+04        0
6.076971e+04 -2.480000e+04        0
       0        0        0

-1.290922e+06 2.267274e+04        0
2.267274e+04 -2.489961e+04        0
       0        0        0

1.195902e+06 2.273919e+04        0
2.273919e+04 -2.922324e+04        0
       0        0        0

9.235708e+05 6.091458e+04        0
6.091458e+04 -2.915047e+04        0
       0        0        0

6.513590e+05 8.955767e+04        0
8.955767e+04 -2.910387e+04        0
       0        0        0

3.792147e+05 1.086759e+05        0
1.086759e+05 -2.904718e+04        0
       0        0        0

1.071092e+05 1.182389e+05        0
1.182389e+05 -2.896999e+04        0
       0        0        0

-1.649443e+05 1.182180e+05        0
1.182180e+05 -2.889900e+04        0
       0        0        0

-4.369126e+05 1.086185e+05        0
1.086185e+05 -2.887696e+04        0
       0        0        0

-7.087800e+05 8.947891e+04        0
8.947891e+04 -2.892824e+04        0
       0        0        0

-9.805709e+05 6.083975e+04        0
6.083975e+04 -2.903784e+04        0
       0        0        0

-1.252330e+06 2.270369e+04        0
2.270369e+04 -2.916302e+04        0
       0        0        0

1.148491e+06 2.274763e+04        0
2.274763e+04 -3.361527e+04        0
       0        0        0

8.858087e+05 6.093851e+04        0
6.093851e+04 -3.344415e+04        0
       0        0        0

6.231974e+05 8.957284e+04        0
8.957284e+04 -3.331675e+04        0
       0        0        0

3.606384e+05 1.086618e+05        0
1.086618e+05 -3.322145e+04        0
       0        0        0

9.811734e+04 1.181997e+05        0
1.181997e+05 -3.315416e+04        0
       0        0        0

-1.643651e+05 1.181796e+05        0
1.181796e+05 -3.312513e+04        0
       0        0        0

-4.268000e+05 1.086064e+05        0
1.086064e+05 -3.315081e+04        0
       0        0        0

-6.891844e+05 8.949683e+04        0
8.949683e+04 -3.323922e+04        0
       0        0        0

-9.515284e+05 6.086627e+04        0
6.086627e+04 -3.338182e+04        0
       0        0        0

-1.213844e+06 2.271337e+04        0
2.271337e+04 -3.356049e+04        0
       0        0        0

1.100960e+06 2.274841e+04        0
2.274841e+04 -3.812278e+04        0
       0        0        0

8.479289e+05 6.094459e+04        0
6.094459e+04 -3.787019e+04        0
       0        0        0

5.949322e+05 8.957762e+04        0
8.957762e+04 -3.767803e+04        0
       0        0        0

3.419635e+05 1.086573e+05        0
1.086573e+05 -3.754494e+04        0
       0        0        0

8.901558e+04 1.181867e+05        0
1.181867e+05 -3.747027e+04        0
       0        0        0

-1.639142e+05 1.181674e+05        0
1.181674e+05 -3.745768e+04        0
       0        0        0

-4.168253e+05 1.086039e+05        0
1.086039e+05 -3.751247e+04        0
       0        0        0

-6.697180e+05 8.950436e+04        0
8.950436e+04 -3.763608e+04        0
       0        0        0

-9.225952e+05 6.087498e+04        0
6.087498e+04 -3.782343e+04        0
       0        0        0

-1.175457e+06 2.271539e+04        0
2.271539e+04 -3.806658e+04        0
       0        0        0

1.053347e+06 2.274703e+04        0
2.274703e+04 -4.271420e+04        0
       0        0        0

8.099626e+05 6.094429e+04        0
6.094429e+04 -4.238866e+04        0
       0        0        0

5.665832e+05 8.957803e+04        0
8.957803e+04 -4.214000e+04        0
       0        0        0

3.232060e+05 1.086559e+05        0
1.086559e+05 -4.197068e+04        0
       0        0        0

7.982720e+04 1.181835e+05        0
1.181835e+05 -4.188171e+04        0
       0        0        0

-1.635563e+05 1.181649e+05        0
1.181649e+05 -4.187447e+04        0
       0        0        0

-4.069457e+05 1.086046e+05        0
1.086046e+05 -4.195008e+04        0
       0        0        0

-6.503417e+05 8.950753e+04        0
8.950753e+04 -4.210767e+04        0
       0        0        0

-8.937438e+05 6.087730e+04        0
6.087730e+04 -4.234382e+04        0
       0        0        0

-1.137148e+06 2.271526e+04        0
2.271526e+04 -4.265429e+04        0
       0        0        0

1.005683e+06 2.274539e+04        0
2.274539e+04 -4.736038e+04        0
       0        0        0

7.719394e+05 6.094219e+04        0
6.094219e+04 -4.696667e+04        0
       0        0        0

5.381756e+05 8.957681e+04        0
8.957681e+04 -4.666608e+04        0
       0        0        0

3.043894e+05 1.086553e+05        0
1.086553e+05 -4.646218e+04        0
       0        0        0

7.057816e+04 1.181832e+05        0
1.181832e+05 -4.635676e+04        0
       0        0        0

-1.632605e+05 1.181653e+05        0
1.181653e+05 -4.635058e+04        0
       0        0        0

-3.971278e+05 1.086060e+05        0
1.086060e+05 -4.644347e+04        0
       0        0        0

-6.310240e+05 8.950907e+04        0
8.950907e+04 -4.663394e+04        0
       0        0        0

-8.649473e+05 6.087783e+04        0
6.087783e+04 -4.691929e+04        0
       0        0        0

-1.098893e+06 2.271487e+04        0
2.271487e+04 -4.729637e+04        0
       0        0        0

9.579955e+05 2.274400e+04        0
2.274400e+04 -5.203381e+04        0
       0        0        0

7.338873e+05 6.093989e+04        0
6.093989e+04 -5.157525e+04        0
       0        0        0

5.097360e+05 8.957508e+04        0
8.957508e+04 -5.122566e+04        0
       0        0        0

2.855393e+05 1.086546e+05        0
1.086546e+05 -5.098880e+04        0
       0        0        0

6.129495e+04 1.181835e+05        0
1.181835e+05 -5.086675e+04        0
       0        0        0

-1.629989e+05 1.181663e+05        0
1.181663e+05 -5.086025e+04        0
       0        0        0

-3.873432e+05 1.086073e+05        0
1.086073e+05 -5.096887e+04        0
       0        0        0

-6.117373e+05 8.951011e+04        0
8.951011e+04 -5.119108e+04        0
       0        0        0

-8.361791e+05 6.087815e+04        0
6.087815e+04 -5.152449e+04        0
       0        0        0

-1.060664e+06 2.271473e+04        0
2.271473e+04 -5.196605e+04        0
       0        0        0

9.103102e+05 2.274290e+04        0
2.274290e+04 -5.670829e+04        0
       0        0        0

6.958326e+05 6.093780e+04        0
6.093780e+04 -5.618768e+04        0
       0        0        0

4.812907e+05 8.957328e+04        0
8.957328e+04 -5.579141e+04        0
       0        0        0

2.666817e+05 1.086537e+05        0
1.086537e+05 -5.552312e+04        0
       0        0        0

5.200354e+04 1.181835e+05        0
1.181835e+05 -5.538500e+04        0
       0        0        0

-1.627453e+05 1.181671e+05        0
1.181671e+05 -5.537790e+04        0
       0        0        0

-3.775653e+05 1.086084e+05        0
1.086084e+05 -5.550144e+04        0
       0        0        0

-5.924555e+05 8.951107e+04        0
8.951107e+04 -5.575422e+04        0
       0        0        0

-8.074137e+05 6.087870e+04        0
6.087870e+04 -5.613390e+04        0
       0        0        0

-1.022436e+06 2.271486e+04        0
2.271486e+04 -5.663735e+04        0
       0        0        0

8.626520e+05 2.274198e+04        0
2.274198e+04 -6.135878e+04        0
       0        0        0

6.578008e+05 6.093596e+04        0
6.093596e+04 -6.077882e+04        0
       0        0        0

4.528650e+05 8.957150e+04        0
8.957150e+04 -6.033795e+04        0
       0        0        0

2.478418e+05 1.086526e+05        0
1.086526e+05 -6.003971e+04        0
       0        0        0

4.272898e+04 1.181833e+05        0
1.181833e+05 -5.988630e+04        0
       0        0        0

-1.624747e+05 1.181676e+05        0
1.181676e+05 -5.987867e+04        0
       0        0        0

-3.677693e+05 1.086093e+05        0
1.086093e+05 -6.001656e+04        0
       0        0        0

-5.731539e+05 8.951206e+04        0
8.951206e+04 -6.029866e+04        0
       0        0        0

-7.786261e+05 6.087948e+04        0
6.087948e+04 -6.072266e+04        0
       0        0        0

-9.841819e+05 2.271520e+04        0
2.271520e+04 -6.128530e+04        0
       0        0        0

8.150447e+05 2.274119e+04        0
2.274119e+04 -6.596136e+04        0
       0        0        0

6.198157e+05 6.093429e+04        0
6.093429e+04 -6.532473e+04        0
       0        0        0

4.244830e+05 8.956978e+04        0
8.956978e+04 -6.484132e+04        0
       0        0        0

2.290436e+05 1.086514e+05        0
1.086514e+05 -6.451456e+04        0
       0        0        0

3.349528e+04 1.181828e+05        0
1.181828e+05 -6.434667e+04        0
       0        0        0

-1.621631e+05 1.181678e+05        0
1.181678e+05 -6.433865e+04        0
       0        0        0

-3.579315e+05 1.086101e+05        0
1.086101e+05 -6.449035e+04        0
       0        0        0

-5.538087e+05 8.951311e+04        0
8.951311e+04 -6.480052e+04        0
       0        0        0

-7.497925e+05 6.088043e+04        0
6.088043e+04 -6.526685e+04        0
       0        0        0

-9.458791e+05 2.271565e+04        0
2.271565e+04 -6.588596e+04        0
       0        0        0

7.675109e+05 2.274046e+04        0
2.274046e+04 -7.049318e+04        0
       0        0        0

5.819002e+05 6.093273e+04        0
6.093273e+04 -6.980260e+04        0
       0        0        0

3.961677e+05 8.956811e+04        0
8.956811e+04 -6.927870e+04        0
       0        0        0

2.103102e+05 1.086501e+05        0
1.086501e+05 -6.892486e+04        0
       0        0        0

2.432535e+04 1.181822e+05        0
1.181822e+05 -6.874327e+04        0
       0        0        0

-1.617877e+05 1.181679e+05        0
1.181679e+05 -6.873499e+04        0
       0        0        0

-3.480290e+05 1.086108e+05        0
1.086108e+05 -6.889993e+04        0
       0        0        0

-5.343973e+05 8.951420e+04        0
8.951420e+04 -6.923690e+04        0
       0        0        0

-7.208901e+05 6.088150e+04        0
6.088150e+04 -6.974356e+04        0
       0        0        0

-9.075041e+05 2.271617e+04        0
2.271617e+04 -7.041649e+04        0
       0        0        0

7.200723e+05 2.273978e+04        0
2.273978e+04 -7.493249e+04        0
       0        0        0

5.440762e+05 6.093125e+04        0
6.093125e+04 -7.419071e+04        0
       0        0        0

3.679410e+05 8.956648e+04        0
8.956648e+04 -7.362841e+04        0
       0        0        0

1.916633e+05 1.086488e+05        0
1.086488e+05 -7.324889e+04        0
       0        0        0

1.524098e+04 1.181815e+05        0
1.181815e+05 -7.305436e+04        0
       0        0        0

-1.613270e+05 1.181679e+05        0
1.181679e+05 -7.304590e+04        0
       0        0        0

-3.380404e+05 1.086115e+05        0
1.086115e+05 -7.322349e+04        0
       0        0        0

-5.148979e+05 8.951533e+04        0
8.951533e+04 -7.358598e+04        0
       0        0        0

-6.918973e+05 6.088265e+04        0
6.088265e+04 -7.413101e+04        0
       0        0        0

-8.690350e+05 2.271673e+04        0
2.271673e+04 -7.485511e+04        0
       0        0        0

6.727496e+05 2.273915e+04        0
2.273915e+04 -7.925863e+04        0
       0        0        0

5.063643e+05 6.092987e+04        0
6.092987e+04 -7.846843e+04        0
       0        0        0

3.398235e+05 8.956489e+04        0
8.956489e+04 -7.786983e+04        0
       0        0        0

1.731238e+05 1.086474e+05        0
1.086474e+05 -7.746605e+04        0
       0        0        0

6.262879e+03 1.181806e+05        0
1.181806e+05 -7.725929e+04        0
       0        0        0

-1.607601e+05 1.181679e+05        0
1.181679e+05 -7.725069e+04        0
       0        0        0

-3.279448e+05 1.086121e+05        0
1.086121e+05 -7.744030e+04        0
       0        0        0

-4.952900e+05 8.951651e+04        0
8.951651e+04 -7.782701e+04        0
       0        0        0

-6.627933e+05 6.088389e+04        0
6.088389e+04 -7.840849e+04        0
       0        0        0

-8.304513e+05 2.271735e+04        0
2.271735e+04 -7.918115e+04        0
       0        0        0

6.255623e+05 2.273859e+04        0
2.273859e+04 -8.345202e+04        0
       0        0        0

4.687842e+05 6.092860e+04        0
6.092860e+04 -8.261621e+04        0
       0        0        0

3.118350e+05 8.956335e+04        0
8.956335e+04 -8.198342e+04        0
       0        0        0

1.547113e+05 1.086460e+05        0
1.086460e+05 -8.155678e+04        0
       0        0        0

-2.589332e+03 1.181797e+05        0
1.181797e+05 -8.133849e+04        0
       0        0        0

-1.600676e+05 1.181676e+05        0
1.181676e+05 -8.132976e+04        0
       0        0        0

-3.177230e+05 1.086127e+05        0
1.086127e+05 -8.153073e+04        0
       0        0        0

-4.755540e+05 8.951773e+04        0
8.951773e+04 -8.194037e+04        0
       0        0        0

-6.335585e+05 6.088526e+04        0
6.088526e+04 -8.255636e+04        0
       0        0        0

-7.917331e+05 2.271804e+04        0
2.271804e+04 -8.337502e+04        0
       0        0        0

5.785286e+05 2.273817e+04        0
2.273817e+04 -8.749418e+04        0
       0        0        0

4.313542e+05 6.092752e+04        0
6.092752e+04 -8.661559e+04        0
       0        0        0

2.839942e+05 8.956185e+04        0
8.956185e+04 -8.595072e+04        0
       0        0        0

1.364444e+05 1.086444e+05        0
1.086444e+05 -8.550260e+04        0
       0        0        0

-1.129712e+04 1.181785e+05        0
1.181785e+05 -8.527347e+04        0
       0        0        0

-1.592310e+05 1.181672e+05        0
1.181672e+05 -8.526462e+04        0
       0        0        0

-3.073564e+05 1.086132e+05        0
1.086132e+05 -8.547630e+04        0
       0        0        0

-4.556717e+05 8.951900e+04        0
8.951900e+04 -8.590754e+04        0
       0        0        0

-6.041745e+05 6.088680e+04        0
6.088680e+04 -8.655609e+04        0
       0        0        0

-7.528619e+05 2.271886e+04        0
2.271886e+04 -8.741819e+04        0
       0        0        0

5.316658e+05 2.273795e+04        0
2.273795e+04 -9.136769e+04        0
       0        0        0

3.940921e+05 6.092663e+04        0
6.092663e+04 -9.044910e+04        0
       0        0        0

2.563184e+05 8.956035e+04        0
8.956035e+04 -8.975416e+04        0
       0        0        0

1.183407e+05 1.086427e+05        0
1.086427e+05 -8.928591e+04        0
       0        0        0

-1.984304e+04 1.181771e+05        0
1.181771e+05 -8.904673e+04        0
       0        0        0

-1.582329e+05 1.181665e+05        0
1.181665e+05 -8.903797e+04        0
       0        0        0

-2.968278e+05 1.086135e+05        0
1.086135e+05 -8.925978e+04        0
       0        0        0

-4.356257e+05 8.952026e+04        0
8.952026e+04 -8.971126e+04        0
       0        0        0

-5.746240e+05 6.088854e+04        0
6.088854e+04 -9.039032e+04        0
       0        0        0

-7.138200e+05 2.271989e+04        0
2.271989e+04 -9.129325e+04        0
       0        0        0

4.849900e+05 2.273796e+04        0
2.273796e+04 -9.505616e+04        0
       0        0        0

3.570143e+05 6.092577e+04        0
6.092577e+04 -9.410011e+04        0
       0        0        0

2.288244e+05 8.955862e+04        0
8.955862e+04 -9.337680e+04        0
       0        0        0

1.004164e+05 1.086409e+05        0
1.086409e+05 -9.288973e+04        0
       0        0        0

-2.821084e+04 1.181759e+05        0
1.181759e+05 -9.264170e+04        0
       0        0        0

-1.570570e+05 1.181660e+05        0
1.181660e+05 -9.263378e+04        0
       0        0        0

-2.861209e+05 1.086137e+05        0
1.086137e+05 -9.286554e+04        0
       0        0        0

-4.153999e+05 8.952130e+04        0
8.952130e+04 -9.333582e+04        0
       0        0        0

-5.448908e+05 6.089031e+04        0
6.089031e+04 -9.404299e+04        0
       0        0        0

-6.745908e+05 2.272114e+04        0
2.272114e+04 -9.498387e+04        0
       0        0        0

4.385165e+05 2.273798e+04        0
2.273798e+04 -9.854412e+04        0
       0        0        0

3.201365e+05 6.092413e+04        0
6.092413e+04 -9.755241e+04        0
       0        0        0

2.015270e+05 8.955604e+04        0
8.955604e+04 -9.680154e+04        0
       0        0        0

8.268605e+04 1.086393e+05        0
1.086393e+05 -9.629692e+04        0
       0        0        0

-3.638570e+04 1.181760e+05        0
1.181760e+05 -9.604233e+04        0
       0        0        0

-1.556878e+05 1.181669e+05        0
1.181669e+05 -9.603768e+04        0
       0        0        0

-2.752197e+05 1.086142e+05        0
1.086142e+05 -9.628030e+04        0
       0        0        0

-3.949789e+05 8.952148e+04        0
8.952148e+04 -9.676788e+04        0
       0        0        0

-5.149601e+05 6.089129e+04        0
6.089129e+04 -9.749979e+04        0
       0        0        0

-6.351590e+05 2.272241e+04        0
2.272241e+04 -9.847493e+04        0
       0        0        0

3.922608e+05 2.273705e+04        0
2.273705e+04 -1.018168e+05        0
       0        0        0

2.834737e+05 6.091918e+04        0
6.091918e+04 -1.007892e+05        0
       0        0        0

1.744389e+05 8.955103e+04        0
8.955103e+04 -1.000095e+05        0
       0        0        0

6.516112e+04 1.086394e+05        0
1.086394e+05 -9.948864e+04        0
       0        0        0

-4.435479e+04 1.181814e+05        0
1.181814e+05 -9.923256e+04        0
       0        0        0

-1.541098e+05 1.181730e+05        0
1.181730e+05 -9.923756e+04        0
       0        0        0

-2.641076e+05 1.086162e+05        0
1.086162e+05 -9.949471e+04        0
       0        0        0

-3.743470e+05 8.951924e+04        0
8.951924e+04 -9.999807e+04        0
       0        0        0

-4.848186e+05 6.088897e+04        0
6.088897e+04 -1.007491e+05        0
       0        0        0

-5.955116e+05 2.272272e+04        0
2.272272e+04 -1.017526e+05        0
       0        0        0

3.462408e+05 2.273213e+04        0
2.273213e+04 -1.048596e+05        0
       0        0        0

2.470402e+05 6.090435e+04        0
6.090435e+04 -1.037913e+05        0
       0        0        0

1.475679e+05 8.953998e+04        0
8.953998e+04 -1.029768e+05        0
       0        0        0

4.784706e+04 1.086446e+05        0
1.086446e+05 -1.024414e+05        0
       0        0        0

-5.210859e+04 1.182015e+05        0
1.182015e+05 -1.021950e+05        0
       0        0        0

-1.523066e+05 1.181938e+05        0
1.181938e+05 -1.022248e+05        0
       0        0        0

-2.527641e+05 1.086235e+05        0
1.086235e+05 -1.025064e+05        0
       0        0        0

-3.534861e+05 8.951095e+04        0
8.951095e+04 -1.030243e+05        0
       0        0        0

-4.544544e+05 6.087677e+04        0
6.087677e+04 -1.037842e+05        0
       0        0        0

-5.556397e+05 2.271905e+04        0
2.271905e+04 -1.048050e+05        0
       0        0        0

3.004822e+05 2.271539e+04        0
2.271539e+04 -1.076574e+05        0
       0        0        0

2.108493e+05 6.086437e+04        0
6.086437e+04 -1.065333e+05        0
       0        0        0

1.209111e+05 8.951546e+04        0
8.951546e+04 -1.056691e+05        0
       0        0        0

3.073692e+04 1.086641e+05        0
1.086641e+05 -1.051219e+05        0
       0        0        0

-5.964355e+04 1.182578e+05        0
1.182578e+05 -1.049091e+05        0
       0        0        0

-1.502580e+05 1.182508e+05        0
1.182508e+05 -1.049962e+05        0
       0        0        0

-2.411586e+05 1.086450e+05        0
1.086450e+05 -1.053249e+05        0
       0        0        0

-3.323700e+05 8.948920e+04        0
8.948920e+04 -1.058577e+05        0
       0        0        0

-4.238570e+05 6.083943e+04        0
6.083943e+04 -1.066065e+05        0
       0        0        0

-5.155448e+05 2.270357e+04        0
2.270357e+04 -1.076228e+05        0
       0        0        0

2.550302e+05 2.266861e+04        0
2.266861e+04 -1.101928e+05        0
       0        0        0

1.749112e+05 6.076689e+04        0
6.076689e+04 -1.089786e+05        0
       0        0        0

9.444394e+04 8.946363e+04        0
8.946363e+04 -1.080332e+05        0
       0        0        0

1.379929e+04 1.087177e+05        0
1.087177e+05 -1.074804e+05        0
       0        0        0

-6.696699e+04 1.183950e+05        0
1.183950e+05 -1.073481e+05        0
       0        0        0

-1.479345e+05 1.183887e+05        0
1.183887e+05 -1.075565e+05        0
       0        0        0

-2.292386e+05 1.087005e+05        0
1.087005e+05 -1.079789e+05        0
       0        0        0

-3.109536e+05 8.944014e+04        0
8.944014e+04 -1.085307e+05        0
       0        0        0

-3.930164e+05 6.074460e+04        0
6.074460e+04 -1.092323e+05        0
       0        0        0

-4.752498e+05 2.265805e+04        0
2.265805e+04 -1.102010e+05        0
       0        0        0

2.099707e+05 2.255312e+04        0
2.255312e+04 -1.124452e+05        0
       0        0        0

1.392276e+05 6.054966e+04        0
6.054966e+04 -1.110720e+05        0
       0        0        0

6.809783e+04 8.936201e+04        0
8.936201e+04 -1.099896e+05        0
       0        0        0

-3.042201e+03 1.088455e+05        0
1.088455e+05 -1.094456e+05        0
       0        0        0

-7.410476e+04 1.186961e+05        0
1.186961e+05 -1.094775e+05        0
       0        0        0

-1.452897e+05 1.186906e+05        0
1.186906e+05 -1.099193e+05        0
       0        0        0

-2.169085e+05 1.088304e+05        0
1.088304e+05 -1.105207e+05        0
       0        0        0

-2.891518e+05 8.934130e+04        0
8.934130e+04 -1.111065e+05        0
       0        0        0

-3.619182e+05 6.053005e+04        0
6.053005e+04 -1.117009e+05        0
       0        0        0

-4.348222e+05 2.254384e+04        0
2.254384e+04 -1.125421e+05        0
       0        0        0

1.654676e+05 2.229389e+04        0
2.229389e+04 -1.143894e+05        0
       0        0        0

1.037757e+05 6.010633e+04        0
6.010633e+04 -1.127378e+05        0
       0        0        0

4.172434e+04 8.918285e+04        0
8.918285e+04 -1.114369e+05        0
       0        0        0

-1.993674e+04 1.091211e+05        0
1.091211e+05 -1.109352e+05        0
       0        0        0

-8.111029e+04 1.192969e+05        0
1.192969e+05 -1.112604e+05        0
       0        0        0

-1.422485e+05 1.192922e+05        0
1.192922e+05 -1.121001e+05        0
       0        0        0

-2.040019e+05 1.091080e+05        0
1.091080e+05 -1.130150e+05        0
       0        0        0

-2.668047e+05 8.916493e+04        0
8.916493e+04 -1.136749e+05        0
       0        0        0

-3.305323e+05 6.008944e+04        0
6.008944e+04 -1.140806e+05        0
       0        0        0

-3.944153e+05 2.228592e+04        0
2.228592e+04 -1.146607e+05        0
       0        0        0

1.218143e+05 2.175987e+04        0
2.175987e+04 -1.160001e+05        0
       0        0        0

6.846991e+04 5.928775e+04        0
5.928775e+04 -1.139016e+05        0
       0        0        0

1.504776e+04 8.891653e+04        0
8.891653e+04 -1.123083e+05        0
       0        0        0

-3.712658e+04 1.096611e+05        0
1.096611e+05 -1.119237e+05        0
       0        0        0

-8.806576e+04 1.203706e+05        0
1.203706e+05 -1.126850e+05        0
       0        0        0

-1.387020e+05 1.203666e+05        0
1.203666e+05 -1.140839e+05        0
       0        0        0

-1.902583e+05 1.096500e+05        0
1.096500e+05 -1.154691e+05        0
       0        0        0

-2.436324e+05 8.890144e+04        0
8.890144e+04 -1.162985e+05        0
       0        0        0

-2.987810e+05 5.927361e+04        0
5.927361e+04 -1.164537e+05        0
       0        0        0

-3.543298e+05 2.175326e+04        0
2.175326e+04 -1.165894e+05        0
       0        0        0

7.947515e+04 2.075678e+04        0
2.075678e+04 -1.172821e+05        0
       0        0        0

3.307865e+04 5.797447e+04        0
5.797447e+04 -1.145899e+05        0
       0        0        0

-1.236393e+04 8.865059e+04        0
8.865059e+04 -1.127886e+05        0
       0        0        0

-5.490063e+04 1.106013e+05        0
1.106013e+05 -1.126577e+05        0
       0        0        0

-9.504947e+04 1.220074e+05        0
1.220074e+05 -1.138552e+05        0
       0        0        0

-1.345317e+05 1.220041e+05        0
1.220041e+05 -1.157267e+05        0
       0        0        0

-1.753639e+05 1.105923e+05        0
1.105923e+05 -1.176118e+05        0
       0        0        0

-2.192067e+05 8.863840e+04        0
8.863840e+04 -1.187962e+05        0
       0        0        0

-2.664683e+05 5.796312e+04        0
5.796312e+04 -1.188293e+05        0
       0        0        0

-3.150782e+05 2.075156e+04        0
2.075156e+04 -1.183719e+05        0
       0        0        0

3.901604e+04 1.910250e+04        0
1.910250e+04 -1.183311e+05        0
       0        0        0

-2.945801e+03 5.638064e+04        0
5.638064e+04 -1.153385e+05        0
       0        0        0

-4.097162e+04 8.874194e+04        0
8.874194e+04 -1.139163e+05        0
       0        0        0

-7.334316e+04 1.119428e+05        0
1.119428e+05 -1.141993e+05        0
       0        0        0

-1.020044e+05 1.238170e+05        0
1.238170e+05 -1.151847e+05        0
       0        0        0

-1.297257e+05 1.238146e+05        0
1.238146e+05 -1.165458e+05        0
       0        0        0

-1.591896e+05 1.119363e+05        0
1.119363e+05 -1.183359e+05        0
       0        0        0

-1.930733e+05 8.873286e+04        0
8.873286e+04 -1.201362e+05        0
       0        0        0

-2.331278e+05 5.637209e+04        0
5.637209e+04 -1.207525e+05        0
       0        0        0

-2.773664e+05 1.909865e+04        0
1.909865e+04 -1.200521e+05        0
       0        0        0

5.231885e+02 1.710271e+04        0
1.710271e+04 -1.199683e+05        0
       0        0        0

-4.055900e+04 5.592265e+04        0
5.592265e+04 -1.183223e+05        0
       0        0        0

-7.064224e+04 9.001307e+04        0
9.001307e+04 -1.192608e+05        0
       0        0        0

-9.160225e+04 1.128998e+05        0
1.128998e+05 -1.193451e+05        0
       0        0        0

-1.084793e+05 1.240404e+05        0
1.240404e+05 -1.176209e+05        0
       0        0        0

-1.246149e+05 1.240392e+05        0
1.240392e+05 -1.154734e+05        0
       0        0        0

-1.424954e+05 1.128964e+05        0
1.128964e+05 -1.147534e+05        0
       0        0        0

-1.653497e+05 9.000769e+04        0
9.000769e+04 -1.167341e+05        0
       0        0        0

-1.979384e+05 5.591692e+04        0
5.591692e+04 -1.201833e+05        0
       0        0        0

-2.416132e+05 1.710010e+04        0
1.710010e+04 -1.211410e+05        0
       0        0        0

-3.838756e+04 1.780089e+04        0
1.780089e+04 -1.241547e+05        0
       0        0        0

-8.056431e+04 6.133461e+04        0
6.133461e+04 -1.329179e+05        0
       0        0        0

-9.823377e+04 9.241439e+04        0
9.241439e+04 -1.376493e+05        0
       0        0        0

-1.069299e+05 1.101518e+05        0
1.101518e+05 -1.330247e+05        0
       0        0        0

-1.134903e+05 1.182691e+05        0
1.182691e+05 -1.226657e+05        0
       0        0        0

-1.199857e+05 1.182695e+05        0
1.182695e+05 -1.108102e+05        0
       0        0        0

-1.278480e+05 1.101525e+05        0
1.101525e+05 -1.017531e+05        0
       0        0        0

-1.390687e+05 9.241419e+04        0
9.241419e+04 -9.965328e+04        0
       0        0        0

-1.602170e+05 6.133242e+04        0
6.133242e+04 -1.078653e+05        0
       0        0        0

-2.060740e+05 1.779909e+04        0
1.779909e+04 -1.203165e+05        0
       0        0        0

-9.041227e+04 4.054631e+04        0
4.054631e+04 -1.562833e+05        0
       0        0        0

-1.138421e+05 7.593486e+04        0
7.593486e+04 -1.858539e+05        0
       0        0        0

-1.150718e+05 8.920336e+04        0
8.920336e+04 -1.817339e+05        0
       0        0        0

-1.153875e+05 9.571255e+04        0
9.571255e+04 -1.608397e+05        0
       0        0        0

-1.157489e+05 9.856239e+04        0
9.856239e+04 -1.317915e+05        0
       0        0        0

-1.168366e+05 9.856429e+04        0
9.856429e+04 -1.007937e+05        0
       0        0        0

-1.188659e+05 9.571771e+04        0
9.571771e+04 -7.341100e+04        0
       0        0        0

-1.225609e+05 8.921016e+04        0
8.921016e+04 -5.589328e+04        0
       0        0        0

-1.289065e+05 7.594047e+04        0
7.594047e+04 -5.688864e+04        0
       0        0        0

-1.586523e+05 4.054609e+04        0
4.054609e+04 -9.278138e+04        0
       0        0        0

