# vtk DataFile Version 3.0
"1D Tensile with 5 elemets"
ASCII
DATASET UNSTRUCTURED_GRID

POINTS       6 double
0.000000e+00 0.000000e+00 0.000000e+00
1.000000e+01 0.000000e+00 0.000000e+00
2.000000e+01 0.000000e+00 0.000000e+00
3.000000e+01 0.000000e+00 0.000000e+00
4.000000e+01 0.000000e+00 0.000000e+00
5.000000e+01 0.000000e+00 0.000000e+00
CELLS       5      15
2       0       1
2       1       2
2       2       3
2       3       4
2       4       5
CELL_TYPES       5
3
3
3
3
3
POINT_DATA       6
VECTORS DISPLACEMENT_2.000000e-01 double
0.000000e+00    0.000000e+00    0.000000e+00
5.152695e-07    0.000000e+00    0.000000e+00
5.807728e-06    0.000000e+00    0.000000e+00
6.208722e-05    0.000000e+00    0.000000e+00
5.091283e-04    0.000000e+00    0.000000e+00
2.884436e-03    0.000000e+00    0.000000e+00

CELL_DATA        5
TENSORS Element_Stress2.000000e-01 double
CELL_DATA        5
SCALARS Stress2.000000e-01 double 1
LOOKUP_TABLE Element_Stress2.000000e-01
1.030534e-02
1.058436e-01
1.124957e+00
8.901030e+00
4.640392e+01

SCALARS Force2.000000e-01 double 1
LOOKUP_TABLE Element_Force2.000000e-01
1.030534e-02
1.058436e-01
1.124957e+00
8.901030e+00
4.640392e+01

POINT_DATA       6
VECTORS DISPLACEMENT_4.000000e-01 double
0.000000e+00    0.000000e+00    0.000000e+00
3.170454e-05    0.000000e+00    0.000000e+00
1.726838e-04    0.000000e+00    0.000000e+00
8.362734e-04    0.000000e+00    0.000000e+00
3.051890e-03    0.000000e+00    0.000000e+00
7.733707e-03    0.000000e+00    0.000000e+00

CELL_DATA        5
TENSORS Element_Stress4.000000e-01 double
CELL_DATA        5
SCALARS Stress4.000000e-01 double 1
LOOKUP_TABLE Element_Stress4.000000e-01
6.338897e-01
2.815616e+00
1.318430e+01
4.335182e+01
8.944853e+01

SCALARS Force4.000000e-01 double 1
LOOKUP_TABLE Element_Force4.000000e-01
6.338897e-01
2.815616e+00
1.318430e+01
4.335182e+01
8.944853e+01

POINT_DATA       6
VECTORS DISPLACEMENT_6.000000e-01 double
0.000000e+00    0.000000e+00    0.000000e+00
2.952407e-04    0.000000e+00    0.000000e+00
1.048135e-03    0.000000e+00    0.000000e+00
3.117145e-03    0.000000e+00    0.000000e+00
7.117966e-03    0.000000e+00    0.000000e+00
1.222921e-02    0.000000e+00    0.000000e+00

CELL_DATA        5
TENSORS Element_Stress6.000000e-01 double
CELL_DATA        5
SCALARS Stress6.000000e-01 double 1
LOOKUP_TABLE Element_Stress6.000000e-01
5.887432e+00
1.494537e+01
4.054139e+01
7.693826e+01
9.725399e+01

SCALARS Force6.000000e-01 double 1
LOOKUP_TABLE Element_Force6.000000e-01
5.887432e+00
1.494537e+01
4.054139e+01
7.693826e+01
9.725399e+01

POINT_DATA       6
VECTORS DISPLACEMENT_8.000000e-01 double
0.000000e+00    0.000000e+00    0.000000e+00
1.173737e-03    0.000000e+00    0.000000e+00
3.150205e-03    0.000000e+00    0.000000e+00
6.718481e-03    0.000000e+00    0.000000e+00
1.151778e-02    0.000000e+00    0.000000e+00
1.649349e-02    0.000000e+00    0.000000e+00

CELL_DATA        5
TENSORS Element_Stress8.000000e-01 double
CELL_DATA        5
SCALARS Stress8.000000e-01 double 1
LOOKUP_TABLE Element_Stress8.000000e-01
2.320240e+01
3.876322e+01
6.890673e+01
9.159028e+01
9.479737e+01

SCALARS Force8.000000e-01 double 1
LOOKUP_TABLE Element_Force8.000000e-01
2.320240e+01
3.876322e+01
6.890673e+01
9.159028e+01
9.479737e+01

POINT_DATA       6
VECTORS DISPLACEMENT_1.000000e+00 double
0.000000e+00    0.000000e+00    0.000000e+00
2.826963e-03    0.000000e+00    0.000000e+00
6.346567e-03    0.000000e+00    0.000000e+00
1.088386e-02    0.000000e+00    0.000000e+00
1.582208e-02    0.000000e+00    0.000000e+00
2.076813e-02    0.000000e+00    0.000000e+00

CELL_DATA        5
TENSORS Element_Stress1.000000e+00 double
CELL_DATA        5
SCALARS Stress1.000000e+00 double 1
LOOKUP_TABLE Element_Stress1.000000e+00
5.498487e+01
6.799879e+01
8.680724e+01
9.411663e+01
9.425894e+01

SCALARS Force1.000000e+00 double 1
LOOKUP_TABLE Element_Force1.000000e+00
5.498487e+01
6.799879e+01
8.680724e+01
9.411663e+01
9.425894e+01

POINT_DATA       6
VECTORS DISPLACEMENT_1.200000e+00 double
0.000000e+00    0.000000e+00    0.000000e+00
4.897387e-03    0.000000e+00    0.000000e+00
9.935545e-03    0.000000e+00    0.000000e+00
1.504112e-02    0.000000e+00    0.000000e+00
2.003687e-02    0.000000e+00    0.000000e+00
2.502339e-02    0.000000e+00    0.000000e+00

CELL_DATA        5
TENSORS Element_Stress1.200000e+00 double
CELL_DATA        5
SCALARS Stress1.200000e+00 double 1
LOOKUP_TABLE Element_Stress1.200000e+00
9.337482e+01
9.593005e+01
9.715130e+01
9.516110e+01
9.499343e+01

SCALARS Force1.200000e+00 double 1
LOOKUP_TABLE Element_Force1.200000e+00
9.337482e+01
9.593005e+01
9.715130e+01
9.516110e+01
9.499343e+01

POINT_DATA       6
VECTORS DISPLACEMENT_1.400000e+00 double
0.000000e+00    0.000000e+00    0.000000e+00
6.783331e-03    0.000000e+00    0.000000e+00
1.316993e-02    0.000000e+00    0.000000e+00
1.887478e-02    0.000000e+00    0.000000e+00
2.411459e-02    0.000000e+00    0.000000e+00
2.917065e-02    0.000000e+00    0.000000e+00

CELL_DATA        5
TENSORS Element_Stress1.400000e+00 double
CELL_DATA        5
SCALARS Stress1.400000e+00 double 1
LOOKUP_TABLE Element_Stress1.400000e+00
1.270485e+02
1.200639e+02
1.079392e+02
9.957848e+01
9.625454e+01

SCALARS Force1.400000e+00 double 1
LOOKUP_TABLE Element_Force1.400000e+00
1.270485e+02
1.200639e+02
1.079392e+02
9.957848e+01
9.625454e+01

POINT_DATA       6
VECTORS DISPLACEMENT_1.600000e+00 double
0.000000e+00    0.000000e+00    0.000000e+00
8.104397e-03    0.000000e+00    0.000000e+00
1.561694e-02    0.000000e+00    0.000000e+00
2.213007e-02    0.000000e+00    0.000000e+00
2.785160e-02    0.000000e+00    0.000000e+00
3.305366e-02    0.000000e+00    0.000000e+00

CELL_DATA        5
TENSORS Element_Stress1.600000e+00 double
CELL_DATA        5
SCALARS Stress1.600000e+00 double 1
LOOKUP_TABLE Element_Stress1.600000e+00
1.499365e+02
1.397519e+02
1.222972e+02
1.082377e+02
9.889663e+01

SCALARS Force1.600000e+00 double 1
LOOKUP_TABLE Element_Force1.600000e+00
1.499365e+02
1.397519e+02
1.222972e+02
1.082377e+02
9.889663e+01

POINT_DATA       6
VECTORS DISPLACEMENT_1.800000e+00 double
0.000000e+00    0.000000e+00    0.000000e+00
8.845570e-03    0.000000e+00    0.000000e+00
1.719761e-02    0.000000e+00    0.000000e+00
2.458537e-02    0.000000e+00    0.000000e+00
3.094614e-02    0.000000e+00    0.000000e+00
3.637675e-02    0.000000e+00    0.000000e+00

CELL_DATA        5
TENSORS Element_Stress1.800000e+00 double
CELL_DATA        5
SCALARS Stress1.800000e+00 double 1
LOOKUP_TABLE Element_Stress1.800000e+00
1.625343e+02
1.541650e+02
1.375902e+02
1.196075e+02
1.030177e+02

SCALARS Force1.800000e+00 double 1
LOOKUP_TABLE Element_Force1.800000e+00
1.625343e+02
1.541650e+02
1.375902e+02
1.196075e+02
1.030177e+02

POINT_DATA       6
VECTORS DISPLACEMENT_2.000000e+00 double
0.000000e+00    0.000000e+00    0.000000e+00
9.181758e-03    0.000000e+00    0.000000e+00
1.804352e-02    0.000000e+00    0.000000e+00
2.612409e-02    0.000000e+00    0.000000e+00
3.308774e-02    0.000000e+00    0.000000e+00
3.875781e-02    0.000000e+00    0.000000e+00

CELL_DATA        5
TENSORS Element_Stress2.000000e+00 double
CELL_DATA        5
SCALARS Stress2.000000e+00 double 1
LOOKUP_TABLE Element_Stress2.000000e+00
1.681922e+02
1.628076e+02
1.495287e+02
1.302060e+02
1.073165e+02

SCALARS Force2.000000e+00 double 1
LOOKUP_TABLE Element_Force2.000000e+00
1.681922e+02
1.628076e+02
1.495287e+02
1.302060e+02
1.073165e+02

POINT_DATA       6
VECTORS DISPLACEMENT_2.200000e+00 double
0.000000e+00    0.000000e+00    0.000000e+00
9.269732e-03    0.000000e+00    0.000000e+00
1.832181e-02    0.000000e+00    0.000000e+00
2.674190e-02    0.000000e+00    0.000000e+00
3.405847e-02    0.000000e+00    0.000000e+00
3.988082e-02    0.000000e+00    0.000000e+00

CELL_DATA        5
TENSORS Element_Stress2.200000e+00 double
CELL_DATA        5
SCALARS Stress2.200000e+00 double 1
LOOKUP_TABLE Element_Stress2.200000e+00
1.696670e+02
1.660138e+02
1.553235e+02
1.363548e+02
1.100401e+02

SCALARS Force2.200000e+00 double 1
LOOKUP_TABLE Element_Force2.200000e+00
1.696670e+02
1.660138e+02
1.553235e+02
1.363548e+02
1.100401e+02

POINT_DATA       6
VECTORS DISPLACEMENT_2.400000e+00 double
0.000000e+00    0.000000e+00    0.000000e+00
9.166759e-03    0.000000e+00    0.000000e+00
1.812435e-02    0.000000e+00    0.000000e+00
2.649009e-02    0.000000e+00    0.000000e+00
3.380323e-02    0.000000e+00    0.000000e+00
3.963365e-02    0.000000e+00    0.000000e+00

CELL_DATA        5
TENSORS Element_Stress2.400000e+00 double
CELL_DATA        5
SCALARS Stress2.400000e+00 double 1
LOOKUP_TABLE Element_Stress2.400000e+00
1.679405e+02
1.644234e+02
1.543982e+02
1.362955e+02
1.101841e+02

SCALARS Force2.400000e+00 double 1
LOOKUP_TABLE Element_Force2.400000e+00
1.679405e+02
1.644234e+02
1.543982e+02
1.362955e+02
1.101841e+02

POINT_DATA       6
VECTORS DISPLACEMENT_2.600000e+00 double
0.000000e+00    0.000000e+00    0.000000e+00
8.852984e-03    0.000000e+00    0.000000e+00
1.745597e-02    0.000000e+00    0.000000e+00
2.543487e-02    0.000000e+00    0.000000e+00
3.243355e-02    0.000000e+00    0.000000e+00
3.814203e-02    0.000000e+00    0.000000e+00

CELL_DATA        5
TENSORS Element_Stress2.600000e+00 double
CELL_DATA        5
SCALARS Stress2.600000e+00 double 1
LOOKUP_TABLE Element_Stress2.600000e+00
1.626595e+02
1.584301e+02
1.477863e+02
1.308181e+02
1.080041e+02

SCALARS Force2.600000e+00 double 1
LOOKUP_TABLE Element_Force2.600000e+00
1.626595e+02
1.584301e+02
1.477863e+02
1.308181e+02
1.080041e+02

POINT_DATA       6
VECTORS DISPLACEMENT_2.800000e+00 double
0.000000e+00    0.000000e+00    0.000000e+00
8.288997e-03    0.000000e+00    0.000000e+00
1.629569e-02    0.000000e+00    0.000000e+00
2.366500e-02    0.000000e+00    0.000000e+00
3.017627e-02    0.000000e+00    0.000000e+00
3.569518e-02    0.000000e+00    0.000000e+00

CELL_DATA        5
TENSORS Element_Stress2.800000e+00 double
CELL_DATA        5
SCALARS Stress2.800000e+00 double 1
LOOKUP_TABLE Element_Stress2.800000e+00
1.530903e+02
1.482630e+02
1.372702e+02
1.222645e+02
1.046052e+02

SCALARS Force2.800000e+00 double 1
LOOKUP_TABLE Element_Force2.800000e+00
1.530903e+02
1.482630e+02
1.372702e+02
1.222645e+02
1.046052e+02

POINT_DATA       6
VECTORS DISPLACEMENT_3.000000e+00 double
0.000000e+00    0.000000e+00    0.000000e+00
7.467700e-03    0.000000e+00    0.000000e+00
1.467178e-02    0.000000e+00    0.000000e+00
2.131903e-02    0.000000e+00    0.000000e+00
2.730638e-02    0.000000e+00    0.000000e+00
3.263100e-02    0.000000e+00    0.000000e+00

CELL_DATA        5
TENSORS Element_Stress3.000000e+00 double
CELL_DATA        5
SCALARS Stress3.000000e+00 double 1
LOOKUP_TABLE Element_Stress3.000000e+00
1.389757e+02
1.343994e+02
1.246585e+02
1.129825e+02
1.011087e+02

SCALARS Force3.000000e+00 double 1
LOOKUP_TABLE Element_Force3.000000e+00
1.389757e+02
1.343994e+02
1.246585e+02
1.129825e+02
1.011087e+02

POINT_DATA       6
VECTORS DISPLACEMENT_3.200000e+00 double
0.000000e+00    0.000000e+00    0.000000e+00
6.441481e-03    0.000000e+00    0.000000e+00
1.270110e-02    0.000000e+00    0.000000e+00
1.859501e-02    0.000000e+00    0.000000e+00
2.409699e-02    0.000000e+00    0.000000e+00
2.925407e-02    0.000000e+00    0.000000e+00

CELL_DATA        5
TENSORS Element_Stress3.200000e+00 double
CELL_DATA        5
SCALARS Stress3.200000e+00 double 1
LOOKUP_TABLE Element_Stress3.200000e+00
1.210333e+02
1.178175e+02
1.113173e+02
1.043009e+02
9.808347e+01

SCALARS Force3.200000e+00 double 1
LOOKUP_TABLE Element_Force3.200000e+00
1.210333e+02
1.178175e+02
1.113173e+02
1.043009e+02
9.808347e+01

POINT_DATA       6
VECTORS DISPLACEMENT_3.400000e+00 double
0.000000e+00    0.000000e+00    0.000000e+00
5.316798e-03    0.000000e+00    0.000000e+00
1.057646e-02    0.000000e+00    0.000000e+00
1.573171e-02    0.000000e+00    0.000000e+00
2.079795e-02    0.000000e+00    0.000000e+00
2.581358e-02    0.000000e+00    0.000000e+00

CELL_DATA        5
TENSORS Element_Stress3.400000e+00 double
CELL_DATA        5
SCALARS Stress3.400000e+00 double 1
LOOKUP_TABLE Element_Stress3.400000e+00
1.009677e+02
9.993696e+01
9.805021e+01
9.643892e+01
9.552170e+01

SCALARS Force3.400000e+00 double 1
LOOKUP_TABLE Element_Force3.400000e+00
1.009677e+02
9.993696e+01
9.805021e+01
9.643892e+01
9.552170e+01

POINT_DATA       6
VECTORS DISPLACEMENT_3.600000e+00 double
0.000000e+00    0.000000e+00    0.000000e+00
4.222730e-03    0.000000e+00    0.000000e+00
8.518158e-03    0.000000e+00    0.000000e+00
1.297411e-02    0.000000e+00    0.000000e+00
1.763576e-02    0.000000e+00    0.000000e+00
2.252170e-02    0.000000e+00    0.000000e+00

CELL_DATA        5
TENSORS Element_Stress3.600000e+00 double
CELL_DATA        5
SCALARS Stress3.600000e+00 double 1
LOOKUP_TABLE Element_Stress3.600000e+00
8.103281e+01
8.237038e+01
8.531732e+01
8.908040e+01
9.316678e+01

SCALARS Force3.600000e+00 double 1
LOOKUP_TABLE Element_Force3.600000e+00
8.103281e+01
8.237038e+01
8.531732e+01
8.908040e+01
9.316678e+01

POINT_DATA       6
VECTORS DISPLACEMENT_3.800000e+00 double
0.000000e+00    0.000000e+00    0.000000e+00
3.273160e-03    0.000000e+00    0.000000e+00
6.720362e-03    0.000000e+00    0.000000e+00
1.054060e-02    0.000000e+00    0.000000e+00
1.481844e-02    0.000000e+00    0.000000e+00
1.957728e-02    0.000000e+00    0.000000e+00

CELL_DATA        5
TENSORS Element_Stress3.800000e+00 double
CELL_DATA        5
SCALARS Stress3.800000e+00 double 1
LOOKUP_TABLE Element_Stress3.800000e+00
6.338840e+01
6.664660e+01
7.359337e+01
8.204683e+01
9.085337e+01

SCALARS Force3.800000e+00 double 1
LOOKUP_TABLE Element_Force3.800000e+00
6.338840e+01
6.664660e+01
7.359337e+01
8.204683e+01
9.085337e+01

POINT_DATA       6
VECTORS DISPLACEMENT_4.000000e+00 double
0.000000e+00    0.000000e+00    0.000000e+00
2.542546e-03    0.000000e+00    0.000000e+00
5.317754e-03    0.000000e+00    0.000000e+00
8.601588e-03    0.000000e+00    0.000000e+00
1.253257e-02    0.000000e+00    0.000000e+00
1.717128e-02    0.000000e+00    0.000000e+00

CELL_DATA        5
TENSORS Element_Stress4.000000e+00 double
CELL_DATA        5
SCALARS Stress4.000000e+00 double 1
LOOKUP_TABLE Element_Stress4.000000e+00
4.959007e+01
5.400539e+01
6.358855e+01
7.564603e+01
8.866151e+01

SCALARS Force4.000000e+00 double 1
LOOKUP_TABLE Element_Force4.000000e+00
4.959007e+01
5.400539e+01
6.358855e+01
7.564603e+01
8.866151e+01

POINT_DATA       6
VECTORS DISPLACEMENT_4.200000e+00 double
0.000000e+00    0.000000e+00    0.000000e+00
2.063076e-03    0.000000e+00    0.000000e+00
4.380205e-03    0.000000e+00    0.000000e+00
7.270683e-03    0.000000e+00    0.000000e+00
1.092947e-02    0.000000e+00    0.000000e+00
1.547016e-02    0.000000e+00    0.000000e+00

CELL_DATA        5
TENSORS Element_Stress4.200000e+00 double
CELL_DATA        5
SCALARS Stress4.200000e+00 double 1
LOOKUP_TABLE Element_Stress4.200000e+00
4.042747e+01
4.529309e+01
5.618552e+01
7.059289e+01
8.686929e+01

SCALARS Force4.200000e+00 double 1
LOOKUP_TABLE Element_Force4.200000e+00
4.042747e+01
4.529309e+01
5.618552e+01
7.059289e+01
8.686929e+01

POINT_DATA       6
VECTORS DISPLACEMENT_4.400000e+00 double
0.000000e+00    0.000000e+00    0.000000e+00
1.837015e-03    0.000000e+00    0.000000e+00
3.927033e-03    0.000000e+00    0.000000e+00
6.605061e-03    0.000000e+00    0.000000e+00
1.010637e-02    0.000000e+00    0.000000e+00
1.458829e-02    0.000000e+00    0.000000e+00

CELL_DATA        5
TENSORS Element_Stress4.400000e+00 double
CELL_DATA        5
SCALARS Stress4.400000e+00 double 1
LOOKUP_TABLE Element_Stress4.400000e+00
3.607756e+01
4.094461e+01
5.216360e+01
6.765734e+01
8.579319e+01

SCALARS Force4.400000e+00 double 1
LOOKUP_TABLE Element_Force4.400000e+00
3.607756e+01
4.094461e+01
5.216360e+01
6.765734e+01
8.579319e+01

POINT_DATA       6
VECTORS DISPLACEMENT_4.600000e+00 double
0.000000e+00    0.000000e+00    0.000000e+00
1.851869e-03    0.000000e+00    0.000000e+00
3.945560e-03    0.000000e+00    0.000000e+00
6.610174e-03    0.000000e+00    0.000000e+00
1.009214e-02    0.000000e+00    0.000000e+00
1.456509e-02    0.000000e+00    0.000000e+00

CELL_DATA        5
TENSORS Element_Stress4.600000e+00 double
CELL_DATA        5
SCALARS Stress4.600000e+00 double 1
LOOKUP_TABLE Element_Stress4.600000e+00
3.636397e+01
4.101510e+01
5.190910e+01
6.729612e+01
8.562887e+01

SCALARS Force4.600000e+00 double 1
LOOKUP_TABLE Element_Force4.600000e+00
3.636397e+01
4.101510e+01
5.190910e+01
6.729612e+01
8.562887e+01

POINT_DATA       6
VECTORS DISPLACEMENT_4.800000e+00 double
0.000000e+00    0.000000e+00    0.000000e+00
2.089026e-03    0.000000e+00    0.000000e+00
4.402569e-03    0.000000e+00    0.000000e+00
7.245289e-03    0.000000e+00    0.000000e+00
1.084392e-02    0.000000e+00    0.000000e+00
1.535756e-02    0.000000e+00    0.000000e+00

CELL_DATA        5
TENSORS Element_Stress4.800000e+00 double
CELL_DATA        5
SCALARS Stress4.800000e+00 double 1
LOOKUP_TABLE Element_Stress4.800000e+00
4.092558e+01
4.522457e+01
5.528285e+01
6.947256e+01
8.637410e+01

SCALARS Force4.800000e+00 double 1
LOOKUP_TABLE Element_Force4.800000e+00
4.092558e+01
4.522457e+01
5.528285e+01
6.947256e+01
8.637410e+01

POINT_DATA       6
VECTORS DISPLACEMENT_5.000000e+00 double
0.000000e+00    0.000000e+00    0.000000e+00
2.523945e-03    0.000000e+00    0.000000e+00
5.246066e-03    0.000000e+00    0.000000e+00
8.428636e-03    0.000000e+00    0.000000e+00
1.225567e-02    0.000000e+00    0.000000e+00
1.685020e-02    0.000000e+00    0.000000e+00

CELL_DATA        5
TENSORS Element_Stress5.000000e+00 double
CELL_DATA        5
SCALARS Stress5.000000e+00 double 1
LOOKUP_TABLE Element_Stress5.000000e+00
4.923620e+01
5.299972e+01
6.168813e+01
7.371948e+01
8.785410e+01

SCALARS Force5.000000e+00 double 1
LOOKUP_TABLE Element_Force5.000000e+00
4.923620e+01
5.299972e+01
6.168813e+01
7.371948e+01
8.785410e+01

POINT_DATA       6
VECTORS DISPLACEMENT_5.200000e+00 double
0.000000e+00    0.000000e+00    0.000000e+00
3.121869e-03    0.000000e+00    0.000000e+00
6.402084e-03    0.000000e+00    0.000000e+00
1.004312e-02    0.000000e+00    0.000000e+00
1.417473e-02    0.000000e+00    0.000000e+00
1.887641e-02    0.000000e+00    0.000000e+00

CELL_DATA        5
TENSORS Element_Stress5.200000e+00 double
CELL_DATA        5
SCALARS Stress5.200000e+00 double 1
LOOKUP_TABLE Element_Stress5.200000e+00
6.054717e+01
6.352068e+01
7.026244e+01
7.935362e+01
8.981094e+01

SCALARS Force5.200000e+00 double 1
LOOKUP_TABLE Element_Force5.200000e+00
6.054717e+01
6.352068e+01
7.026244e+01
7.935362e+01
8.981094e+01

POINT_DATA       6
VECTORS DISPLACEMENT_5.400000e+00 double
0.000000e+00    0.000000e+00    0.000000e+00
3.834741e-03    0.000000e+00    0.000000e+00
7.773462e-03    0.000000e+00    0.000000e+00
1.194433e-02    0.000000e+00    0.000000e+00
1.642084e-02    0.000000e+00    0.000000e+00
2.124237e-02    0.000000e+00    0.000000e+00

CELL_DATA        5
TENSORS Element_Stress5.400000e+00 double
CELL_DATA        5
SCALARS Stress5.400000e+00 double 1
LOOKUP_TABLE Element_Stress5.400000e+00
7.386240e+01
7.578928e+01
8.007748e+01
8.569399e+01
9.199515e+01

SCALARS Force5.400000e+00 double 1
LOOKUP_TABLE Element_Force5.400000e+00
7.386240e+01
7.578928e+01
8.007748e+01
8.569399e+01
9.199515e+01

POINT_DATA       6
VECTORS DISPLACEMENT_5.600000e+00 double
0.000000e+00    0.000000e+00    0.000000e+00
4.602833e-03    0.000000e+00    0.000000e+00
9.244954e-03    0.000000e+00    0.000000e+00
1.397176e-02    0.000000e+00    0.000000e+00
1.880359e-02    0.000000e+00    0.000000e+00
2.374721e-02    0.000000e+00    0.000000e+00

CELL_DATA        5
TENSORS Element_Stress5.600000e+00 double
CELL_DATA        5
SCALARS Stress5.600000e+00 double 1
LOOKUP_TABLE Element_Stress5.600000e+00
8.800589e+01
8.872376e+01
9.026926e+01
9.218244e+01
9.421476e+01

SCALARS Force5.600000e+00 double 1
LOOKUP_TABLE Element_Force5.600000e+00
8.800589e+01
8.872376e+01
9.026926e+01
9.218244e+01
9.421476e+01

POINT_DATA       6
VECTORS DISPLACEMENT_5.800000e+00 double
0.000000e+00    0.000000e+00    0.000000e+00
5.361114e-03    0.000000e+00    0.000000e+00
1.069450e-02    0.000000e+00    0.000000e+00
1.596242e-02    0.000000e+00    0.000000e+00
2.113661e-02    0.000000e+00    0.000000e+00
2.619710e-02    0.000000e+00    0.000000e+00

CELL_DATA        5
TENSORS Element_Stress5.800000e+00 double
CELL_DATA        5
SCALARS Stress5.800000e+00 double 1
LOOKUP_TABLE Element_Stress5.800000e+00
1.017665e+02
1.012667e+02
1.000860e+02
9.839276e+01
9.633474e+01

SCALARS Force5.800000e+00 double 1
LOOKUP_TABLE Element_Force5.800000e+00
1.017665e+02
1.012667e+02
1.000860e+02
9.839276e+01
9.633474e+01

POINT_DATA       6
VECTORS DISPLACEMENT_6.000000e+00 double
0.000000e+00    0.000000e+00    0.000000e+00
6.047773e-03    0.000000e+00    0.000000e+00
1.200709e-02    0.000000e+00    0.000000e+00
1.776493e-02    0.000000e+00    0.000000e+00
2.324904e-02    0.000000e+00    0.000000e+00
2.841531e-02    0.000000e+00    0.000000e+00

CELL_DATA        5
TENSORS Element_Stress6.000000e+00 double
CELL_DATA        5
SCALARS Stress6.000000e+00 double 1
LOOKUP_TABLE Element_Stress6.000000e+00
1.140575e+02
1.124831e+02
1.088872e+02
1.039799e+02
9.824961e+01

SCALARS Force6.000000e+00 double 1
LOOKUP_TABLE Element_Force6.000000e+00
1.140575e+02
1.124831e+02
1.088872e+02
1.039799e+02
9.824961e+01

POINT_DATA       6
VECTORS DISPLACEMENT_6.200000e+00 double
0.000000e+00    0.000000e+00    0.000000e+00
6.611694e-03    0.000000e+00    0.000000e+00
1.308694e-02    0.000000e+00    0.000000e+00
1.925171e-02    0.000000e+00    0.000000e+00
2.499535e-02    0.000000e+00    0.000000e+00
3.025067e-02    0.000000e+00    0.000000e+00

CELL_DATA        5
TENSORS Element_Stress6.200000e+00 double
CELL_DATA        5
SCALARS Stress6.200000e+00 double 1
LOOKUP_TABLE Element_Stress6.200000e+00
1.240332e+02
1.216291e+02
1.161359e+02
1.086333e+02
9.985847e+01

SCALARS Force6.200000e+00 double 1
LOOKUP_TABLE Element_Force6.200000e+00
1.240332e+02
1.216291e+02
1.161359e+02
1.086333e+02
9.985847e+01

POINT_DATA       6
VECTORS DISPLACEMENT_6.400000e+00 double
0.000000e+00    0.000000e+00    0.000000e+00
7.016872e-03    0.000000e+00    0.000000e+00
1.386511e-02    0.000000e+00    0.000000e+00
2.032787e-02    0.000000e+00    0.000000e+00
2.626408e-02    0.000000e+00    0.000000e+00
3.158603e-02    0.000000e+00    0.000000e+00

CELL_DATA        5
TENSORS Element_Stress6.400000e+00 double
CELL_DATA        5
SCALARS Stress6.400000e+00 double 1
LOOKUP_TABLE Element_Stress6.400000e+00
1.311358e+02
1.281862e+02
1.214088e+02
1.120715e+02
1.010605e+02

SCALARS Force6.400000e+00 double 1
LOOKUP_TABLE Element_Force6.400000e+00
1.311358e+02
1.281862e+02
1.214088e+02
1.120715e+02
1.010605e+02

POINT_DATA       6
VECTORS DISPLACEMENT_6.600000e+00 double
0.000000e+00    0.000000e+00    0.000000e+00
7.243539e-03    0.000000e+00    0.000000e+00
1.430225e-02    0.000000e+00    0.000000e+00
2.093615e-02    0.000000e+00    0.000000e+00
2.698494e-02    0.000000e+00    0.000000e+00
3.234625e-02    0.000000e+00    0.000000e+00

CELL_DATA        5
TENSORS Element_Stress6.600000e+00 double
CELL_DATA        5
SCALARS Stress6.600000e+00 double 1
LOOKUP_TABLE Element_Stress6.600000e+00
1.350858e+02
1.318662e+02
1.244239e+02
1.140755e+02
1.017700e+02

SCALARS Force6.600000e+00 double 1
LOOKUP_TABLE Element_Force6.600000e+00
1.350858e+02
1.318662e+02
1.244239e+02
1.140755e+02
1.017700e+02

POINT_DATA       6
VECTORS DISPLACEMENT_6.800000e+00 double
0.000000e+00    0.000000e+00    0.000000e+00
7.287070e-03    0.000000e+00    0.000000e+00
1.438778e-02    0.000000e+00    0.000000e+00
2.105839e-02    0.000000e+00    0.000000e+00
2.713297e-02    0.000000e+00    0.000000e+00
3.250366e-02    0.000000e+00    0.000000e+00

CELL_DATA        5
TENSORS Element_Stress6.800000e+00 double
CELL_DATA        5
SCALARS Stress6.800000e+00 double 1
LOOKUP_TABLE Element_Stress6.800000e+00
1.358425e+02
1.325987e+02
1.250693e+02
1.145342e+02
1.019388e+02

SCALARS Force6.800000e+00 double 1
LOOKUP_TABLE Element_Force6.800000e+00
1.358425e+02
1.325987e+02
1.250693e+02
1.145342e+02
1.019388e+02

POINT_DATA       6
VECTORS DISPLACEMENT_7.000000e+00 double
0.000000e+00    0.000000e+00    0.000000e+00
7.156074e-03    0.000000e+00    0.000000e+00
1.413720e-02    0.000000e+00    0.000000e+00
2.071394e-02    0.000000e+00    0.000000e+00
2.672895e-02    0.000000e+00    0.000000e+00
3.207926e-02    0.000000e+00    0.000000e+00

CELL_DATA        5
TENSORS Element_Stress7.000000e+00 double
CELL_DATA        5
SCALARS Stress7.000000e+00 double 1
LOOKUP_TABLE Element_Stress7.000000e+00
1.335636e+02
1.305114e+02
1.234179e+02
1.134747e+02
1.015717e+02

SCALARS Force7.000000e+00 double 1
LOOKUP_TABLE Element_Force7.000000e+00
1.335636e+02
1.305114e+02
1.234179e+02
1.134747e+02
1.015717e+02

POINT_DATA       6
VECTORS DISPLACEMENT_7.200000e+00 double
0.000000e+00    0.000000e+00    0.000000e+00
6.870527e-03    0.000000e+00    0.000000e+00
1.358890e-02    0.000000e+00    0.000000e+00
1.995588e-02    0.000000e+00    0.000000e+00
2.583545e-02    0.000000e+00    0.000000e+00
3.113893e-02    0.000000e+00    0.000000e+00

CELL_DATA        5
TENSORS Element_Stress7.200000e+00 double
CELL_DATA        5
SCALARS Stress7.200000e+00 double 1
LOOKUP_TABLE Element_Stress7.200000e+00
1.285766e+02
1.259084e+02
1.197173e+02
1.110615e+02
1.007274e+02

SCALARS Force7.200000e+00 double 1
LOOKUP_TABLE Element_Force7.200000e+00
1.285766e+02
1.259084e+02
1.197173e+02
1.110615e+02
1.007274e+02

POINT_DATA       6
VECTORS DISPLACEMENT_7.400000e+00 double
0.000000e+00    0.000000e+00    0.000000e+00
6.460050e-03    0.000000e+00    0.000000e+00
1.280043e-02    0.000000e+00    0.000000e+00
1.886522e-02    0.000000e+00    0.000000e+00
2.454936e-02    0.000000e+00    0.000000e+00
2.978520e-02    0.000000e+00    0.000000e+00

CELL_DATA        5
TENSORS Element_Stress7.400000e+00 double
CELL_DATA        5
SCALARS Stress7.400000e+00 double 1
LOOKUP_TABLE Element_Stress7.400000e+00
1.213610e+02
1.192468e+02
1.143602e+02
1.075685e+02
9.950666e+01

SCALARS Force7.400000e+00 double 1
LOOKUP_TABLE Element_Force7.400000e+00
1.213610e+02
1.192468e+02
1.143602e+02
1.075685e+02
9.950666e+01

POINT_DATA       6
VECTORS DISPLACEMENT_7.600000e+00 double
0.000000e+00    0.000000e+00    0.000000e+00
5.961933e-03    0.000000e+00    0.000000e+00
1.184414e-02    0.000000e+00    0.000000e+00
1.754352e-02    0.000000e+00    0.000000e+00
2.299192e-02    0.000000e+00    0.000000e+00
2.814628e-02    0.000000e+00    0.000000e+00

CELL_DATA        5
TENSORS Element_Stress7.600000e+00 double
CELL_DATA        5
SCALARS Stress7.600000e+00 double 1
LOOKUP_TABLE Element_Stress7.600000e+00
1.125297e+02
1.111085e+02
1.078413e+02
1.033377e+02
9.803420e+01

SCALARS Force7.600000e+00 double 1
LOOKUP_TABLE Element_Force7.600000e+00
1.125297e+02
1.111085e+02
1.078413e+02
1.033377e+02
9.803420e+01

POINT_DATA       6
VECTORS DISPLACEMENT_7.800000e+00 double
0.000000e+00    0.000000e+00    0.000000e+00
5.418501e-03    0.000000e+00    0.000000e+00
1.080165e-02    0.000000e+00    0.000000e+00
1.610428e-02    0.000000e+00    0.000000e+00
2.129758e-02    0.000000e+00    0.000000e+00
2.636397e-02    0.000000e+00    0.000000e+00

CELL_DATA        5
TENSORS Element_Stress7.800000e+00 double
CELL_DATA        5
SCALARS Stress7.800000e+00 double 1
LOOKUP_TABLE Element_Stress7.800000e+00
1.027998e+02
1.021633e+02
1.007123e+02
9.873822e+01
9.644160e+01

SCALARS Force7.800000e+00 double 1
LOOKUP_TABLE Element_Force7.800000e+00
1.027998e+02
1.021633e+02
1.007123e+02
9.873822e+01
9.644160e+01

POINT_DATA       6
VECTORS DISPLACEMENT_8.000000e+00 double
0.000000e+00    0.000000e+00    0.000000e+00
4.873767e-03    0.000000e+00    0.000000e+00
9.757273e-03    0.000000e+00    0.000000e+00
1.466373e-02    0.000000e+00    0.000000e+00
1.960296e-02    0.000000e+00    0.000000e+00
2.458187e-02    0.000000e+00    0.000000e+00

CELL_DATA        5
TENSORS Element_Stress8.000000e+00 double
CELL_DATA        5
SCALARS Stress8.000000e+00 double 1
LOOKUP_TABLE Element_Stress8.000000e+00
9.294540e+01
9.312248e+01
9.353963e+01
9.413512e+01
9.485543e+01

SCALARS Force8.000000e+00 double 1
LOOKUP_TABLE Element_Force8.000000e+00
9.294540e+01
9.312248e+01
9.353963e+01
9.413512e+01
9.485543e+01

POINT_DATA       6
VECTORS DISPLACEMENT_8.200000e+00 double
0.000000e+00    0.000000e+00    0.000000e+00
4.369729e-03    0.000000e+00    0.000000e+00
8.791174e-03    0.000000e+00    0.000000e+00
1.333166e-02    0.000000e+00    0.000000e+00
1.803648e-02    0.000000e+00    0.000000e+00
2.293474e-02    0.000000e+00    0.000000e+00

CELL_DATA        5
TENSORS Element_Stress8.200000e+00 double
CELL_DATA        5
SCALARS Stress8.200000e+00 double 1
LOOKUP_TABLE Element_Stress8.200000e+00
8.373556e+01
8.468462e+01
8.686566e+01
8.986826e+01
9.339070e+01

SCALARS Force8.200000e+00 double 1
LOOKUP_TABLE Element_Force8.200000e+00
8.373556e+01
8.468462e+01
8.686566e+01
8.986826e+01
9.339070e+01

POINT_DATA       6
VECTORS DISPLACEMENT_8.400000e+00 double
0.000000e+00    0.000000e+00    0.000000e+00
3.942880e-03    0.000000e+00    0.000000e+00
7.972946e-03    0.000000e+00    0.000000e+00
1.220332e-02    0.000000e+00    0.000000e+00
1.670942e-02    0.000000e+00    0.000000e+00
2.153929e-02    0.000000e+00    0.000000e+00

CELL_DATA        5
TENSORS Element_Stress8.400000e+00 double
CELL_DATA        5
SCALARS Stress8.400000e+00 double 1
LOOKUP_TABLE Element_Stress8.400000e+00
7.586628e+01
7.747888e+01
8.117354e+01
8.623602e+01
9.214686e+01

SCALARS Force8.400000e+00 double 1
LOOKUP_TABLE Element_Force8.400000e+00
7.586628e+01
7.747888e+01
8.117354e+01
8.623602e+01
9.214686e+01

POINT_DATA       6
VECTORS DISPLACEMENT_8.600000e+00 double
0.000000e+00    0.000000e+00    0.000000e+00
3.621464e-03    0.000000e+00    0.000000e+00
7.356576e-03    0.000000e+00    0.000000e+00
1.135283e-02    0.000000e+00    0.000000e+00
1.570863e-02    0.000000e+00    0.000000e+00
2.048672e-02    0.000000e+00    0.000000e+00

CELL_DATA        5
TENSORS Element_Stress8.600000e+00 double
CELL_DATA        5
SCALARS Stress8.600000e+00 double 1
LOOKUP_TABLE Element_Stress8.600000e+00
6.989794e+01
7.201249e+01
7.685384e+01
8.347975e+01
9.120399e+01

SCALARS Force8.600000e+00 double 1
LOOKUP_TABLE Element_Force8.600000e+00
6.989794e+01
7.201249e+01
7.685384e+01
8.347975e+01
9.120399e+01

POINT_DATA       6
VECTORS DISPLACEMENT_8.800000e+00 double
0.000000e+00    0.000000e+00    0.000000e+00
3.423748e-03    0.000000e+00    0.000000e+00
6.977165e-03    0.000000e+00    0.000000e+00
1.082878e-02    0.000000e+00    0.000000e+00
1.509144e-02    0.000000e+00    0.000000e+00
1.983738e-02    0.000000e+00    0.000000e+00

CELL_DATA        5
TENSORS Element_Stress8.800000e+00 double
CELL_DATA        5
SCALARS Stress8.800000e+00 double 1
LOOKUP_TABLE Element_Stress8.800000e+00
6.620817e+01
6.862964e+01
7.417527e+01
8.176771e+01
9.061812e+01

SCALARS Force8.800000e+00 double 1
LOOKUP_TABLE Element_Force8.800000e+00
6.620817e+01
6.862964e+01
7.417527e+01
8.176771e+01
9.061812e+01

POINT_DATA       6
VECTORS DISPLACEMENT_9.000000e+00 double
0.000000e+00    0.000000e+00    0.000000e+00
3.357361e-03    0.000000e+00    0.000000e+00
6.849544e-03    0.000000e+00    0.000000e+00
1.065204e-02    0.000000e+00    0.000000e+00
1.488283e-02    0.000000e+00    0.000000e+00
1.961771e-02    0.000000e+00    0.000000e+00

CELL_DATA        5
TENSORS Element_Stress9.000000e+00 double
CELL_DATA        5
SCALARS Stress9.000000e+00 double 1
LOOKUP_TABLE Element_Stress9.000000e+00
6.496607e+01
6.748690e+01
7.326401e+01
8.118115e+01
9.041659e+01

SCALARS Force9.000000e+00 double 1
LOOKUP_TABLE Element_Force9.000000e+00
6.496607e+01
6.748690e+01
7.326401e+01
8.118115e+01
9.041659e+01

POINT_DATA       6
VECTORS DISPLACEMENT_9.200000e+00 double
0.000000e+00    0.000000e+00    0.000000e+00
3.419522e-03    0.000000e+00    0.000000e+00
6.968569e-03    0.000000e+00    0.000000e+00
1.081590e-02    0.000000e+00    0.000000e+00
1.507528e-02    0.000000e+00    0.000000e+00
1.981998e-02    0.000000e+00    0.000000e+00

CELL_DATA        5
TENSORS Element_Stress9.200000e+00 double
CELL_DATA        5
SCALARS Stress9.200000e+00 double 1
LOOKUP_TABLE Element_Stress9.200000e+00
6.612914e+01
6.854814e+01
7.409596e+01
8.170734e+01
9.059540e+01

SCALARS Force9.200000e+00 double 1
LOOKUP_TABLE Element_Force9.200000e+00
6.612914e+01
6.854814e+01
7.409596e+01
8.170734e+01
9.059540e+01

POINT_DATA       6
VECTORS DISPLACEMENT_9.400000e+00 double
0.000000e+00    0.000000e+00    0.000000e+00
3.597990e-03    0.000000e+00    0.000000e+00
7.310837e-03    0.000000e+00    0.000000e+00
1.128823e-02    0.000000e+00    0.000000e+00
1.563113e-02    0.000000e+00    0.000000e+00
2.040460e-02    0.000000e+00    0.000000e+00

CELL_DATA        5
TENSORS Element_Stress9.400000e+00 double
CELL_DATA        5
SCALARS Stress9.400000e+00 double 1
LOOKUP_TABLE Element_Stress9.400000e+00
6.946061e+01
7.159860e+01
7.650491e+01
8.324280e+01
9.111991e+01

SCALARS Force9.400000e+00 double 1
LOOKUP_TABLE Element_Force9.400000e+00
6.946061e+01
7.159860e+01
7.650491e+01
8.324280e+01
9.111991e+01

POINT_DATA       6
VECTORS DISPLACEMENT_9.600000e+00 double
0.000000e+00    0.000000e+00    0.000000e+00
3.872549e-03    0.000000e+00    0.000000e+00
7.837531e-03    0.000000e+00    0.000000e+00
1.201535e-02    0.000000e+00    0.000000e+00
1.648711e-02    0.000000e+00    0.000000e+00
2.130503e-02    0.000000e+00    0.000000e+00

CELL_DATA        5
TENSORS Element_Stress9.600000e+00 double
CELL_DATA        5
SCALARS Stress9.600000e+00 double 1
LOOKUP_TABLE Element_Stress9.600000e+00
7.456347e+01
7.627534e+01
8.020553e+01
8.560710e+01
9.192923e+01

SCALARS Force9.600000e+00 double 1
LOOKUP_TABLE Element_Force9.600000e+00
7.456347e+01
7.627534e+01
8.020553e+01
8.560710e+01
9.192923e+01

POINT_DATA       6
VECTORS DISPLACEMENT_9.800000e+00 double
0.000000e+00    0.000000e+00    0.000000e+00
4.216924e-03    0.000000e+00    0.000000e+00
8.498157e-03    0.000000e+00    0.000000e+00
1.292737e-02    0.000000e+00    0.000000e+00
1.756077e-02    0.000000e+00    0.000000e+00
2.243442e-02    0.000000e+00    0.000000e+00

CELL_DATA        5
TENSORS Element_Stress9.800000e+00 double
CELL_DATA        5
SCALARS Stress9.800000e+00 double 1
LOOKUP_TABLE Element_Stress9.800000e+00
8.092590e+01
8.210935e+01
8.482710e+01
8.856440e+01
9.294338e+01

SCALARS Force9.800000e+00 double 1
LOOKUP_TABLE Element_Force9.800000e+00
8.092590e+01
8.210935e+01
8.482710e+01
8.856440e+01
9.294338e+01

POINT_DATA       6
VECTORS DISPLACEMENT_1.000000e+01 double
0.000000e+00    0.000000e+00    0.000000e+00
4.601034e-03    0.000000e+00    0.000000e+00
9.234931e-03    0.000000e+00    0.000000e+00
1.394436e-02    0.000000e+00    0.000000e+00
1.875785e-02    0.000000e+00    0.000000e+00
2.369359e-02    0.000000e+00    0.000000e+00

CELL_DATA        5
TENSORS Element_Stress1.000000e+01 double
CELL_DATA        5
SCALARS Stress1.000000e+01 double 1
LOOKUP_TABLE Element_Stress1.000000e+01
8.797301e+01
8.857353e+01
8.995242e+01
9.184856e+01
9.407173e+01

SCALARS Force1.000000e+01 double 1
LOOKUP_TABLE Element_Force1.000000e+01
8.797301e+01
8.857353e+01
8.995242e+01
9.184856e+01
9.407173e+01

POINT_DATA       6
VECTORS DISPLACEMENT_1.021000e+01 double
0.000000e+00    0.000000e+00    0.000000e+00
5.013143e-03    0.000000e+00    0.000000e+00
1.002945e-02    0.000000e+00    0.000000e+00
1.508877e-02    0.000000e+00    0.000000e+00
2.050487e-02    0.000000e+00    0.000000e+00
2.777503e-02    0.000000e+00    0.000000e+00

CELL_DATA        5
TENSORS Element_Stress1.021000e+01 double
CELL_DATA        5
SCALARS Stress1.021000e+01 double 1
LOOKUP_TABLE Element_Stress1.021000e+01
9.547648e+01
9.553396e+01
9.631344e+01
1.027567e+02
1.355486e+02

SCALARS Force1.021000e+01 double 1
LOOKUP_TABLE Element_Force1.021000e+01
9.547648e+01
9.553396e+01
9.631344e+01
1.027567e+02
1.355486e+02

POINT_DATA       6
VECTORS DISPLACEMENT_1.041000e+01 double
0.000000e+00    0.000000e+00    0.000000e+00
5.410102e-03    0.000000e+00    0.000000e+00
1.089113e-02    0.000000e+00    0.000000e+00
1.679843e-02    0.000000e+00    0.000000e+00
2.412367e-02    0.000000e+00    0.000000e+00
3.382430e-02    0.000000e+00    0.000000e+00

CELL_DATA        5
TENSORS Element_Stress1.041000e+01 double
CELL_DATA        5
SCALARS Stress1.041000e+01 double 1
LOOKUP_TABLE Element_Stress1.041000e+01
1.026486e+02
1.039244e+02
1.115561e+02
1.365054e+02
1.768564e+02

SCALARS Force1.041000e+01 double 1
LOOKUP_TABLE Element_Force1.041000e+01
1.026486e+02
1.039244e+02
1.115561e+02
1.365054e+02
1.768564e+02

POINT_DATA       6
VECTORS DISPLACEMENT_1.061000e+01 double
0.000000e+00    0.000000e+00    0.000000e+00
5.978502e-03    0.000000e+00    0.000000e+00
1.234295e-02    0.000000e+00    0.000000e+00
1.986835e-02    0.000000e+00    0.000000e+00
2.915135e-02    0.000000e+00    0.000000e+00
3.937710e-02    0.000000e+00    0.000000e+00

CELL_DATA        5
TENSORS Element_Stress1.061000e+01 double
CELL_DATA        5
SCALARS Stress1.061000e+01 double 1
LOOKUP_TABLE Element_Stress1.061000e+01
1.128248e+02
1.196725e+02
1.399743e+02
1.698893e+02
1.855419e+02

SCALARS Force1.061000e+01 double 1
LOOKUP_TABLE Element_Force1.061000e+01
1.128248e+02
1.196725e+02
1.399743e+02
1.698893e+02
1.855419e+02

POINT_DATA       6
VECTORS DISPLACEMENT_1.081000e+01 double
0.000000e+00    0.000000e+00    0.000000e+00
7.078153e-03    0.000000e+00    0.000000e+00
1.487508e-02    0.000000e+00    0.000000e+00
2.408986e-02    0.000000e+00    0.000000e+00
3.431943e-02    0.000000e+00    0.000000e+00
4.445142e-02    0.000000e+00    0.000000e+00

CELL_DATA        5
TENSORS Element_Stress1.081000e+01 double
CELL_DATA        5
SCALARS Stress1.081000e+01 double 1
LOOKUP_TABLE Element_Stress1.081000e+01
1.322054e+02
1.446595e+02
1.687461e+02
1.856049e+02
1.839972e+02

SCALARS Force1.081000e+01 double 1
LOOKUP_TABLE Element_Force1.081000e+01
1.322054e+02
1.446595e+02
1.687461e+02
1.856049e+02
1.839972e+02

POINT_DATA       6
VECTORS DISPLACEMENT_1.101000e+01 double
0.000000e+00    0.000000e+00    0.000000e+00
8.868912e-03    0.000000e+00    0.000000e+00
1.835191e-02    0.000000e+00    0.000000e+00
2.867216e-02    0.000000e+00    0.000000e+00
3.912753e-02    0.000000e+00    0.000000e+00
4.925139e-02    0.000000e+00    0.000000e+00

CELL_DATA        5
TENSORS Element_Stress1.101000e+01 double
CELL_DATA        5
SCALARS Stress1.101000e+01 double 1
LOOKUP_TABLE Element_Stress1.101000e+01
1.629283e+02
1.732323e+02
1.870963e+02
1.893139e+02
1.838631e+02

SCALARS Force1.101000e+01 double 1
LOOKUP_TABLE Element_Force1.101000e+01
1.629283e+02
1.732323e+02
1.870963e+02
1.893139e+02
1.838631e+02

POINT_DATA       6
VECTORS DISPLACEMENT_1.121000e+01 double
0.000000e+00    0.000000e+00    0.000000e+00
1.100195e-02    0.000000e+00    0.000000e+00
2.206925e-02    0.000000e+00    0.000000e+00
3.301314e-02    0.000000e+00    0.000000e+00
4.355439e-02    0.000000e+00    0.000000e+00
5.372868e-02    0.000000e+00    0.000000e+00

CELL_DATA        5
TENSORS Element_Stress1.121000e+01 double
CELL_DATA        5
SCALARS Stress1.121000e+01 double 1
LOOKUP_TABLE Element_Stress1.121000e+01
1.982298e+02
1.992901e+02
1.972869e+02
1.907206e+02
1.846944e+02

SCALARS Force1.121000e+01 double 1
LOOKUP_TABLE Element_Force1.121000e+01
1.982298e+02
1.992901e+02
1.972869e+02
1.907206e+02
1.846944e+02

POINT_DATA       6
VECTORS DISPLACEMENT_1.141000e+01 double
0.000000e+00    0.000000e+00    0.000000e+00
1.287607e-02    0.000000e+00    0.000000e+00
2.527453e-02    0.000000e+00    0.000000e+00
3.679292e-02    0.000000e+00    0.000000e+00
4.755834e-02    0.000000e+00    0.000000e+00
5.779641e-02    0.000000e+00    0.000000e+00

CELL_DATA        5
TENSORS Element_Stress1.141000e+01 double
CELL_DATA        5
SCALARS Stress1.141000e+01 double 1
LOOKUP_TABLE Element_Stress1.141000e+01
2.281452e+02
2.206162e+02
2.065737e+02
1.943823e+02
1.857449e+02

SCALARS Force1.141000e+01 double 1
LOOKUP_TABLE Element_Force1.141000e+01
2.281452e+02
2.206162e+02
2.065737e+02
1.943823e+02
1.857449e+02

POINT_DATA       6
VECTORS DISPLACEMENT_1.161000e+01 double
0.000000e+00    0.000000e+00    0.000000e+00
1.410624e-02    0.000000e+00    0.000000e+00
2.753647e-02    0.000000e+00    0.000000e+00
3.977569e-02    0.000000e+00    0.000000e+00
5.096317e-02    0.000000e+00    0.000000e+00
6.132614e-02    0.000000e+00    0.000000e+00

CELL_DATA        5
TENSORS Element_Stress1.161000e+01 double
CELL_DATA        5
SCALARS Stress1.161000e+01 double 1
LOOKUP_TABLE Element_Stress1.161000e+01
2.472475e+02
2.368015e+02
2.180917e+02
2.012364e+02
1.877979e+02

SCALARS Force1.161000e+01 double 1
LOOKUP_TABLE Element_Force1.161000e+01
2.472475e+02
2.368015e+02
2.180917e+02
2.012364e+02
1.877979e+02

POINT_DATA       6
VECTORS DISPLACEMENT_1.181000e+01 double
0.000000e+00    0.000000e+00    0.000000e+00
1.468042e-02    0.000000e+00    0.000000e+00
2.879175e-02    0.000000e+00    0.000000e+00
4.177315e-02    0.000000e+00    0.000000e+00
5.351099e-02    0.000000e+00    0.000000e+00
6.407081e-02    0.000000e+00    0.000000e+00

CELL_DATA        5
TENSORS Element_Stress1.181000e+01 double
CELL_DATA        5
SCALARS Stress1.181000e+01 double 1
LOOKUP_TABLE Element_Stress1.181000e+01
2.560231e+02
2.473257e+02
2.297971e+02
2.100960e+02
1.910246e+02

SCALARS Force1.181000e+01 double 1
LOOKUP_TABLE Element_Force1.181000e+01
2.560231e+02
2.473257e+02
2.297971e+02
2.100960e+02
1.910246e+02

POINT_DATA       6
VECTORS DISPLACEMENT_1.201000e+01 double
0.000000e+00    0.000000e+00    0.000000e+00
1.478906e-02    0.000000e+00    0.000000e+00
2.920260e-02    0.000000e+00    0.000000e+00
4.271261e-02    0.000000e+00    0.000000e+00
5.494658e-02    0.000000e+00    0.000000e+00
6.570863e-02    0.000000e+00    0.000000e+00

CELL_DATA        5
TENSORS Element_Stress1.201000e+01 double
CELL_DATA        5
SCALARS Stress1.201000e+01 double 1
LOOKUP_TABLE Element_Stress1.201000e+01
2.576736e+02
2.519552e+02
2.380409e+02
2.180083e+02
1.943273e+02

SCALARS Force1.201000e+01 double 1
LOOKUP_TABLE Element_Force1.201000e+01
2.576736e+02
2.519552e+02
2.380409e+02
2.180083e+02
1.943273e+02

POINT_DATA       6
VECTORS DISPLACEMENT_1.221000e+01 double
0.000000e+00    0.000000e+00    0.000000e+00
1.461278e-02    0.000000e+00    0.000000e+00
2.897791e-02    0.000000e+00    0.000000e+00
4.264291e-02    0.000000e+00    0.000000e+00
5.511365e-02    0.000000e+00    0.000000e+00
6.598837e-02    0.000000e+00    0.000000e+00

CELL_DATA        5
TENSORS Element_Stress1.221000e+01 double
CELL_DATA        5
SCALARS Stress1.221000e+01 double 1
LOOKUP_TABLE Element_Stress1.221000e+01
2.549938e+02
2.512153e+02
2.404434e+02
2.217598e+02
1.961624e+02

SCALARS Force1.221000e+01 double 1
LOOKUP_TABLE Element_Force1.221000e+01
2.549938e+02
2.512153e+02
2.404434e+02
2.217598e+02
1.961624e+02

POINT_DATA       6
VECTORS DISPLACEMENT_1.241000e+01 double
0.000000e+00    0.000000e+00    0.000000e+00
1.423467e-02    0.000000e+00    0.000000e+00
2.825593e-02    0.000000e+00    0.000000e+00
4.167393e-02    0.000000e+00    0.000000e+00
5.402136e-02    0.000000e+00    0.000000e+00
6.486368e-02    0.000000e+00    0.000000e+00

CELL_DATA        5
TENSORS Element_Stress1.241000e+01 double
CELL_DATA        5
SCALARS Stress1.241000e+01 double 1
LOOKUP_TABLE Element_Stress1.241000e+01
2.492181e+02
2.459410e+02
2.366115e+02
2.198080e+02
1.956350e+02

SCALARS Force1.241000e+01 double 1
LOOKUP_TABLE Element_Force1.241000e+01
2.492181e+02
2.459410e+02
2.366115e+02
2.198080e+02
1.956350e+02

POINT_DATA       6
VECTORS DISPLACEMENT_1.261000e+01 double
0.000000e+00    0.000000e+00    0.000000e+00
1.365862e-02    0.000000e+00    0.000000e+00
2.708588e-02    0.000000e+00    0.000000e+00
3.992975e-02    0.000000e+00    0.000000e+00
5.184478e-02    0.000000e+00    0.000000e+00
6.252510e-02    0.000000e+00    0.000000e+00

CELL_DATA        5
TENSORS Element_Stress1.261000e+01 double
CELL_DATA        5
SCALARS Stress1.261000e+01 double 1
LOOKUP_TABLE Element_Stress1.261000e+01
2.403446e+02
2.367555e+02
2.276396e+02
2.129300e+02
1.929940e+02

SCALARS Force1.261000e+01 double 1
LOOKUP_TABLE Element_Force1.261000e+01
2.403446e+02
2.367555e+02
2.276396e+02
2.129300e+02
1.929940e+02

POINT_DATA       6
VECTORS DISPLACEMENT_1.281000e+01 double
0.000000e+00    0.000000e+00    0.000000e+00
1.286481e-02    0.000000e+00    0.000000e+00
2.548447e-02    0.000000e+00    0.000000e+00
3.755047e-02    0.000000e+00    0.000000e+00
4.886982e-02    0.000000e+00    0.000000e+00
5.932326e-02    0.000000e+00    0.000000e+00

CELL_DATA        5
TENSORS Element_Stress1.281000e+01 double
CELL_DATA        5
SCALARS Stress1.281000e+01 double 1
LOOKUP_TABLE Element_Stress1.281000e+01
2.279685e+02
2.241111e+02
2.153374e+02
2.033672e+02
1.892821e+02

SCALARS Force1.281000e+01 double 1
LOOKUP_TABLE Element_Force1.281000e+01
2.279685e+02
2.241111e+02
2.153374e+02
2.033672e+02
1.892821e+02

POINT_DATA       6
VECTORS DISPLACEMENT_1.301000e+01 double
0.000000e+00    0.000000e+00    0.000000e+00
1.186081e-02    0.000000e+00    0.000000e+00
2.350875e-02    0.000000e+00    0.000000e+00
3.471588e-02    0.000000e+00    0.000000e+00
4.542164e-02    0.000000e+00    0.000000e+00
5.564945e-02    0.000000e+00    0.000000e+00

CELL_DATA        5
TENSORS Element_Stress1.301000e+01 double
CELL_DATA        5
SCALARS Stress1.301000e+01 double 1
LOOKUP_TABLE Element_Stress1.301000e+01
2.120638e+02
2.086548e+02
2.015542e+02
1.934092e+02
1.855759e+02

SCALARS Force1.301000e+01 double 1
LOOKUP_TABLE Element_Force1.301000e+01
2.120638e+02
2.086548e+02
2.015542e+02
1.934092e+02
1.855759e+02

POINT_DATA       6
VECTORS DISPLACEMENT_1.321000e+01 double
0.000000e+00    0.000000e+00    0.000000e+00
1.070868e-02    0.000000e+00    0.000000e+00
2.129508e-02    0.000000e+00    0.000000e+00
3.165331e-02    0.000000e+00    0.000000e+00
4.181046e-02    0.000000e+00    0.000000e+00
5.184853e-02    0.000000e+00    0.000000e+00

CELL_DATA        5
TENSORS Element_Stress1.321000e+01 double
CELL_DATA        5
SCALARS Stress1.321000e+01 double 1
LOOKUP_TABLE Element_Stress1.321000e+01
1.934570e+02
1.914594e+02
1.877201e+02
1.844120e+02
1.824472e+02

SCALARS Force1.321000e+01 double 1
LOOKUP_TABLE Element_Force1.321000e+01
1.934570e+02
1.914594e+02
1.877201e+02
1.844120e+02
1.824472e+02

POINT_DATA       6
VECTORS DISPLACEMENT_1.341000e+01 double
0.000000e+00    0.000000e+00    0.000000e+00
9.520018e-03    0.000000e+00    0.000000e+00
1.904696e-02    0.000000e+00    0.000000e+00
2.861800e-02    0.000000e+00    0.000000e+00
3.830742e-02    0.000000e+00    0.000000e+00
4.819284e-02    0.000000e+00    0.000000e+00

CELL_DATA        5
TENSORS Element_Stress1.341000e+01 double
CELL_DATA        5
SCALARS Stress1.341000e+01 double 1
LOOKUP_TABLE Element_Stress1.341000e+01
1.738498e+02
1.739652e+02
1.747002e+02
1.766702e+02
1.799223e+02

SCALARS Force1.341000e+01 double 1
LOOKUP_TABLE Element_Force1.341000e+01
1.738498e+02
1.739652e+02
1.747002e+02
1.766702e+02
1.799223e+02

POINT_DATA       6
VECTORS DISPLACEMENT_1.361000e+01 double
0.000000e+00    0.000000e+00    0.000000e+00
8.424907e-03    0.000000e+00    0.000000e+00
1.698683e-02    0.000000e+00    0.000000e+00
2.585833e-02    0.000000e+00    0.000000e+00
3.514330e-02    0.000000e+00    0.000000e+00
4.489914e-02    0.000000e+00    0.000000e+00

CELL_DATA        5
TENSORS Element_Stress1.361000e+01 double
CELL_DATA        5
SCALARS Stress1.361000e+01 double 1
LOOKUP_TABLE Element_Stress1.361000e+01
1.554054e+02
1.577335e+02
1.629718e+02
1.699222e+02
1.777736e+02

SCALARS Force1.361000e+01 double 1
LOOKUP_TABLE Element_Force1.361000e+01
1.554054e+02
1.577335e+02
1.629718e+02
1.699222e+02
1.777736e+02

POINT_DATA       6
VECTORS DISPLACEMENT_1.381000e+01 double
0.000000e+00    0.000000e+00    0.000000e+00
7.534204e-03    0.000000e+00    0.000000e+00
1.530272e-02    0.000000e+00    0.000000e+00
2.358334e-02    0.000000e+00    0.000000e+00
3.251417e-02    0.000000e+00    0.000000e+00
4.215335e-02    0.000000e+00    0.000000e+00

CELL_DATA        5
TENSORS Element_Stress1.381000e+01 double
CELL_DATA        5
SCALARS Stress1.381000e+01 double 1
LOOKUP_TABLE Element_Stress1.381000e+01
1.401266e+02
1.441704e+02
1.529474e+02
1.639726e+02
1.758345e+02

SCALARS Force1.381000e+01 double 1
LOOKUP_TABLE Element_Force1.381000e+01
1.401266e+02
1.441704e+02
1.529474e+02
1.639726e+02
1.758345e+02

POINT_DATA       6
VECTORS DISPLACEMENT_1.401000e+01 double
0.000000e+00    0.000000e+00    0.000000e+00
6.915246e-03    0.000000e+00    0.000000e+00
1.411503e-02    0.000000e+00    0.000000e+00
2.194250e-02    0.000000e+00    0.000000e+00
3.058077e-02    0.000000e+00    0.000000e+00
4.011869e-02    0.000000e+00    0.000000e+00

CELL_DATA        5
TENSORS Element_Stress1.401000e+01 double
CELL_DATA        5
SCALARS Stress1.401000e+01 double 1
LOOKUP_TABLE Element_Stress1.401000e+01
1.293594e+02
1.343245e+02
1.451851e+02
1.590282e+02
1.741483e+02

SCALARS Force1.401000e+01 double 1
LOOKUP_TABLE Element_Force1.401000e+01
1.293594e+02
1.343245e+02
1.451851e+02
1.590282e+02
1.741483e+02

POINT_DATA       6
VECTORS DISPLACEMENT_1.421000e+01 double
0.000000e+00    0.000000e+00    0.000000e+00
6.589250e-03    0.000000e+00    0.000000e+00
1.347215e-02    0.000000e+00    0.000000e+00
2.101894e-02    0.000000e+00    0.000000e+00
2.945771e-02    0.000000e+00    0.000000e+00
3.892274e-02    0.000000e+00    0.000000e+00

CELL_DATA        5
TENSORS Element_Stress1.421000e+01 double
CELL_DATA        5
SCALARS Stress1.421000e+01 double 1
LOOKUP_TABLE Element_Stress1.421000e+01
1.236382e+02
1.287934e+02
1.403442e+02
1.556413e+02
1.729324e+02

SCALARS Force1.421000e+01 double 1
LOOKUP_TABLE Element_Force1.421000e+01
1.236382e+02
1.287934e+02
1.403442e+02
1.556413e+02
1.729324e+02

POINT_DATA       6
VECTORS DISPLACEMENT_1.441000e+01 double
0.000000e+00    0.000000e+00    0.000000e+00
6.544473e-03    0.000000e+00    0.000000e+00
1.336651e-02    0.000000e+00    0.000000e+00
2.083260e-02    0.000000e+00    0.000000e+00
2.919836e-02    0.000000e+00    0.000000e+00
3.863369e-02    0.000000e+00    0.000000e+00

CELL_DATA        5
TENSORS Element_Stress1.441000e+01 double
CELL_DATA        5
SCALARS Stress1.441000e+01 double 1
LOOKUP_TABLE Element_Stress1.441000e+01
1.228496e+02
1.277271e+02
1.389479e+02
1.543986e+02
1.724366e+02

SCALARS Force1.441000e+01 double 1
LOOKUP_TABLE Element_Force1.441000e+01
1.228496e+02
1.277271e+02
1.389479e+02
1.543986e+02
1.724366e+02

POINT_DATA       6
VECTORS DISPLACEMENT_1.461000e+01 double
0.000000e+00    0.000000e+00    0.000000e+00
6.752728e-03    0.000000e+00    0.000000e+00
1.375555e-02    0.000000e+00    0.000000e+00
2.134822e-02    0.000000e+00    0.000000e+00
2.978412e-02    0.000000e+00    0.000000e+00
3.924123e-02    0.000000e+00    0.000000e+00

CELL_DATA        5
TENSORS Element_Stress1.461000e+01 double
CELL_DATA        5
SCALARS Stress1.461000e+01 double 1
LOOKUP_TABLE Element_Stress1.461000e+01
1.265116e+02
1.308904e+02
1.411373e+02
1.555924e+02
1.728002e+02

SCALARS Force1.461000e+01 double 1
LOOKUP_TABLE Element_Force1.461000e+01
1.265116e+02
1.308904e+02
1.411373e+02
1.555924e+02
1.728002e+02

POINT_DATA       6
VECTORS DISPLACEMENT_1.481000e+01 double
0.000000e+00    0.000000e+00    0.000000e+00
7.179610e-03    0.000000e+00    0.000000e+00
1.457608e-02    0.000000e+00    0.000000e+00
2.248429e-02    0.000000e+00    0.000000e+00
3.112475e-02    0.000000e+00    0.000000e+00
4.065275e-02    0.000000e+00    0.000000e+00

CELL_DATA        5
TENSORS Element_Stress1.481000e+01 double
CELL_DATA        5
SCALARS Stress1.481000e+01 double 1
LOOKUP_TABLE Element_Stress1.481000e+01
1.339734e+02
1.377414e+02
1.465730e+02
1.590653e+02
1.739829e+02

SCALARS Force1.481000e+01 double 1
LOOKUP_TABLE Element_Force1.481000e+01
1.339734e+02
1.377414e+02
1.465730e+02
1.590653e+02
1.739829e+02

POINT_DATA       6
VECTORS DISPLACEMENT_1.501000e+01 double
0.000000e+00    0.000000e+00    0.000000e+00
7.786123e-03    0.000000e+00    0.000000e+00
1.574855e-02    0.000000e+00    0.000000e+00
2.412140e-02    0.000000e+00    0.000000e+00
3.307028e-02    0.000000e+00    0.000000e+00
4.270672e-02    0.000000e+00    0.000000e+00

CELL_DATA        5
TENSORS Element_Stress1.501000e+01 double
CELL_DATA        5
SCALARS Stress1.501000e+01 double 1
LOOKUP_TABLE Element_Stress1.501000e+01
1.444736e+02
1.475037e+02
1.545193e+02
1.642767e+02
1.757890e+02

SCALARS Force1.501000e+01 double 1
LOOKUP_TABLE Element_Force1.501000e+01
1.444736e+02
1.475037e+02
1.545193e+02
1.642767e+02
1.757890e+02

POINT_DATA       6
VECTORS DISPLACEMENT_1.521000e+01 double
0.000000e+00    0.000000e+00    0.000000e+00
8.525515e-03    0.000000e+00    0.000000e+00
1.717599e-02    0.000000e+00    0.000000e+00
2.611068e-02    0.000000e+00    0.000000e+00
3.543064e-02    0.000000e+00    0.000000e+00
4.519718e-02    0.000000e+00    0.000000e+00

CELL_DATA        5
TENSORS Element_Stress1.521000e+01 double
CELL_DATA        5
SCALARS Stress1.521000e+01 double 1
LOOKUP_TABLE Element_Stress1.521000e+01
1.571154e+02
1.592350e+02
1.640375e+02
1.705079e+02
1.779510e+02

SCALARS Force1.521000e+01 double 1
LOOKUP_TABLE Element_Force1.521000e+01
1.571154e+02
1.592350e+02
1.640375e+02
1.705079e+02
1.779510e+02

POINT_DATA       6
VECTORS DISPLACEMENT_1.541000e+01 double
0.000000e+00    0.000000e+00    0.000000e+00
9.340875e-03    0.000000e+00    0.000000e+00
1.874414e-02    0.000000e+00    0.000000e+00
2.828387e-02    0.000000e+00    0.000000e+00
3.799725e-02    0.000000e+00    0.000000e+00
4.790042e-02    0.000000e+00    0.000000e+00

CELL_DATA        5
TENSORS Element_Stress1.541000e+01 double
CELL_DATA        5
SCALARS Stress1.541000e+01 double 1
LOOKUP_TABLE Element_Stress1.541000e+01
1.708579e+02
1.719010e+02
1.741784e+02
1.770684e+02
1.802162e+02

SCALARS Force1.541000e+01 double 1
LOOKUP_TABLE Element_Force1.541000e+01
1.708579e+02
1.719010e+02
1.741784e+02
1.770684e+02
1.802162e+02

POINT_DATA       6
VECTORS DISPLACEMENT_1.561000e+01 double
0.000000e+00    0.000000e+00    0.000000e+00
1.016712e-02    0.000000e+00    0.000000e+00
2.032733e-02    0.000000e+00    0.000000e+00
3.046580e-02    0.000000e+00    0.000000e+00
4.056217e-02    0.000000e+00    0.000000e+00
5.059700e-02    0.000000e+00    0.000000e+00

CELL_DATA        5
TENSORS Element_Stress1.561000e+01 double
CELL_DATA        5
SCALARS Stress1.561000e+01 double 1
LOOKUP_TABLE Element_Stress1.561000e+01
1.845763e+02
1.844625e+02
1.841039e+02
1.834098e+02
1.823936e+02

SCALARS Force1.561000e+01 double 1
LOOKUP_TABLE Element_Force1.561000e+01
1.845763e+02
1.844625e+02
1.841039e+02
1.834098e+02
1.823936e+02

POINT_DATA       6
VECTORS DISPLACEMENT_1.581000e+01 double
0.000000e+00    0.000000e+00    0.000000e+00
1.093747e-02    0.000000e+00    0.000000e+00
2.180007e-02    0.000000e+00    0.000000e+00
3.248857e-02    0.000000e+00    0.000000e+00
4.293308e-02    0.000000e+00    0.000000e+00
5.308678e-02    0.000000e+00    0.000000e+00

CELL_DATA        5
TENSORS Element_Stress1.581000e+01 double
CELL_DATA        5
SCALARS Stress1.581000e+01 double 1
LOOKUP_TABLE Element_Stress1.581000e+01
1.971826e+02
1.959651e+02
1.931275e+02
1.891360e+02
1.843551e+02

SCALARS Force1.581000e+01 double 1
LOOKUP_TABLE Element_Force1.581000e+01
1.971826e+02
1.959651e+02
1.931275e+02
1.891360e+02
1.843551e+02

POINT_DATA       6
VECTORS DISPLACEMENT_1.601000e+01 double
0.000000e+00    0.000000e+00    0.000000e+00
1.159184e-02    0.000000e+00    0.000000e+00
2.305067e-02    0.000000e+00    0.000000e+00
3.420540e-02    0.000000e+00    0.000000e+00
4.494456e-02    0.000000e+00    0.000000e+00
5.519876e-02    0.000000e+00    0.000000e+00

CELL_DATA        5
TENSORS Element_Stress1.601000e+01 double
CELL_DATA        5
SCALARS Stress1.601000e+01 double 1
LOOKUP_TABLE Element_Stress1.601000e+01
2.077543e+02
2.056155e+02
2.007063e+02
1.939542e+02
1.860102e+02

SCALARS Force1.601000e+01 double 1
LOOKUP_TABLE Element_Force1.601000e+01
2.077543e+02
2.056155e+02
2.007063e+02
1.939542e+02
1.860102e+02

POINT_DATA       6
VECTORS DISPLACEMENT_1.621000e+01 double
0.000000e+00    0.000000e+00    0.000000e+00
1.208404e-02    0.000000e+00    0.000000e+00
2.399286e-02    0.000000e+00    0.000000e+00
3.550199e-02    0.000000e+00    0.000000e+00
4.646682e-02    0.000000e+00    0.000000e+00
5.679838e-02    0.000000e+00    0.000000e+00

CELL_DATA        5
TENSORS Element_Stress1.621000e+01 double
CELL_DATA        5
SCALARS Stress1.621000e+01 double 1
LOOKUP_TABLE Element_Stress1.621000e+01
2.156246e+02
2.128308e+02
2.064248e+02
1.976272e+02
1.872820e+02

SCALARS Force1.621000e+01 double 1
LOOKUP_TABLE Element_Force1.621000e+01
2.156246e+02
2.128308e+02
2.064248e+02
1.976272e+02
1.872820e+02

POINT_DATA       6
VECTORS DISPLACEMENT_1.641000e+01 double
0.000000e+00    0.000000e+00    0.000000e+00
1.238570e-02    0.000000e+00    0.000000e+00
2.457241e-02    0.000000e+00    0.000000e+00
3.630387e-02    0.000000e+00    0.000000e+00
4.741261e-02    0.000000e+00    0.000000e+00
5.779400e-02    0.000000e+00    0.000000e+00

CELL_DATA        5
TENSORS Element_Stress1.641000e+01 double
CELL_DATA        5
SCALARS Stress1.641000e+01 double 1
LOOKUP_TABLE Element_Stress1.641000e+01
2.204141e+02
2.172577e+02
2.099939e+02
1.999616e+02
1.881003e+02

SCALARS Force1.641000e+01 double 1
LOOKUP_TABLE Element_Force1.641000e+01
2.204141e+02
2.172577e+02
2.099939e+02
1.999616e+02
1.881003e+02

POINT_DATA       6
VECTORS DISPLACEMENT_1.661000e+01 double
0.000000e+00    0.000000e+00    0.000000e+00
1.248670e-02    0.000000e+00    0.000000e+00
2.476853e-02    0.000000e+00    0.000000e+00
3.657949e-02    0.000000e+00    0.000000e+00
4.774191e-02    0.000000e+00    0.000000e+00
5.814237e-02    0.000000e+00    0.000000e+00

CELL_DATA        5
TENSORS Element_Stress1.661000e+01 double
CELL_DATA        5
SCALARS Stress1.661000e+01 double 1
LOOKUP_TABLE Element_Stress1.661000e+01
2.220120e+02
2.187679e+02
2.112666e+02
2.008309e+02
1.884133e+02

SCALARS Force1.661000e+01 double 1
LOOKUP_TABLE Element_Force1.661000e+01
2.220120e+02
2.187679e+02
2.112666e+02
2.008309e+02
1.884133e+02

POINT_DATA       6
VECTORS DISPLACEMENT_1.681000e+01 double
0.000000e+00    0.000000e+00    0.000000e+00
1.239327e-02    0.000000e+00    0.000000e+00
2.459141e-02    0.000000e+00    0.000000e+00
3.633931e-02    0.000000e+00    0.000000e+00
4.746349e-02    0.000000e+00    0.000000e+00
5.785126e-02    0.000000e+00    0.000000e+00

CELL_DATA        5
TENSORS Element_Stress1.681000e+01 double
CELL_DATA        5
SCALARS Stress1.681000e+01 double 1
LOOKUP_TABLE Element_Stress1.681000e+01
2.205340e+02
2.174392e+02
2.102573e+02
2.002117e+02
1.882050e+02

SCALARS Force1.681000e+01 double 1
LOOKUP_TABLE Element_Force1.681000e+01
2.205340e+02
2.174392e+02
2.102573e+02
2.002117e+02
1.882050e+02

POINT_DATA       6
VECTORS DISPLACEMENT_1.701000e+01 double
0.000000e+00    0.000000e+00    0.000000e+00
1.212511e-02    0.000000e+00    0.000000e+00
2.407782e-02    0.000000e+00    0.000000e+00
3.563199e-02    0.000000e+00    0.000000e+00
4.663250e-02    0.000000e+00    0.000000e+00
5.697781e-02    0.000000e+00    0.000000e+00

CELL_DATA        5
TENSORS Element_Stress1.701000e+01 double
CELL_DATA        5
SCALARS Stress1.701000e+01 double 1
LOOKUP_TABLE Element_Stress1.701000e+01
2.162782e+02
2.135314e+02
2.071490e+02
1.982066e+02
1.875079e+02

SCALARS Force1.701000e+01 double 1
LOOKUP_TABLE Element_Force1.701000e+01
2.162782e+02
2.135314e+02
2.071490e+02
1.982066e+02
1.875079e+02

POINT_DATA       6
VECTORS DISPLACEMENT_1.721000e+01 double
0.000000e+00    0.000000e+00    0.000000e+00
1.171269e-02    0.000000e+00    0.000000e+00
2.328621e-02    0.000000e+00    0.000000e+00
3.453822e-02    0.000000e+00    0.000000e+00
4.534397e-02    0.000000e+00    0.000000e+00
5.562201e-02    0.000000e+00    0.000000e+00

CELL_DATA        5
TENSORS Element_Stress1.721000e+01 double
CELL_DATA        5
SCALARS Stress1.721000e+01 double 1
LOOKUP_TABLE Element_Stress1.721000e+01
2.096930e+02
2.074600e+02
2.022797e+02
1.950396e+02
1.864023e+02

SCALARS Force1.721000e+01 double 1
LOOKUP_TABLE Element_Force1.721000e+01
2.096930e+02
2.074600e+02
2.022797e+02
1.950396e+02
1.864023e+02

POINT_DATA       6
VECTORS DISPLACEMENT_1.741000e+01 double
0.000000e+00    0.000000e+00    0.000000e+00
1.119468e-02    0.000000e+00    0.000000e+00
2.229152e-02    0.000000e+00    0.000000e+00
3.316297e-02    0.000000e+00    0.000000e+00
4.372296e-02    0.000000e+00    0.000000e+00
5.391602e-02    0.000000e+00    0.000000e+00

CELL_DATA        5
TENSORS Element_Stress1.741000e+01 double
CELL_DATA        5
SCALARS Stress1.741000e+01 double 1
LOOKUP_TABLE Element_Stress1.741000e+01
2.013529e+02
1.997687e+02
1.961090e+02
1.910274e+02
1.850036e+02

SCALARS Force1.741000e+01 double 1
LOOKUP_TABLE Element_Force1.741000e+01
2.013529e+02
1.997687e+02
1.961090e+02
1.910274e+02
1.850036e+02

POINT_DATA       6
VECTORS DISPLACEMENT_1.761000e+01 double
0.000000e+00    0.000000e+00    0.000000e+00
1.061545e-02    0.000000e+00    0.000000e+00
2.117963e-02    0.000000e+00    0.000000e+00
3.162648e-02    0.000000e+00    0.000000e+00
4.191269e-02    0.000000e+00    0.000000e+00
5.201116e-02    0.000000e+00    0.000000e+00

CELL_DATA        5
TENSORS Element_Stress1.761000e+01 double
CELL_DATA        5
SCALARS Stress1.761000e+01 double 1
LOOKUP_TABLE Element_Stress1.761000e+01
1.919342e+02
1.910960e+02
1.891742e+02
1.865367e+02
1.834443e+02

SCALARS Force1.761000e+01 double 1
LOOKUP_TABLE Element_Force1.761000e+01
1.919342e+02
1.910960e+02
1.891742e+02
1.865367e+02
1.834443e+02

POINT_DATA       6
VECTORS DISPLACEMENT_1.781000e+01 double
0.000000e+00    0.000000e+00    0.000000e+00
1.002191e-02    0.000000e+00    0.000000e+00
2.004102e-02    0.000000e+00    0.000000e+00
3.005455e-02    0.000000e+00    0.000000e+00
4.006214e-02    0.000000e+00    0.000000e+00
5.006452e-02    0.000000e+00    0.000000e+00

CELL_DATA        5
TENSORS Element_Stress1.781000e+01 double
CELL_DATA        5
SCALARS Stress1.781000e+01 double 1
LOOKUP_TABLE Element_Stress1.781000e+01
1.821803e+02
1.821340e+02
1.820417e+02
1.819437e+02
1.818575e+02

SCALARS Force1.781000e+01 double 1
LOOKUP_TABLE Element_Force1.781000e+01
1.821803e+02
1.821340e+02
1.820417e+02
1.819437e+02
1.818575e+02

POINT_DATA       6
VECTORS DISPLACEMENT_1.801000e+01 double
0.000000e+00    0.000000e+00    0.000000e+00
9.460100e-03    0.000000e+00    0.000000e+00
1.896388e-02    0.000000e+00    0.000000e+00
2.856873e-02    0.000000e+00    0.000000e+00
3.831422e-02    0.000000e+00    0.000000e+00
4.822635e-02    0.000000e+00    0.000000e+00

CELL_DATA        5
TENSORS Element_Stress1.801000e+01 double
CELL_DATA        5
SCALARS Stress1.801000e+01 double 1
LOOKUP_TABLE Element_Stress1.801000e+01
1.728502e+02
1.735790e+02
1.752633e+02
1.776016e+02
1.803646e+02

SCALARS Force1.801000e+01 double 1
LOOKUP_TABLE Element_Force1.801000e+01
1.728502e+02
1.735790e+02
1.752633e+02
1.776016e+02
1.803646e+02

POINT_DATA       6
VECTORS DISPLACEMENT_1.821000e+01 double
0.000000e+00    0.000000e+00    0.000000e+00
8.971388e-03    0.000000e+00    0.000000e+00
1.802717e-02    0.000000e+00    0.000000e+00
2.727723e-02    0.000000e+00    0.000000e+00
3.679548e-02    0.000000e+00    0.000000e+00
4.662944e-02    0.000000e+00    0.000000e+00

CELL_DATA        5
TENSORS Element_Stress1.821000e+01 double
CELL_DATA        5
SCALARS Stress1.821000e+01 double 1
LOOKUP_TABLE Element_Stress1.821000e+01
1.646558e+02
1.660762e+02
1.693374e+02
1.738203e+02
1.790695e+02

SCALARS Force1.821000e+01 double 1
LOOKUP_TABLE Element_Force1.821000e+01
1.646558e+02
1.660762e+02
1.693374e+02
1.738203e+02
1.790695e+02

POINT_DATA       6
VECTORS DISPLACEMENT_1.841000e+01 double
0.000000e+00    0.000000e+00    0.000000e+00
8.589244e-03    0.000000e+00    0.000000e+00
1.729470e-02    0.000000e+00    0.000000e+00
2.626725e-02    0.000000e+00    0.000000e+00
3.560774e-02    0.000000e+00    0.000000e+00
4.538053e-02    0.000000e+00    0.000000e+00

CELL_DATA        5
TENSORS Element_Stress1.841000e+01 double
CELL_DATA        5
SCALARS Stress1.841000e+01 double 1
LOOKUP_TABLE Element_Stress1.841000e+01
1.581970e+02
1.601659e+02
1.646755e+02
1.708513e+02
1.780549e+02

SCALARS Force1.841000e+01 double 1
LOOKUP_TABLE Element_Force1.841000e+01
1.581970e+02
1.601659e+02
1.646755e+02
1.708513e+02
1.780549e+02

POINT_DATA       6
VECTORS DISPLACEMENT_1.861000e+01 double
0.000000e+00    0.000000e+00    0.000000e+00
8.336830e-03    0.000000e+00    0.000000e+00
1.681068e-02    0.000000e+00    0.000000e+00
2.559945e-02    0.000000e+00    0.000000e+00
3.482197e-02    0.000000e+00    0.000000e+00
4.455413e-02    0.000000e+00    0.000000e+00

CELL_DATA        5
TENSORS Element_Stress1.861000e+01 double
CELL_DATA        5
SCALARS Stress1.861000e+01 double 1
LOOKUP_TABLE Element_Stress1.861000e+01
1.539057e+02
1.562376e+02
1.615749e+02
1.688759e+02
1.773802e+02

SCALARS Force1.861000e+01 double 1
LOOKUP_TABLE Element_Force1.861000e+01
1.539057e+02
1.562376e+02
1.615749e+02
1.688759e+02
1.773802e+02

POINT_DATA       6
VECTORS DISPLACEMENT_1.881000e+01 double
0.000000e+00    0.000000e+00    0.000000e+00
8.225779e-03    0.000000e+00    0.000000e+00
1.659749e-02    0.000000e+00    0.000000e+00
2.530480e-02    0.000000e+00    0.000000e+00
3.447479e-02    0.000000e+00    0.000000e+00
4.418879e-02    0.000000e+00    0.000000e+00

CELL_DATA        5
TENSORS Element_Stress1.881000e+01 double
CELL_DATA        5
SCALARS Stress1.881000e+01 double 1
LOOKUP_TABLE Element_Stress1.881000e+01
1.520115e+02
1.544999e+02
1.601975e+02
1.679947e+02
1.770786e+02

SCALARS Force1.881000e+01 double 1
LOOKUP_TABLE Element_Force1.881000e+01
1.520115e+02
1.544999e+02
1.601975e+02
1.679947e+02
1.770786e+02

POINT_DATA       6
VECTORS DISPLACEMENT_1.901000e+01 double
0.000000e+00    0.000000e+00    0.000000e+00
8.256114e-03    0.000000e+00    0.000000e+00
1.665537e-02    0.000000e+00    0.000000e+00
2.538408e-02    0.000000e+00    0.000000e+00
3.456748e-02    0.000000e+00    0.000000e+00
4.428604e-02    0.000000e+00    0.000000e+00

CELL_DATA        5
TENSORS Element_Stress1.901000e+01 double
CELL_DATA        5
SCALARS Stress1.901000e+01 double 1
LOOKUP_TABLE Element_Stress1.901000e+01
1.525293e+02
1.549689e+02
1.605594e+02
1.682198e+02
1.771543e+02

SCALARS Force1.901000e+01 double 1
LOOKUP_TABLE Element_Force1.901000e+01
1.525293e+02
1.549689e+02
1.605594e+02
1.682198e+02
1.771543e+02

POINT_DATA       6
VECTORS DISPLACEMENT_1.921000e+01 double
0.000000e+00    0.000000e+00    0.000000e+00
8.417122e-03    0.000000e+00    0.000000e+00
1.696397e-02    0.000000e+00    0.000000e+00
2.580956e-02    0.000000e+00    0.000000e+00
3.506783e-02    0.000000e+00    0.000000e+00
4.481214e-02    0.000000e+00    0.000000e+00

CELL_DATA        5
TENSORS Element_Stress1.921000e+01 double
CELL_DATA        5
SCALARS Stress1.921000e+01 double 1
LOOKUP_TABLE Element_Stress1.921000e+01
1.552729e+02
1.574776e+02
1.625347e+02
1.694749e+02
1.775821e+02

SCALARS Force1.921000e+01 double 1
LOOKUP_TABLE Element_Force1.921000e+01
1.552729e+02
1.574776e+02
1.625347e+02
1.694749e+02
1.775821e+02

POINT_DATA       6
VECTORS DISPLACEMENT_1.941000e+01 double
0.000000e+00    0.000000e+00    0.000000e+00
8.688919e-03    0.000000e+00    0.000000e+00
1.748523e-02    0.000000e+00    0.000000e+00
2.652890e-02    0.000000e+00    0.000000e+00
3.591437e-02    0.000000e+00    0.000000e+00
4.570252e-02    0.000000e+00    0.000000e+00

CELL_DATA        5
TENSORS Element_Stress1.941000e+01 double
CELL_DATA        5
SCALARS Stress1.941000e+01 double 1
LOOKUP_TABLE Element_Stress1.941000e+01
1.598860e+02
1.617024e+02
1.658725e+02
1.716036e+02
1.783097e+02

SCALARS Force1.941000e+01 double 1
LOOKUP_TABLE Element_Force1.941000e+01
1.598860e+02
1.617024e+02
1.658725e+02
1.716036e+02
1.783097e+02

POINT_DATA       6
VECTORS DISPLACEMENT_1.961000e+01 double
0.000000e+00    0.000000e+00    0.000000e+00
9.044510e-03    0.000000e+00    0.000000e+00
1.816733e-02    0.000000e+00    0.000000e+00
2.747050e-02    0.000000e+00    0.000000e+00
3.702277e-02    0.000000e+00    0.000000e+00
4.686843e-02    0.000000e+00    0.000000e+00

CELL_DATA        5
TENSORS Element_Stress1.961000e+01 double
CELL_DATA        5
SCALARS Stress1.961000e+01 double 1
LOOKUP_TABLE Element_Stress1.961000e+01
1.658866e+02
1.672028e+02
1.702268e+02
1.743874e+02
1.792635e+02

SCALARS Force1.961000e+01 double 1
LOOKUP_TABLE Element_Force1.961000e+01
1.658866e+02
1.672028e+02
1.702268e+02
1.743874e+02
1.792635e+02

POINT_DATA       6
VECTORS DISPLACEMENT_1.981000e+01 double
0.000000e+00    0.000000e+00    0.000000e+00
9.452170e-03    0.000000e+00    0.000000e+00
1.894933e-02    0.000000e+00    0.000000e+00
2.855003e-02    0.000000e+00    0.000000e+00
3.829357e-02    0.000000e+00    0.000000e+00
4.820518e-02    0.000000e+00    0.000000e+00

CELL_DATA        5
TENSORS Element_Stress1.981000e+01 double
CELL_DATA        5
SCALARS Stress1.981000e+01 double 1
LOOKUP_TABLE Element_Stress1.981000e+01
1.727178e+02
1.734687e+02
1.751940e+02
1.775692e+02
1.803561e+02

SCALARS Force1.981000e+01 double 1
LOOKUP_TABLE Element_Force1.981000e+01
1.727178e+02
1.734687e+02
1.751940e+02
1.775692e+02
1.803561e+02

POINT_DATA       6
VECTORS DISPLACEMENT_2.020000e+01 double
0.000000e+00    0.000000e+00    0.000000e+00
1.026818e-02    0.000000e+00    0.000000e+00
2.050618e-02    0.000000e+00    0.000000e+00
3.060302e-02    0.000000e+00    0.000000e+00
3.990958e-02    0.000000e+00    0.000000e+00
4.541716e-02    0.000000e+00    0.000000e+00

CELL_DATA        5
TENSORS Element_Stress2.020000e+01 double
CELL_DATA        5
SCALARS Stress2.020000e+01 double 1
LOOKUP_TABLE Element_Stress2.020000e+01
1.862401e+02
1.857435e+02
1.834175e+02
1.702836e+02
1.044017e+02

SCALARS Force2.020000e+01 double 1
LOOKUP_TABLE Element_Force2.020000e+01
1.862401e+02
1.857435e+02
1.834175e+02
1.702836e+02
1.044017e+02

POINT_DATA       6
VECTORS DISPLACEMENT_2.040000e+01 double
0.000000e+00    0.000000e+00    0.000000e+00
1.057934e-02    0.000000e+00    0.000000e+00
2.090208e-02    0.000000e+00    0.000000e+00
3.010808e-02    0.000000e+00    0.000000e+00
3.611333e-02    0.000000e+00    0.000000e+00
3.693810e-02    0.000000e+00    0.000000e+00

CELL_DATA        5
TENSORS Element_Stress2.040000e+01 double
CELL_DATA        5
SCALARS Stress2.040000e+01 double 1
LOOKUP_TABLE Element_Stress2.040000e+01
1.913438e+02
1.871372e+02
1.685988e+02
1.133010e+02
1.636050e+01

SCALARS Force2.040000e+01 double 1
LOOKUP_TABLE Element_Force2.040000e+01
1.913438e+02
1.871372e+02
1.685988e+02
1.133010e+02
1.636050e+01

POINT_DATA       6
VECTORS DISPLACEMENT_2.060000e+01 double
0.000000e+00    0.000000e+00    0.000000e+00
1.037755e-02    0.000000e+00    0.000000e+00
1.979150e-02    0.000000e+00    0.000000e+00
2.644241e-02    0.000000e+00    0.000000e+00
2.896938e-02    0.000000e+00    0.000000e+00
2.889457e-02    0.000000e+00    0.000000e+00

CELL_DATA        5
TENSORS Element_Stress2.060000e+01 double
CELL_DATA        5
SCALARS Stress2.060000e+01 double 1
LOOKUP_TABLE Element_Stress2.060000e+01
1.880373e+02
1.720796e+02
1.247230e+02
4.929373e+01
-1.497288e+00

SCALARS Force2.060000e+01 double 1
LOOKUP_TABLE Element_Force2.060000e+01
1.880373e+02
1.720796e+02
1.247230e+02
4.929373e+01
-1.497288e+00

POINT_DATA       6
VECTORS DISPLACEMENT_2.080000e+01 double
0.000000e+00    0.000000e+00    0.000000e+00
8.881772e-03    0.000000e+00    0.000000e+00
1.607644e-02    0.000000e+00    0.000000e+00
1.986116e-02    0.000000e+00    0.000000e+00
2.082412e-02    0.000000e+00    0.000000e+00
2.105023e-02    0.000000e+00    0.000000e+00

CELL_DATA        5
TENSORS Element_Stress2.080000e+01 double
CELL_DATA        5
SCALARS Stress2.080000e+01 double 1
LOOKUP_TABLE Element_Stress2.080000e+01
1.631453e+02
1.342355e+02
7.293408e+01
1.907547e+01
4.512016e+00

SCALARS Force2.080000e+01 double 1
LOOKUP_TABLE Element_Force2.080000e+01
1.631453e+02
1.342355e+02
7.293408e+01
1.907547e+01
4.512016e+00

POINT_DATA       6
VECTORS DISPLACEMENT_2.100000e+01 double
0.000000e+00    0.000000e+00    0.000000e+00
5.732125e-03    0.000000e+00    0.000000e+00
9.951078e-03    0.000000e+00    0.000000e+00
1.183972e-02    0.000000e+00    0.000000e+00
1.255335e-02    0.000000e+00    0.000000e+00
1.286544e-02    0.000000e+00    0.000000e+00

CELL_DATA        5
TENSORS Element_Stress2.100000e+01 double
CELL_DATA        5
SCALARS Stress2.100000e+01 double 1
LOOKUP_TABLE Element_Stress2.100000e+01
1.084273e+02
8.096325e+01
3.707269e+01
1.417151e+01
6.222378e+00

SCALARS Force2.100000e+01 double 1
LOOKUP_TABLE Element_Force2.100000e+01
1.084273e+02
8.096325e+01
3.707269e+01
1.417151e+01
6.222378e+00

POINT_DATA       6
VECTORS DISPLACEMENT_2.120000e+01 double
0.000000e+00    0.000000e+00    0.000000e+00
1.609171e-03    0.000000e+00    0.000000e+00
2.790974e-03    0.000000e+00    0.000000e+00
3.536912e-03    0.000000e+00    0.000000e+00
4.146052e-03    0.000000e+00    0.000000e+00
4.380485e-03    0.000000e+00    0.000000e+00

CELL_DATA        5
TENSORS Element_Stress2.120000e+01 double
CELL_DATA        5
SCALARS Stress2.120000e+01 double 1
LOOKUP_TABLE Element_Stress2.120000e+01
3.167374e+01
2.335998e+01
1.480830e+01
1.210905e+01
4.677689e+00

SCALARS Force2.120000e+01 double 1
LOOKUP_TABLE Element_Force2.120000e+01
3.167374e+01
2.335998e+01
1.480830e+01
1.210905e+01
4.677689e+00

POINT_DATA       6
VECTORS DISPLACEMENT_2.140000e+01 double
0.000000e+00    0.000000e+00    0.000000e+00
-2.278827e-03    0.000000e+00    0.000000e+00
-3.887528e-03    0.000000e+00    0.000000e+00
-4.392221e-03    0.000000e+00    0.000000e+00
-4.296600e-03    0.000000e+00    0.000000e+00
-4.212186e-03    0.000000e+00    0.000000e+00

CELL_DATA        5
TENSORS Element_Stress2.140000e+01 double
CELL_DATA        5
SCALARS Stress2.140000e+01 double 1
LOOKUP_TABLE Element_Stress2.140000e+01
-4.663937e+01
-3.270007e+01
-1.014508e+01
1.910611e+00
1.686842e+00

SCALARS Force2.140000e+01 double 1
LOOKUP_TABLE Element_Force2.140000e+01
-4.663937e+01
-3.270007e+01
-1.014508e+01
1.910611e+00
1.686842e+00

POINT_DATA       6
VECTORS DISPLACEMENT_2.160000e+01 double
0.000000e+00    0.000000e+00    0.000000e+00
-5.134799e-03    0.000000e+00    0.000000e+00
-9.170121e-03    0.000000e+00    0.000000e+00
-1.140478e-02    0.000000e+00    0.000000e+00
-1.233840e-02    0.000000e+00    0.000000e+00
-1.256755e-02    0.000000e+00    0.000000e+00

CELL_DATA        5
TENSORS Element_Stress2.160000e+01 double
CELL_DATA        5
SCALARS Stress2.160000e+01 double 1
LOOKUP_TABLE Element_Stress2.160000e+01
-1.082546e+02
-8.410013e+01
-4.571469e+01
-1.884849e+01
-4.593535e+00

SCALARS Force2.160000e+01 double 1
LOOKUP_TABLE Element_Force2.160000e+01
-1.082546e+02
-8.410013e+01
-4.571469e+01
-1.884849e+01
-4.593535e+00

POINT_DATA       6
VECTORS DISPLACEMENT_2.180000e+01 double
0.000000e+00    0.000000e+00    0.000000e+00
-6.889801e-03    0.000000e+00    0.000000e+00
-1.284420e-02    0.000000e+00    0.000000e+00
-1.700549e-02    0.000000e+00    0.000000e+00
-1.932392e-02    0.000000e+00    0.000000e+00
-2.004471e-02    0.000000e+00    0.000000e+00

CELL_DATA        5
TENSORS Element_Stress2.180000e+01 double
CELL_DATA        5
SCALARS Stress2.180000e+01 double 1
LOOKUP_TABLE Element_Stress2.180000e+01
-1.479924e+02
-1.266280e+02
-8.683930e+01
-4.746920e+01
-1.452046e+01

SCALARS Force2.180000e+01 double 1
LOOKUP_TABLE Element_Force2.180000e+01
-1.479924e+02
-1.266280e+02
-8.683930e+01
-4.746920e+01
-1.452046e+01

POINT_DATA       6
VECTORS DISPLACEMENT_2.200000e+01 double
0.000000e+00    0.000000e+00    0.000000e+00
-7.866511e-03    0.000000e+00    0.000000e+00
-1.512247e-02    0.000000e+00    0.000000e+00
-2.089471e-02    0.000000e+00    0.000000e+00
-2.456113e-02    0.000000e+00    0.000000e+00
-2.580898e-02    0.000000e+00    0.000000e+00

CELL_DATA        5
TENSORS Element_Stress2.200000e+01 double
CELL_DATA        5
SCALARS Stress2.200000e+01 double 1
LOOKUP_TABLE Element_Stress2.200000e+01
-1.707633e+02
-1.564728e+02
-1.225167e+02
-7.611937e+01
-2.527229e+01

SCALARS Force2.200000e+01 double 1
LOOKUP_TABLE Element_Force2.200000e+01
-1.707633e+02
-1.564728e+02
-1.225167e+02
-7.611937e+01
-2.527229e+01

POINT_DATA       6
VECTORS DISPLACEMENT_2.220000e+01 double
0.000000e+00    0.000000e+00    0.000000e+00
-8.359678e-03    0.000000e+00    0.000000e+00
-1.629518e-02    0.000000e+00    0.000000e+00
-2.299402e-02    0.000000e+00    0.000000e+00
-2.753013e-02    0.000000e+00    0.000000e+00
-2.913987e-02    0.000000e+00    0.000000e+00

CELL_DATA        5
TENSORS Element_Stress2.220000e+01 double
CELL_DATA        5
SCALARS Stress2.220000e+01 double 1
LOOKUP_TABLE Element_Stress2.220000e+01
-1.824454e+02
-1.723900e+02
-1.435961e+02
-9.503297e+01
-3.272156e+01

SCALARS Force2.220000e+01 double 1
LOOKUP_TABLE Element_Force2.220000e+01
-1.824454e+02
-1.723900e+02
-1.435961e+02
-9.503297e+01
-3.272156e+01

POINT_DATA       6
VECTORS DISPLACEMENT_2.240000e+01 double
0.000000e+00    0.000000e+00    0.000000e+00
-8.466279e-03    0.000000e+00    0.000000e+00
-1.650601e-02    0.000000e+00    0.000000e+00
-2.333988e-02    0.000000e+00    0.000000e+00
-2.803342e-02    0.000000e+00    0.000000e+00
-2.971761e-02    0.000000e+00    0.000000e+00

CELL_DATA        5
TENSORS Element_Stress2.240000e+01 double
CELL_DATA        5
SCALARS Stress2.240000e+01 double 1
LOOKUP_TABLE Element_Stress2.240000e+01
-1.849871e+02
-1.748523e+02
-1.467028e+02
-9.849361e+01
-3.426096e+01

SCALARS Force2.240000e+01 double 1
LOOKUP_TABLE Element_Force2.240000e+01
-1.849871e+02
-1.748523e+02
-1.467028e+02
-9.849361e+01
-3.426096e+01

POINT_DATA       6
VECTORS DISPLACEMENT_2.260000e+01 double
0.000000e+00    0.000000e+00    0.000000e+00
-8.127492e-03    0.000000e+00    0.000000e+00
-1.572579e-02    0.000000e+00    0.000000e+00
-2.200426e-02    0.000000e+00    0.000000e+00
-2.621381e-02    0.000000e+00    0.000000e+00
-2.770526e-02    0.000000e+00    0.000000e+00

CELL_DATA        5
TENSORS Element_Stress2.260000e+01 double
CELL_DATA        5
SCALARS Stress2.260000e+01 double 1
LOOKUP_TABLE Element_Stress2.260000e+01
-1.769298e+02
-1.644623e+02
-1.339814e+02
-8.789088e+01
-3.028043e+01

SCALARS Force2.260000e+01 double 1
LOOKUP_TABLE Element_Force2.260000e+01
-1.769298e+02
-1.644623e+02
-1.339814e+02
-8.789088e+01
-3.028043e+01

POINT_DATA       6
VECTORS DISPLACEMENT_2.280000e+01 double
0.000000e+00    0.000000e+00    0.000000e+00
-7.244733e-03    0.000000e+00    0.000000e+00
-1.387479e-02    0.000000e+00    0.000000e+00
-1.911130e-02    0.000000e+00    0.000000e+00
-2.245947e-02    0.000000e+00    0.000000e+00
-2.361085e-02    0.000000e+00    0.000000e+00

CELL_DATA        5
TENSORS Element_Stress2.280000e+01 double
CELL_DATA        5
SCALARS Stress2.280000e+01 double 1
LOOKUP_TABLE Element_Stress2.280000e+01
-1.562118e+02
-1.420170e+02
-1.105173e+02
-6.928318e+01
-2.329582e+01

SCALARS Force2.280000e+01 double 1
LOOKUP_TABLE Element_Force2.280000e+01
-1.562118e+02
-1.420170e+02
-1.105173e+02
-6.928318e+01
-2.329582e+01

POINT_DATA       6
VECTORS DISPLACEMENT_2.300000e+01 double
0.000000e+00    0.000000e+00    0.000000e+00
-5.785778e-03    0.000000e+00    0.000000e+00
-1.097635e-02    0.000000e+00    0.000000e+00
-1.489531e-02    0.000000e+00    0.000000e+00
-1.727332e-02    0.000000e+00    0.000000e+00
-1.806204e-02    0.000000e+00    0.000000e+00

CELL_DATA        5
TENSORS Element_Stress2.300000e+01 double
CELL_DATA        5
SCALARS Stress2.300000e+01 double 1
LOOKUP_TABLE Element_Stress2.300000e+01
-1.228218e+02
-1.094948e+02
-8.157626e+01
-4.871859e+01
-1.589990e+01

SCALARS Force2.300000e+01 double 1
LOOKUP_TABLE Element_Force2.300000e+01
-1.228218e+02
-1.094948e+02
-8.157626e+01
-4.871859e+01
-1.589990e+01

POINT_DATA       6
VECTORS DISPLACEMENT_2.320000e+01 double
0.000000e+00    0.000000e+00    0.000000e+00
-3.841995e-03    0.000000e+00    0.000000e+00
-7.240367e-03    0.000000e+00    0.000000e+00
-9.724287e-03    0.000000e+00    0.000000e+00
-1.117384e-02    0.000000e+00    0.000000e+00
-1.164125e-02    0.000000e+00    0.000000e+00

CELL_DATA        5
TENSORS Element_Stress2.320000e+01 double
CELL_DATA        5
SCALARS Stress2.320000e+01 double 1
LOOKUP_TABLE Element_Stress2.320000e+01
-7.991005e+01
-7.035847e+01
-5.094381e+01
-2.941757e+01
-9.391933e+00

SCALARS Force2.320000e+01 double 1
LOOKUP_TABLE Element_Force2.320000e+01
-7.991005e+01
-7.035847e+01
-5.094381e+01
-2.941757e+01
-9.391933e+00

POINT_DATA       6
VECTORS DISPLACEMENT_2.340000e+01 double
0.000000e+00    0.000000e+00    0.000000e+00
-1.620047e-03    0.000000e+00    0.000000e+00
-3.042124e-03    0.000000e+00    0.000000e+00
-4.064957e-03    0.000000e+00    0.000000e+00
-4.651839e-03    0.000000e+00    0.000000e+00
-4.839023e-03    0.000000e+00    0.000000e+00

CELL_DATA        5
TENSORS Element_Stress2.340000e+01 double
CELL_DATA        5
SCALARS Stress2.340000e+01 double 1
LOOKUP_TABLE Element_Stress2.340000e+01
-3.293450e+01
-2.885183e+01
-2.066806e+01
-1.180694e+01
-3.750712e+00

SCALARS Force2.340000e+01 double 1
LOOKUP_TABLE Element_Force2.340000e+01
-3.293450e+01
-2.885183e+01
-2.066806e+01
-1.180694e+01
-3.750712e+00

POINT_DATA       6
VECTORS DISPLACEMENT_2.360000e+01 double
0.000000e+00    0.000000e+00    0.000000e+00
6.198600e-04    0.000000e+00    0.000000e+00
1.173404e-03    0.000000e+00    0.000000e+00
1.585859e-03    0.000000e+00    0.000000e+00
1.831115e-03    0.000000e+00    0.000000e+00
1.911080e-03    0.000000e+00    0.000000e+00

CELL_DATA        5
TENSORS Element_Stress2.360000e+01 double
CELL_DATA        5
SCALARS Stress2.360000e+01 double 1
LOOKUP_TABLE Element_Stress2.360000e+01
1.232083e+01
1.100993e+01
8.215229e+00
4.893117e+00
1.598014e+00

SCALARS Force2.360000e+01 double 1
LOOKUP_TABLE Element_Force2.360000e+01
1.232083e+01
1.100993e+01
8.215229e+00
4.893117e+00
1.598014e+00

POINT_DATA       6
VECTORS DISPLACEMENT_2.380000e+01 double
0.000000e+00    0.000000e+00    0.000000e+00
2.640405e-03    0.000000e+00    0.000000e+00
5.000265e-03    0.000000e+00    0.000000e+00
6.768769e-03    0.000000e+00    0.000000e+00
7.834246e-03    0.000000e+00    0.000000e+00
8.186136e-03    0.000000e+00    0.000000e+00

CELL_DATA        5
TENSORS Element_Stress2.380000e+01 double
CELL_DATA        5
SCALARS Stress2.380000e+01 double 1
LOOKUP_TABLE Element_Stress2.380000e+01
5.144963e+01
4.610909e+01
3.475543e+01
2.108489e+01
7.013112e+00

SCALARS Force2.380000e+01 double 1
LOOKUP_TABLE Element_Force2.380000e+01
5.144963e+01
4.610909e+01
3.475543e+01
2.108489e+01
7.013112e+00

POINT_DATA       6
VECTORS DISPLACEMENT_2.400000e+01 double
0.000000e+00    0.000000e+00    0.000000e+00
4.277802e-03    0.000000e+00    0.000000e+00
8.141816e-03    0.000000e+00    0.000000e+00
1.110783e-02    0.000000e+00    0.000000e+00
1.294548e-02    0.000000e+00    0.000000e+00
1.356433e-02    0.000000e+00    0.000000e+00

CELL_DATA        5
TENSORS Element_Stress2.400000e+01 double
CELL_DATA        5
SCALARS Stress2.400000e+01 double 1
LOOKUP_TABLE Element_Stress2.400000e+01
8.204626e+01
7.440526e+01
5.761149e+01
3.608975e+01
1.230102e+01

SCALARS Force2.400000e+01 double 1
LOOKUP_TABLE Element_Force2.400000e+01
8.204626e+01
7.440526e+01
5.761149e+01
3.608975e+01
1.230102e+01

POINT_DATA       6
VECTORS DISPLACEMENT_2.420000e+01 double
0.000000e+00    0.000000e+00    0.000000e+00
5.450011e-03    0.000000e+00    0.000000e+00
1.042529e-02    0.000000e+00    0.000000e+00
1.433192e-02    0.000000e+00    0.000000e+00
1.681215e-02    0.000000e+00    0.000000e+00
1.766076e-02    0.000000e+00    0.000000e+00

CELL_DATA        5
TENSORS Element_Stress2.420000e+01 double
CELL_DATA        5
SCALARS Stress2.420000e+01 double 1
LOOKUP_TABLE Element_Stress2.420000e+01
1.033667e+02
9.478955e+01
7.519500e+01
4.840411e+01
1.682942e+01

SCALARS Force2.420000e+01 double 1
LOOKUP_TABLE Element_Force2.420000e+01
1.033667e+02
9.478955e+01
7.519500e+01
4.840411e+01
1.682942e+01

POINT_DATA       6
VECTORS DISPLACEMENT_2.440000e+01 double
0.000000e+00    0.000000e+00    0.000000e+00
6.134020e-03    0.000000e+00    0.000000e+00
1.177670e-02    0.000000e+00    0.000000e+00
1.627807e-02    0.000000e+00    0.000000e+00
1.918270e-02    0.000000e+00    0.000000e+00
2.018665e-02    0.000000e+00    0.000000e+00

CELL_DATA        5
TENSORS Element_Stress2.440000e+01 double
CELL_DATA        5
SCALARS Stress2.440000e+01 double 1
LOOKUP_TABLE Element_Stress2.440000e+01
1.155901e+02
1.068258e+02
8.614950e+01
5.645286e+01
1.987939e+01

SCALARS Force2.440000e+01 double 1
LOOKUP_TABLE Element_Force2.440000e+01
1.155901e+02
1.068258e+02
8.614950e+01
5.645286e+01
1.987939e+01

POINT_DATA       6
VECTORS DISPLACEMENT_2.460000e+01 double
0.000000e+00    0.000000e+00    0.000000e+00
6.336743e-03    0.000000e+00    0.000000e+00
1.218625e-02    0.000000e+00    0.000000e+00
1.688589e-02    0.000000e+00    0.000000e+00
1.994021e-02    0.000000e+00    0.000000e+00
2.100053e-02    0.000000e+00    0.000000e+00

CELL_DATA        5
TENSORS Element_Stress2.460000e+01 double
CELL_DATA        5
SCALARS Stress2.460000e+01 double 1
LOOKUP_TABLE Element_Stress2.460000e+01
1.191826e+02
1.105250e+02
8.977369e+01
5.927586e+01
2.098405e+01

SCALARS Force2.460000e+01 double 1
LOOKUP_TABLE Element_Force2.460000e+01
1.191826e+02
1.105250e+02
8.977369e+01
5.927586e+01
2.098405e+01

POINT_DATA       6
VECTORS DISPLACEMENT_2.480000e+01 double
0.000000e+00    0.000000e+00    0.000000e+00
6.078504e-03    0.000000e+00    0.000000e+00
1.168736e-02    0.000000e+00    0.000000e+00
1.619004e-02    0.000000e+00    0.000000e+00
1.911409e-02    0.000000e+00    0.000000e+00
2.012874e-02    0.000000e+00    0.000000e+00

CELL_DATA        5
TENSORS Element_Stress2.480000e+01 double
CELL_DATA        5
SCALARS Stress2.480000e+01 double 1
LOOKUP_TABLE Element_Stress2.480000e+01
1.146039e+02
1.062195e+02
8.617346e+01
5.681962e+01
2.008901e+01

SCALARS Force2.480000e+01 double 1
LOOKUP_TABLE Element_Force2.480000e+01
1.146039e+02
1.062195e+02
8.617346e+01
5.681962e+01
2.008901e+01

POINT_DATA       6
VECTORS DISPLACEMENT_2.500000e+01 double
0.000000e+00    0.000000e+00    0.000000e+00
5.393391e-03    0.000000e+00    0.000000e+00
1.035490e-02    0.000000e+00    0.000000e+00
1.431315e-02    0.000000e+00    0.000000e+00
1.686755e-02    0.000000e+00    0.000000e+00
1.775051e-02    0.000000e+00    0.000000e+00

CELL_DATA        5
TENSORS Element_Stress2.500000e+01 double
CELL_DATA        5
SCALARS Stress2.500000e+01 double 1
LOOKUP_TABLE Element_Stress2.500000e+01
1.023478e+02
9.453961e+01
7.615074e+01
4.981557e+01
1.750459e+01

SCALARS Force2.500000e+01 double 1
LOOKUP_TABLE Element_Force2.500000e+01
1.023478e+02
9.453961e+01
7.615074e+01
4.981557e+01
1.750459e+01

POINT_DATA       6
VECTORS DISPLACEMENT_2.520000e+01 double
0.000000e+00    0.000000e+00    0.000000e+00
4.338685e-03    0.000000e+00    0.000000e+00
8.313358e-03    0.000000e+00    0.000000e+00
1.145706e-02    0.000000e+00    0.000000e+00
1.346787e-02    0.000000e+00    0.000000e+00
1.415907e-02    0.000000e+00    0.000000e+00

CELL_DATA        5
TENSORS Element_Stress2.520000e+01 double
CELL_DATA        5
SCALARS Stress2.520000e+01 double 1
LOOKUP_TABLE Element_Stress2.520000e+01
8.316541e+01
7.645465e+01
6.095776e+01
3.942337e+01
1.372917e+01

SCALARS Force2.520000e+01 double 1
LOOKUP_TABLE Element_Force2.520000e+01
8.316541e+01
7.645465e+01
6.095776e+01
3.942337e+01
1.372917e+01

POINT_DATA       6
VECTORS DISPLACEMENT_2.540000e+01 double
0.000000e+00    0.000000e+00    0.000000e+00
3.001957e-03    0.000000e+00    0.000000e+00
5.740920e-03    0.000000e+00    0.000000e+00
7.888847e-03    0.000000e+00    0.000000e+00
9.250455e-03    0.000000e+00    0.000000e+00
9.715835e-03    0.000000e+00    0.000000e+00

CELL_DATA        5
TENSORS Element_Stress2.540000e+01 double
CELL_DATA        5
SCALARS Stress2.540000e+01 double 1
LOOKUP_TABLE Element_Stress2.540000e+01
5.828933e+01
5.331886e+01
4.205523e+01
2.686635e+01
9.264469e+00

SCALARS Force2.540000e+01 double 1
LOOKUP_TABLE Element_Force2.540000e+01
5.828933e+01
5.331886e+01
4.205523e+01
2.686635e+01
9.264469e+00

POINT_DATA       6
VECTORS DISPLACEMENT_2.560000e+01 double
0.000000e+00    0.000000e+00    0.000000e+00
1.498525e-03    0.000000e+00    0.000000e+00
2.860419e-03    0.000000e+00    0.000000e+00
3.919546e-03    0.000000e+00    0.000000e+00
4.584968e-03    0.000000e+00    0.000000e+00
4.811088e-03    0.000000e+00    0.000000e+00

CELL_DATA        5
TENSORS Element_Stress2.560000e+01 double
CELL_DATA        5
SCALARS Stress2.560000e+01 double 1
LOOKUP_TABLE Element_Stress2.560000e+01
2.952802e+01
2.687191e+01
2.096054e+01
1.322045e+01
4.512197e+00

SCALARS Force2.560000e+01 double 1
LOOKUP_TABLE Element_Force2.560000e+01
2.952802e+01
2.687191e+01
2.096054e+01
1.322045e+01
4.512197e+00

POINT_DATA       6
VECTORS DISPLACEMENT_2.580000e+01 double
0.000000e+00    0.000000e+00    0.000000e+00
-4.100934e-05    0.000000e+00    0.000000e+00
-8.282198e-05    0.000000e+00    0.000000e+00
-1.229081e-04    0.000000e+00    0.000000e+00
-1.532195e-04    0.000000e+00    0.000000e+00
-1.646535e-04    0.000000e+00    0.000000e+00

CELL_DATA        5
TENSORS Element_Stress2.580000e+01 double
CELL_DATA        5
SCALARS Stress2.580000e+01 double 1
LOOKUP_TABLE Element_Stress2.580000e+01
-8.205233e-01
-8.366026e-01
-8.020431e-01
-6.064129e-01
-2.287058e-01

SCALARS Force2.580000e+01 double 1
LOOKUP_TABLE Element_Force2.580000e+01
-8.205233e-01
-8.366026e-01
-8.020431e-01
-6.064129e-01
-2.287058e-01

POINT_DATA       6
VECTORS DISPLACEMENT_2.600000e+01 double
0.000000e+00    0.000000e+00    0.000000e+00
-1.488040e-03    0.000000e+00    0.000000e+00
-2.849262e-03    0.000000e+00    0.000000e+00
-3.922620e-03    0.000000e+00    0.000000e+00
-4.606970e-03    0.000000e+00    0.000000e+00
-4.841731e-03    0.000000e+00    0.000000e+00

CELL_DATA        5
TENSORS Element_Stress2.600000e+01 double
CELL_DATA        5
SCALARS Stress2.600000e+01 double 1
LOOKUP_TABLE Element_Stress2.600000e+01
-3.021034e+01
-2.760013e+01
-2.170008e+01
-1.378132e+01
-4.706260e+00

SCALARS Force2.600000e+01 double 1
LOOKUP_TABLE Element_Force2.600000e+01
-3.021034e+01
-2.760013e+01
-2.170008e+01
-1.378132e+01
-4.706260e+00

POINT_DATA       6
VECTORS DISPLACEMENT_2.620000e+01 double
0.000000e+00    0.000000e+00    0.000000e+00
-2.731633e-03    0.000000e+00    0.000000e+00
-5.230756e-03    0.000000e+00    0.000000e+00
-7.201863e-03    0.000000e+00    0.000000e+00
-8.458924e-03    0.000000e+00    0.000000e+00
-8.890220e-03    0.000000e+00    0.000000e+00

CELL_DATA        5
TENSORS Element_Stress2.620000e+01 double
CELL_DATA        5
SCALARS Stress2.620000e+01 double 1
LOOKUP_TABLE Element_Stress2.620000e+01
-5.616694e+01
-5.126359e+01
-4.021482e+01
-2.546130e+01
-8.663270e+00

SCALARS Force2.620000e+01 double 1
LOOKUP_TABLE Element_Force2.620000e+01
-5.616694e+01
-5.126359e+01
-4.021482e+01
-2.546130e+01
-8.663270e+00

POINT_DATA       6
VECTORS DISPLACEMENT_2.640000e+01 double
0.000000e+00    0.000000e+00    0.000000e+00
-3.688377e-03    0.000000e+00    0.000000e+00
-7.067697e-03    0.000000e+00    0.000000e+00
-9.741123e-03    0.000000e+00    0.000000e+00
-1.145148e-02    0.000000e+00    0.000000e+00
-1.203948e-02    0.000000e+00    0.000000e+00

CELL_DATA        5
TENSORS Element_Stress2.640000e+01 double
CELL_DATA        5
SCALARS Stress2.640000e+01 double 1
LOOKUP_TABLE Element_Stress2.640000e+01
-7.659256e+01
-6.995024e+01
-5.493723e+01
-3.480246e+01
-1.182949e+01

SCALARS Force2.640000e+01 double 1
LOOKUP_TABLE Element_Force2.640000e+01
-7.659256e+01
-6.995024e+01
-5.493723e+01
-3.480246e+01
-1.182949e+01

POINT_DATA       6
VECTORS DISPLACEMENT_2.660000e+01 double
0.000000e+00    0.000000e+00    0.000000e+00
-4.305748e-03    0.000000e+00    0.000000e+00
-8.256563e-03    0.000000e+00    0.000000e+00
-1.139177e-02    0.000000e+00    0.000000e+00
-1.340399e-02    0.000000e+00    0.000000e+00
-1.409716e-02    0.000000e+00    0.000000e+00

CELL_DATA        5
TENSORS Element_Stress2.660000e+01 double
CELL_DATA        5
SCALARS Stress2.660000e+01 double 1
LOOKUP_TABLE Element_Stress2.660000e+01
-8.998969e+01
-8.226650e+01
-6.473376e+01
-4.107083e+01
-1.396007e+01

SCALARS Force2.660000e+01 double 1
LOOKUP_TABLE Element_Force2.660000e+01
-8.998969e+01
-8.226650e+01
-6.473376e+01
-4.107083e+01
-1.396007e+01

POINT_DATA       6
VECTORS DISPLACEMENT_2.680000e+01 double
0.000000e+00    0.000000e+00    0.000000e+00
-4.561035e-03    0.000000e+00    0.000000e+00
-8.750324e-03    0.000000e+00    0.000000e+00
-1.208175e-02    0.000000e+00    0.000000e+00
-1.422452e-02    0.000000e+00    0.000000e+00
-1.496366e-02    0.000000e+00    0.000000e+00

CELL_DATA        5
TENSORS Element_Stress2.680000e+01 double
CELL_DATA        5
SCALARS Stress2.680000e+01 double 1
LOOKUP_TABLE Element_Stress2.680000e+01
-9.558014e+01
-8.744929e+01
-6.892474e+01
-4.379385e+01
-1.489279e+01

SCALARS Force2.680000e+01 double 1
LOOKUP_TABLE Element_Force2.680000e+01
-9.558014e+01
-8.744929e+01
-6.892474e+01
-4.379385e+01
-1.489279e+01

POINT_DATA       6
VECTORS DISPLACEMENT_2.700000e+01 double
0.000000e+00    0.000000e+00    0.000000e+00
-4.458516e-03    0.000000e+00    0.000000e+00
-8.555131e-03    0.000000e+00    0.000000e+00
-1.181531e-02    0.000000e+00    0.000000e+00
-1.391388e-02    0.000000e+00    0.000000e+00
-1.463811e-02    0.000000e+00    0.000000e+00

CELL_DATA        5
TENSORS Element_Stress2.700000e+01 double
CELL_DATA        5
SCALARS Stress2.700000e+01 double 1
LOOKUP_TABLE Element_Stress2.700000e+01
-9.333152e+01
-8.543213e+01
-6.740103e+01
-4.287098e+01
-1.459037e+01

SCALARS Force2.700000e+01 double 1
LOOKUP_TABLE Element_Force2.700000e+01
-9.333152e+01
-8.543213e+01
-6.740103e+01
-4.287098e+01
-1.459037e+01

POINT_DATA       6
VECTORS DISPLACEMENT_2.720000e+01 double
0.000000e+00    0.000000e+00    0.000000e+00
-4.026614e-03    0.000000e+00    0.000000e+00
-7.725545e-03    0.000000e+00    0.000000e+00
-1.066786e-02    0.000000e+00    0.000000e+00
-1.256090e-02    0.000000e+00    0.000000e+00
-1.321401e-02    0.000000e+00    0.000000e+00

CELL_DATA        5
TENSORS Element_Stress2.720000e+01 double
CELL_DATA        5
SCALARS Stress2.720000e+01 double 1
LOOKUP_TABLE Element_Stress2.720000e+01
-8.391105e+01
-7.682016e+01
-6.063021e+01
-3.859139e+01
-1.314808e+01

SCALARS Force2.720000e+01 double 1
LOOKUP_TABLE Element_Force2.720000e+01
-8.391105e+01
-7.682016e+01
-6.063021e+01
-3.859139e+01
-1.314808e+01

POINT_DATA       6
VECTORS DISPLACEMENT_2.740000e+01 double
0.000000e+00    0.000000e+00    0.000000e+00
-3.315200e-03    0.000000e+00    0.000000e+00
-6.358701e-03    0.000000e+00    0.000000e+00
-8.776508e-03    0.000000e+00    0.000000e+00
-1.033001e-02    0.000000e+00    0.000000e+00
-1.086553e-02    0.000000e+00    0.000000e+00

CELL_DATA        5
TENSORS Element_Stress2.740000e+01 double
CELL_DATA        5
SCALARS Stress2.740000e+01 double 1
LOOKUP_TABLE Element_Stress2.740000e+01
-6.857748e+01
-6.278076e+01
-4.955426e+01
-3.156036e+01
-1.076806e+01

SCALARS Force2.740000e+01 double 1
LOOKUP_TABLE Element_Force2.740000e+01
-6.857748e+01
-6.278076e+01
-4.955426e+01
-3.156036e+01
-1.076806e+01

POINT_DATA       6
VECTORS DISPLACEMENT_2.760000e+01 double
0.000000e+00    0.000000e+00    0.000000e+00
-2.392223e-03    0.000000e+00    0.000000e+00
-4.586593e-03    0.000000e+00    0.000000e+00
-6.326875e-03    0.000000e+00    0.000000e+00
-7.443092e-03    0.000000e+00    0.000000e+00
-7.827449e-03    0.000000e+00    0.000000e+00

CELL_DATA        5
TENSORS Element_Stress2.760000e+01 double
CELL_DATA        5
SCALARS Stress2.760000e+01 double 1
LOOKUP_TABLE Element_Stress2.760000e+01
-4.901705e+01
-4.487205e+01
-3.542209e+01
-2.257635e+01
-7.716799e+00

SCALARS Force2.760000e+01 double 1
LOOKUP_TABLE Element_Force2.760000e+01
-4.901705e+01
-4.487205e+01
-3.542209e+01
-2.257635e+01
-7.716799e+00

POINT_DATA       6
VECTORS DISPLACEMENT_2.780000e+01 double
0.000000e+00    0.000000e+00    0.000000e+00
-1.338810e-03    0.000000e+00    0.000000e+00
-2.565710e-03    0.000000e+00    0.000000e+00
-3.536775e-03    0.000000e+00    0.000000e+00
-4.158325e-03    0.000000e+00    0.000000e+00
-4.372069e-03    0.000000e+00    0.000000e+00

CELL_DATA        5
TENSORS Element_Stress2.780000e+01 double
CELL_DATA        5
SCALARS Stress2.780000e+01 double 1
LOOKUP_TABLE Element_Stress2.780000e+01
-2.713955e+01
-2.484279e+01
-1.961174e+01
-1.250875e+01
-4.284047e+00

SCALARS Force2.780000e+01 double 1
LOOKUP_TABLE Element_Force2.780000e+01
-2.713955e+01
-2.484279e+01
-1.961174e+01
-1.250875e+01
-4.284047e+00

POINT_DATA       6
VECTORS DISPLACEMENT_2.800000e+01 double
0.000000e+00    0.000000e+00    0.000000e+00
-2.426989e-04    0.000000e+00    0.000000e+00
-4.641901e-04    0.000000e+00    0.000000e+00
-6.379762e-04    0.000000e+00    0.000000e+00
-7.482024e-04    0.000000e+00    0.000000e+00
-7.858893e-04    0.000000e+00    0.000000e+00

CELL_DATA        5
TENSORS Element_Stress2.800000e+01 double
CELL_DATA        5
SCALARS Stress2.800000e+01 double 1
LOOKUP_TABLE Element_Stress2.800000e+01
-4.865788e+00
-4.439656e+00
-3.481773e+00
-2.206956e+00
-7.540227e-01

SCALARS Force2.800000e+01 double 1
LOOKUP_TABLE Element_Force2.800000e+01
-4.865788e+00
-4.439656e+00
-3.481773e+00
-2.206956e+00
-7.540227e-01

POINT_DATA       6
VECTORS DISPLACEMENT_2.820000e+01 double
0.000000e+00    0.000000e+00    0.000000e+00
8.093136e-04    0.000000e+00    0.000000e+00
1.552274e-03    0.000000e+00    0.000000e+00
2.142451e-03    0.000000e+00    0.000000e+00
2.521627e-03    0.000000e+00    0.000000e+00
2.652330e-03    0.000000e+00    0.000000e+00

CELL_DATA        5
TENSORS Element_Stress2.820000e+01 double
CELL_DATA        5
SCALARS Stress2.820000e+01 double 1
LOOKUP_TABLE Element_Stress2.820000e+01
1.605633e+01
1.474962e+01
1.173429e+01
7.554880e+00
2.610641e+00

SCALARS Force2.820000e+01 double 1
LOOKUP_TABLE Element_Force2.820000e+01
1.605633e+01
1.474962e+01
1.173429e+01
7.554880e+00
2.610641e+00

POINT_DATA       6
VECTORS DISPLACEMENT_2.840000e+01 double
0.000000e+00    0.000000e+00    0.000000e+00
1.738737e-03    0.000000e+00    0.000000e+00
3.333945e-03    0.000000e+00    0.000000e+00
4.599506e-03    0.000000e+00    0.000000e+00
5.411538e-03    0.000000e+00    0.000000e+00
5.691217e-03    0.000000e+00    0.000000e+00

CELL_DATA        5
TENSORS Element_Stress2.840000e+01 double
CELL_DATA        5
SCALARS Stress2.840000e+01 double 1
LOOKUP_TABLE Element_Stress2.840000e+01
3.418044e+01
3.140321e+01
2.499489e+01
1.610983e+01
5.577983e+00

SCALARS Force2.840000e+01 double 1
LOOKUP_TABLE Element_Force2.840000e+01
3.418044e+01
3.140321e+01
2.499489e+01
1.610983e+01
5.577983e+00

POINT_DATA       6
VECTORS DISPLACEMENT_2.860000e+01 double
0.000000e+00    0.000000e+00    0.000000e+00
2.481476e-03    0.000000e+00    0.000000e+00
4.758273e-03    0.000000e+00    0.000000e+00
6.564842e-03    0.000000e+00    0.000000e+00
7.724184e-03    0.000000e+00    0.000000e+00
8.123522e-03    0.000000e+00    0.000000e+00

CELL_DATA        5
TENSORS Element_Stress2.860000e+01 double
CELL_DATA        5
SCALARS Stress2.860000e+01 double 1
LOOKUP_TABLE Element_Stress2.860000e+01
4.842779e+01
4.452226e+01
3.549023e+01
2.292110e+01
7.954985e+00

SCALARS Force2.860000e+01 double 1
LOOKUP_TABLE Element_Force2.860000e+01
4.842779e+01
4.452226e+01
3.549023e+01
2.292110e+01
7.954985e+00

POINT_DATA       6
VECTORS DISPLACEMENT_2.880000e+01 double
0.000000e+00    0.000000e+00    0.000000e+00
2.991984e-03    0.000000e+00    0.000000e+00
5.737789e-03    0.000000e+00    0.000000e+00
7.917505e-03    0.000000e+00    0.000000e+00
9.316972e-03    0.000000e+00    0.000000e+00
9.799165e-03    0.000000e+00    0.000000e+00

CELL_DATA        5
TENSORS Element_Stress2.880000e+01 double
CELL_DATA        5
SCALARS Stress2.880000e+01 double 1
LOOKUP_TABLE Element_Stress2.880000e+01
5.810129e+01
5.344851e+01
4.266435e+01
2.760305e+01
9.597579e+00

SCALARS Force2.880000e+01 double 1
LOOKUP_TABLE Element_Force2.880000e+01
5.810129e+01
5.344851e+01
4.266435e+01
2.760305e+01
9.597579e+00

POINT_DATA       6
VECTORS DISPLACEMENT_2.900000e+01 double
0.000000e+00    0.000000e+00    0.000000e+00
3.245381e-03    0.000000e+00    0.000000e+00
6.224375e-03    0.000000e+00    0.000000e+00
8.590260e-03    0.000000e+00    0.000000e+00
1.010995e-02    0.000000e+00    0.000000e+00
1.063372e-02    0.000000e+00    0.000000e+00

CELL_DATA        5
TENSORS Element_Stress2.900000e+01 double
CELL_DATA        5
SCALARS Stress2.900000e+01 double 1
LOOKUP_TABLE Element_Stress2.900000e+01
6.286734e+01
5.785634e+01
4.622408e+01
2.993892e+01
1.042079e+01

SCALARS Force2.900000e+01 double 1
LOOKUP_TABLE Element_Force2.900000e+01
6.286734e+01
5.785634e+01
4.622408e+01
2.993892e+01
1.042079e+01

POINT_DATA       6
VECTORS DISPLACEMENT_2.920000e+01 double
0.000000e+00    0.000000e+00    0.000000e+00
3.237745e-03    0.000000e+00    0.000000e+00
6.210128e-03    0.000000e+00    0.000000e+00
8.571419e-03    0.000000e+00    0.000000e+00
1.008860e-02    0.000000e+00    0.000000e+00
1.061159e-02    0.000000e+00    0.000000e+00

CELL_DATA        5
TENSORS Element_Stress2.920000e+01 double
CELL_DATA        5
SCALARS Stress2.920000e+01 double 1
LOOKUP_TABLE Element_Stress2.920000e+01
6.272405e+01
5.773166e+01
4.613641e+01
2.989010e+01
1.040549e+01

SCALARS Force2.920000e+01 double 1
LOOKUP_TABLE Element_Force2.920000e+01
6.272405e+01
5.773166e+01
4.613641e+01
2.989010e+01
1.040549e+01

POINT_DATA       6
VECTORS DISPLACEMENT_2.940000e+01 double
0.000000e+00    0.000000e+00    0.000000e+00
2.984927e-03    0.000000e+00    0.000000e+00
5.725294e-03    0.000000e+00    0.000000e+00
7.902401e-03    0.000000e+00    0.000000e+00
9.301325e-03    0.000000e+00    0.000000e+00
9.783575e-03    0.000000e+00    0.000000e+00

CELL_DATA        5
TENSORS Element_Stress2.940000e+01 double
CELL_DATA        5
SCALARS Stress2.940000e+01 double 1
LOOKUP_TABLE Element_Stress2.940000e+01
5.796824e+01
5.334547e+01
4.261438e+01
2.759249e+01
9.598713e+00

SCALARS Force2.940000e+01 double 1
LOOKUP_TABLE Element_Force2.940000e+01
5.796824e+01
5.334547e+01
4.261438e+01
2.759249e+01
9.598713e+00

POINT_DATA       6
VECTORS DISPLACEMENT_2.960000e+01 double
0.000000e+00    0.000000e+00    0.000000e+00
2.520181e-03    0.000000e+00    0.000000e+00
4.833730e-03    0.000000e+00    0.000000e+00
6.671500e-03    0.000000e+00    0.000000e+00
7.852217e-03    0.000000e+00    0.000000e+00
8.259210e-03    0.000000e+00    0.000000e+00

CELL_DATA        5
TENSORS Element_Stress2.960000e+01 double
CELL_DATA        5
SCALARS Stress2.960000e+01 double 1
LOOKUP_TABLE Element_Stress2.960000e+01
4.916459e+01
4.522467e+01
3.609213e+01
2.333877e+01
8.106853e+00

SCALARS Force2.960000e+01 double 1
LOOKUP_TABLE Element_Force2.960000e+01
4.916459e+01
4.522467e+01
3.609213e+01
2.333877e+01
8.106853e+00

POINT_DATA       6
VECTORS DISPLACEMENT_2.980000e+01 double
0.000000e+00    0.000000e+00    0.000000e+00
1.890783e-03    0.000000e+00    0.000000e+00
3.626310e-03    0.000000e+00    0.000000e+00
5.004553e-03    0.000000e+00    0.000000e+00
5.889788e-03    0.000000e+00    0.000000e+00
6.194875e-03    0.000000e+00    0.000000e+00

CELL_DATA        5
TENSORS Element_Stress2.980000e+01 double
CELL_DATA        5
SCALARS Stress2.980000e+01 double 1
LOOKUP_TABLE Element_Stress2.980000e+01
3.711391e+01
3.411840e+01
2.719013e+01
1.754935e+01
6.083169e+00

SCALARS Force2.980000e+01 double 1
LOOKUP_TABLE Element_Force2.980000e+01
3.711391e+01
3.411840e+01
2.719013e+01
1.754935e+01
6.083169e+00

POINT_DATA       6
VECTORS DISPLACEMENT_3.000000e+01 double
0.000000e+00    0.000000e+00    0.000000e+00
1.153825e-03    0.000000e+00    0.000000e+00
2.212713e-03    0.000000e+00    0.000000e+00
3.053292e-03    0.000000e+00    0.000000e+00
3.592978e-03    0.000000e+00    0.000000e+00
3.778929e-03    0.000000e+00    0.000000e+00

CELL_DATA        5
TENSORS Element_Stress3.000000e+01 double
CELL_DATA        5
SCALARS Stress3.000000e+01 double 1
LOOKUP_TABLE Element_Stress3.000000e+01
2.281327e+01
2.095585e+01
1.667146e+01
1.073577e+01
3.712113e+00

SCALARS Force3.000000e+01 double 1
LOOKUP_TABLE Element_Force3.000000e+01
2.281327e+01
2.095585e+01
1.667146e+01
1.073577e+01
3.712113e+00

POINT_DATA       6
VECTORS DISPLACEMENT_3.020000e+01 double
0.000000e+00    0.000000e+00    0.000000e+00
3.714367e-04    0.000000e+00    0.000000e+00
7.121582e-04    0.000000e+00    0.000000e+00
9.823815e-04    0.000000e+00    0.000000e+00
1.155708e-03    0.000000e+00    0.000000e+00
1.215393e-03    0.000000e+00    0.000000e+00

CELL_DATA        5
TENSORS Element_Stress3.020000e+01 double
CELL_DATA        5
SCALARS Stress3.020000e+01 double 1
LOOKUP_TABLE Element_Stress3.020000e+01
7.401244e+00
6.791290e+00
5.389901e+00
3.460538e+00
1.192974e+00

SCALARS Force3.020000e+01 double 1
LOOKUP_TABLE Element_Force3.020000e+01
7.401244e+00
6.791290e+00
5.389901e+00
3.460538e+00
1.192974e+00

POINT_DATA       6
VECTORS DISPLACEMENT_3.040000e+01 double
0.000000e+00    0.000000e+00    0.000000e+00
-3.942306e-04    0.000000e+00    0.000000e+00
-7.562039e-04    0.000000e+00    0.000000e+00
-1.043847e-03    0.000000e+00    0.000000e+00
-1.228722e-03    0.000000e+00    0.000000e+00
-1.292464e-03    0.000000e+00    0.000000e+00

CELL_DATA        5
TENSORS Element_Stress3.040000e+01 double
CELL_DATA        5
SCALARS Stress3.040000e+01 double 1
LOOKUP_TABLE Element_Stress3.040000e+01
-7.915819e+00
-7.265766e+00
-5.769458e+00
-3.704346e+00
-1.275650e+00

SCALARS Force3.040000e+01 double 1
LOOKUP_TABLE Element_Force3.040000e+01
-7.915819e+00
-7.265766e+00
-5.769458e+00
-3.704346e+00
-1.275650e+00

POINT_DATA       6
VECTORS DISPLACEMENT_3.060000e+01 double
0.000000e+00    0.000000e+00    0.000000e+00
-1.085810e-03    0.000000e+00    0.000000e+00
-2.082451e-03    0.000000e+00    0.000000e+00
-2.873901e-03    0.000000e+00    0.000000e+00
-3.382231e-03    0.000000e+00    0.000000e+00
-3.557419e-03    0.000000e+00    0.000000e+00

CELL_DATA        5
TENSORS Element_Stress3.060000e+01 double
CELL_DATA        5
SCALARS Stress3.060000e+01 double 1
LOOKUP_TABLE Element_Stress3.060000e+01
-2.195458e+01
-2.013348e+01
-1.595528e+01
-1.021855e+01
-3.509906e+00

SCALARS Force3.060000e+01 double 1
LOOKUP_TABLE Element_Force3.060000e+01
-2.195458e+01
-2.013348e+01
-1.595528e+01
-1.021855e+01
-3.509906e+00

POINT_DATA       6
VECTORS DISPLACEMENT_3.080000e+01 double
0.000000e+00    0.000000e+00    0.000000e+00
-1.654897e-03    0.000000e+00    0.000000e+00
-3.173832e-03    0.000000e+00    0.000000e+00
-4.379946e-03    0.000000e+00    0.000000e+00
-5.154540e-03    0.000000e+00    0.000000e+00
-5.421477e-03    0.000000e+00    0.000000e+00

CELL_DATA        5
TENSORS Element_Stress3.080000e+01 double
CELL_DATA        5
SCALARS Stress3.080000e+01 double 1
LOOKUP_TABLE Element_Stress3.080000e+01
-3.365490e+01
-3.084724e+01
-2.441678e+01
-1.561282e+01
-5.353037e+00

SCALARS Force3.080000e+01 double 1
LOOKUP_TABLE Element_Force3.080000e+01
-3.365490e+01
-3.084724e+01
-2.441678e+01
-1.561282e+01
-5.353037e+00

POINT_DATA       6
VECTORS DISPLACEMENT_3.100000e+01 double
0.000000e+00    0.000000e+00    0.000000e+00
-2.065269e-03    0.000000e+00    0.000000e+00
-3.960896e-03    0.000000e+00    0.000000e+00
-5.466182e-03    0.000000e+00    0.000000e+00
-6.432951e-03    0.000000e+00    0.000000e+00
-6.766123e-03    0.000000e+00    0.000000e+00

CELL_DATA        5
TENSORS Element_Stress3.100000e+01 double
CELL_DATA        5
SCALARS Stress3.100000e+01 double 1
LOOKUP_TABLE Element_Stress3.100000e+01
-4.217645e+01
-3.864510e+01
-3.056583e+01
-1.952412e+01
-6.685714e+00

SCALARS Force3.100000e+01 double 1
LOOKUP_TABLE Element_Force3.100000e+01
-4.217645e+01
-3.864510e+01
-3.056583e+01
-1.952412e+01
-6.685714e+00

POINT_DATA       6
VECTORS DISPLACEMENT_3.120000e+01 double
0.000000e+00    0.000000e+00    0.000000e+00
-2.294927e-03    0.000000e+00    0.000000e+00
-4.401422e-03    0.000000e+00    0.000000e+00
-6.074278e-03    0.000000e+00    0.000000e+00
-7.148750e-03    0.000000e+00    0.000000e+00
-7.519056e-03    0.000000e+00    0.000000e+00

CELL_DATA        5
TENSORS Element_Stress3.120000e+01 double
CELL_DATA        5
SCALARS Stress3.120000e+01 double 1
LOOKUP_TABLE Element_Stress3.120000e+01
-4.697662e+01
-4.303646e+01
-3.402633e+01
-2.172283e+01
-7.433659e+00

SCALARS Force3.120000e+01 double 1
LOOKUP_TABLE Element_Force3.120000e+01
-4.697662e+01
-4.303646e+01
-3.402633e+01
-2.172283e+01
-7.433659e+00

POINT_DATA       6
VECTORS DISPLACEMENT_3.140000e+01 double
0.000000e+00    0.000000e+00    0.000000e+00
-2.336905e-03    0.000000e+00    0.000000e+00
-4.481998e-03    0.000000e+00    0.000000e+00
-6.185619e-03    0.000000e+00    0.000000e+00
-7.279925e-03    0.000000e+00    0.000000e+00
-7.657083e-03    0.000000e+00    0.000000e+00

CELL_DATA        5
TENSORS Element_Stress3.140000e+01 double
CELL_DATA        5
SCALARS Stress3.140000e+01 double 1
LOOKUP_TABLE Element_Stress3.140000e+01
-4.785645e+01
-4.384233e+01
-3.466294e+01
-2.212826e+01
-7.571724e+00

SCALARS Force3.140000e+01 double 1
LOOKUP_TABLE Element_Force3.140000e+01
-4.785645e+01
-4.384233e+01
-3.466294e+01
-2.212826e+01
-7.571724e+00

POINT_DATA       6
VECTORS DISPLACEMENT_3.160000e+01 double
0.000000e+00    0.000000e+00    0.000000e+00
-2.198886e-03    0.000000e+00    0.000000e+00
-4.217324e-03    0.000000e+00    0.000000e+00
-5.820413e-03    0.000000e+00    0.000000e+00
-6.850182e-03    0.000000e+00    0.000000e+00
-7.205106e-03    0.000000e+00    0.000000e+00

CELL_DATA        5
TENSORS Element_Stress3.160000e+01 double
CELL_DATA        5
SCALARS Stress3.160000e+01 double 1
LOOKUP_TABLE Element_Stress3.160000e+01
-4.496647e+01
-4.120037e+01
-3.258415e+01
-2.080966e+01
-7.123754e+00

SCALARS Force3.160000e+01 double 1
LOOKUP_TABLE Element_Force3.160000e+01
-4.496647e+01
-4.120037e+01
-3.258415e+01
-2.080966e+01
-7.123754e+00

POINT_DATA       6
VECTORS DISPLACEMENT_3.180000e+01 double
0.000000e+00    0.000000e+00    0.000000e+00
-1.901753e-03    0.000000e+00    0.000000e+00
-3.647441e-03    0.000000e+00    0.000000e+00
-5.033907e-03    0.000000e+00    0.000000e+00
-5.924523e-03    0.000000e+00    0.000000e+00
-6.231486e-03    0.000000e+00    0.000000e+00

CELL_DATA        5
TENSORS Element_Stress3.180000e+01 double
CELL_DATA        5
SCALARS Stress3.180000e+01 double 1
LOOKUP_TABLE Element_Stress3.180000e+01
-3.877241e+01
-3.553409e+01
-2.811917e+01
-1.797240e+01
-6.158161e+00

SCALARS Force3.180000e+01 double 1
LOOKUP_TABLE Element_Force3.180000e+01
-3.877241e+01
-3.553409e+01
-2.811917e+01
-1.797240e+01
-6.158161e+00

POINT_DATA       6
VECTORS DISPLACEMENT_3.200000e+01 double
0.000000e+00    0.000000e+00    0.000000e+00
-1.477243e-03    0.000000e+00    0.000000e+00
-2.833238e-03    0.000000e+00    0.000000e+00
-3.910164e-03    0.000000e+00    0.000000e+00
-4.601920e-03    0.000000e+00    0.000000e+00
-4.840338e-03    0.000000e+00    0.000000e+00

CELL_DATA        5
TENSORS Element_Stress3.200000e+01 double
CELL_DATA        5
SCALARS Stress3.200000e+01 double 1
LOOKUP_TABLE Element_Stress3.200000e+01
-2.998786e+01
-2.749269e+01
-2.177300e+01
-1.393149e+01
-4.779753e+00

SCALARS Force3.200000e+01 double 1
LOOKUP_TABLE Element_Force3.200000e+01
-2.998786e+01
-2.749269e+01
-2.177300e+01
-1.393149e+01
-4.779753e+00

POINT_DATA       6
VECTORS DISPLACEMENT_3.220000e+01 double
0.000000e+00    0.000000e+00    0.000000e+00
-9.649351e-04    0.000000e+00    0.000000e+00
-1.850644e-03    0.000000e+00    0.000000e+00
-2.554029e-03    0.000000e+00    0.000000e+00
-3.005815e-03    0.000000e+00    0.000000e+00
-3.161519e-03    0.000000e+00    0.000000e+00

CELL_DATA        5
TENSORS Element_Stress3.220000e+01 double
CELL_DATA        5
SCALARS Stress3.220000e+01 double 1
LOOKUP_TABLE Element_Stress3.220000e+01
-1.948674e+01
-1.787248e+01
-1.416734e+01
-9.076722e+00
-3.118947e+00

SCALARS Force3.220000e+01 double 1
LOOKUP_TABLE Element_Force3.220000e+01
-1.948674e+01
-1.787248e+01
-1.416734e+01
-9.076722e+00
-3.118947e+00

POINT_DATA       6
VECTORS DISPLACEMENT_3.240000e+01 double
0.000000e+00    0.000000e+00    0.000000e+00
-4.088065e-04    0.000000e+00    0.000000e+00
-7.840254e-04    0.000000e+00    0.000000e+00
-1.081967e-03    0.000000e+00    0.000000e+00
-1.273312e-03    0.000000e+00    0.000000e+00
-1.339252e-03    0.000000e+00    0.000000e+00

CELL_DATA        5
TENSORS Element_Stress3.240000e+01 double
CELL_DATA        5
SCALARS Stress3.240000e+01 double 1
LOOKUP_TABLE Element_Stress3.240000e+01
-8.209692e+00
-7.532641e+00
-5.976648e+00
-3.834221e+00
-1.319670e+00

SCALARS Force3.240000e+01 double 1
LOOKUP_TABLE Element_Force3.240000e+01
-8.209692e+00
-7.532641e+00
-5.976648e+00
-3.834221e+00
-1.319670e+00

POINT_DATA       6
VECTORS DISPLACEMENT_3.260000e+01 double
0.000000e+00    0.000000e+00    0.000000e+00
1.463495e-04    0.000000e+00    0.000000e+00
2.807083e-04    0.000000e+00    0.000000e+00
3.874507e-04    0.000000e+00    0.000000e+00
4.560393e-04    0.000000e+00    0.000000e+00
4.796837e-04    0.000000e+00    0.000000e+00

CELL_DATA        5
TENSORS Element_Stress3.260000e+01 double
CELL_DATA        5
SCALARS Stress3.260000e+01 double 1
LOOKUP_TABLE Element_Stress3.260000e+01
2.922713e+00
2.683570e+00
2.132572e+00
1.370830e+00
4.727775e-01

SCALARS Force3.260000e+01 double 1
LOOKUP_TABLE Element_Force3.260000e+01
2.922713e+00
2.683570e+00
2.132572e+00
1.370830e+00
4.727775e-01

POINT_DATA       6
VECTORS DISPLACEMENT_3.280000e+01 double
0.000000e+00    0.000000e+00    0.000000e+00
6.583816e-04    0.000000e+00    0.000000e+00
1.262723e-03    0.000000e+00    0.000000e+00
1.742687e-03    0.000000e+00    0.000000e+00
2.050988e-03    0.000000e+00    0.000000e+00
2.157245e-03    0.000000e+00    0.000000e+00

CELL_DATA        5
TENSORS Element_Stress3.280000e+01 double
CELL_DATA        5
SCALARS Stress3.280000e+01 double 1
LOOKUP_TABLE Element_Stress3.280000e+01
1.308151e+01
1.201423e+01
9.553429e+00
6.147053e+00
2.122889e+00

SCALARS Force3.280000e+01 double 1
LOOKUP_TABLE Element_Force3.280000e+01
1.308151e+01
1.201423e+01
9.553429e+00
6.147053e+00
2.122889e+00

POINT_DATA       6
VECTORS DISPLACEMENT_3.300000e+01 double
0.000000e+00    0.000000e+00    0.000000e+00
1.090842e-03    0.000000e+00    0.000000e+00
2.092130e-03    0.000000e+00    0.000000e+00
2.887313e-03    0.000000e+00    0.000000e+00
3.398071e-03    0.000000e+00    0.000000e+00
3.574101e-03    0.000000e+00    0.000000e+00

CELL_DATA        5
TENSORS Element_Stress3.300000e+01 double
CELL_DATA        5
SCALARS Stress3.300000e+01 double 1
LOOKUP_TABLE Element_Stress3.300000e+01
2.158143e+01
1.982722e+01
1.577821e+01
1.016324e+01
3.514426e+00

SCALARS Force3.300000e+01 double 1
LOOKUP_TABLE Element_Force3.300000e+01
2.158143e+01
1.982722e+01
1.577821e+01
1.016324e+01
3.514426e+00

POINT_DATA       6
VECTORS DISPLACEMENT_3.320000e+01 double
0.000000e+00    0.000000e+00    0.000000e+00
1.415441e-03    0.000000e+00    0.000000e+00
2.714674e-03    0.000000e+00    0.000000e+00
3.746470e-03    0.000000e+00    0.000000e+00
4.409204e-03    0.000000e+00    0.000000e+00
4.637612e-03    0.000000e+00    0.000000e+00

CELL_DATA        5
TENSORS Element_Stress3.320000e+01 double
CELL_DATA        5
SCALARS Stress3.320000e+01 double 1
LOOKUP_TABLE Element_Stress3.320000e+01
2.791371e+01
2.565140e+01
2.042518e+01
1.316740e+01
4.557746e+00

SCALARS Force3.320000e+01 double 1
LOOKUP_TABLE Element_Force3.320000e+01
2.791371e+01
2.565140e+01
2.042518e+01
1.316740e+01
4.557746e+00

POINT_DATA       6
VECTORS DISPLACEMENT_3.340000e+01 double
0.000000e+00    0.000000e+00    0.000000e+00
1.613724e-03    0.000000e+00    0.000000e+00
3.094969e-03    0.000000e+00    0.000000e+00
4.271320e-03    0.000000e+00    0.000000e+00
5.026909e-03    0.000000e+00    0.000000e+00
5.287320e-03    0.000000e+00    0.000000e+00

CELL_DATA        5
TENSORS Element_Stress3.340000e+01 double
CELL_DATA        5
SCALARS Stress3.340000e+01 double 1
LOOKUP_TABLE Element_Stress3.340000e+01
3.176194e+01
2.919247e+01
2.325348e+01
1.499845e+01
5.194700e+00

SCALARS Force3.340000e+01 double 1
LOOKUP_TABLE Element_Force3.340000e+01
3.176194e+01
2.919247e+01
2.325348e+01
1.499845e+01
5.194700e+00

POINT_DATA       6
VECTORS DISPLACEMENT_3.360000e+01 double
0.000000e+00    0.000000e+00    0.000000e+00
1.677914e-03    0.000000e+00    0.000000e+00
3.218087e-03    0.000000e+00    0.000000e+00
4.441251e-03    0.000000e+00    0.000000e+00
5.226919e-03    0.000000e+00    0.000000e+00
5.497699e-03    0.000000e+00    0.000000e+00

CELL_DATA        5
TENSORS Element_Stress3.360000e+01 double
CELL_DATA        5
SCALARS Stress3.360000e+01 double 1
LOOKUP_TABLE Element_Stress3.360000e+01
3.300449e+01
3.033623e+01
2.416768e+01
1.559086e+01
5.400976e+00

SCALARS Force3.360000e+01 double 1
LOOKUP_TABLE Element_Force3.360000e+01
3.300449e+01
3.033623e+01
2.416768e+01
1.559086e+01
5.400976e+00

POINT_DATA       6
VECTORS DISPLACEMENT_3.380000e+01 double
0.000000e+00    0.000000e+00    0.000000e+00
1.610871e-03    0.000000e+00    0.000000e+00
3.089512e-03    0.000000e+00    0.000000e+00
4.263821e-03    0.000000e+00    0.000000e+00
5.018115e-03    0.000000e+00    0.000000e+00
5.278084e-03    0.000000e+00    0.000000e+00

CELL_DATA        5
TENSORS Element_Stress3.380000e+01 double
CELL_DATA        5
SCALARS Stress3.380000e+01 double 1
LOOKUP_TABLE Element_Stress3.380000e+01
3.170668e+01
2.914191e+01
2.321358e+01
1.497294e+01
5.185894e+00

SCALARS Force3.380000e+01 double 1
LOOKUP_TABLE Element_Force3.380000e+01
3.170668e+01
2.914191e+01
2.321358e+01
1.497294e+01
5.185894e+00

POINT_DATA       6
VECTORS DISPLACEMENT_3.400000e+01 double
0.000000e+00    0.000000e+00    0.000000e+00
1.425265e-03    0.000000e+00    0.000000e+00
2.733538e-03    0.000000e+00    0.000000e+00
3.772549e-03    0.000000e+00    0.000000e+00
4.439940e-03    0.000000e+00    0.000000e+00
4.669958e-03    0.000000e+00    0.000000e+00

CELL_DATA        5
TENSORS Element_Stress3.400000e+01 double
CELL_DATA        5
SCALARS Stress3.400000e+01 double 1
LOOKUP_TABLE Element_Stress3.400000e+01
2.810474e+01
2.582757e+01
2.056652e+01
1.325933e+01
4.589805e+00

SCALARS Force3.400000e+01 double 1
LOOKUP_TABLE Element_Force3.400000e+01
2.810474e+01
2.582757e+01
2.056652e+01
1.325933e+01
4.589805e+00

POINT_DATA       6
VECTORS DISPLACEMENT_3.420000e+01 double
0.000000e+00    0.000000e+00    0.000000e+00
1.142040e-03    0.000000e+00    0.000000e+00
2.190335e-03    0.000000e+00    0.000000e+00
3.022873e-03    0.000000e+00    0.000000e+00
3.557639e-03    0.000000e+00    0.000000e+00
3.741948e-03    0.000000e+00    0.000000e+00

CELL_DATA        5
TENSORS Element_Stress3.420000e+01 double
CELL_DATA        5
SCALARS Stress3.420000e+01 double 1
LOOKUP_TABLE Element_Stress3.420000e+01
2.258289e+01
2.074840e+01
1.651329e+01
1.063843e+01
3.679386e+00

SCALARS Force3.420000e+01 double 1
LOOKUP_TABLE Element_Force3.420000e+01
2.258289e+01
2.074840e+01
1.651329e+01
1.063843e+01
3.679386e+00

POINT_DATA       6
VECTORS DISPLACEMENT_3.440000e+01 double
0.000000e+00    0.000000e+00    0.000000e+00
7.883478e-04    0.000000e+00    0.000000e+00
1.511981e-03    0.000000e+00    0.000000e+00
2.086674e-03    0.000000e+00    0.000000e+00
2.455815e-03    0.000000e+00    0.000000e+00
2.583040e-03    0.000000e+00    0.000000e+00

CELL_DATA        5
TENSORS Element_Stress3.440000e+01 double
CELL_DATA        5
SCALARS Stress3.440000e+01 double 1
LOOKUP_TABLE Element_Stress3.440000e+01
1.564363e+01
1.436869e+01
1.142818e+01
7.355663e+00
2.541258e+00

SCALARS Force3.440000e+01 double 1
LOOKUP_TABLE Element_Force3.440000e+01
1.564363e+01
1.436869e+01
1.142818e+01
7.355663e+00
2.541258e+00

POINT_DATA       6
VECTORS DISPLACEMENT_3.460000e+01 double
0.000000e+00    0.000000e+00    0.000000e+00
3.951324e-04    0.000000e+00    0.000000e+00
7.578259e-04    0.000000e+00    0.000000e+00
1.045864e-03    0.000000e+00    0.000000e+00
1.230875e-03    0.000000e+00    0.000000e+00
1.294639e-03    0.000000e+00    0.000000e+00

CELL_DATA        5
TENSORS Element_Stress3.460000e+01 double
CELL_DATA        5
SCALARS Stress3.460000e+01 double 1
LOOKUP_TABLE Element_Stress3.460000e+01
7.871544e+00
7.227656e+00
5.744215e+00
3.693393e+00
1.274458e+00

SCALARS Force3.460000e+01 double 1
LOOKUP_TABLE Element_Force3.460000e+01
7.871544e+00
7.227656e+00
5.744215e+00
3.693393e+00
1.274458e+00

POINT_DATA       6
VECTORS DISPLACEMENT_3.480000e+01 double
0.000000e+00    0.000000e+00    0.000000e+00
-5.442612e-06    0.000000e+00    0.000000e+00
-1.044191e-05    0.000000e+00    0.000000e+00
-1.441795e-05    0.000000e+00    0.000000e+00
-1.697565e-05    0.000000e+00    0.000000e+00
-1.785798e-05    0.000000e+00    0.000000e+00

CELL_DATA        5
TENSORS Element_Stress3.480000e+01 double
CELL_DATA        5
SCALARS Stress3.480000e+01 double 1
LOOKUP_TABLE Element_Stress3.480000e+01
-1.088582e-01
-9.999102e-02
-7.952397e-02
-5.115524e-02
-1.764671e-02

SCALARS Force3.480000e+01 double 1
LOOKUP_TABLE Element_Force3.480000e+01
-1.088582e-01
-9.999102e-02
-7.952397e-02
-5.115524e-02
-1.764671e-02

POINT_DATA       6
VECTORS DISPLACEMENT_3.500000e+01 double
0.000000e+00    0.000000e+00    0.000000e+00
-3.825061e-04    0.000000e+00    0.000000e+00
-7.336147e-04    0.000000e+00    0.000000e+00
-1.012460e-03    0.000000e+00    0.000000e+00
-1.191572e-03    0.000000e+00    0.000000e+00
-1.253304e-03    0.000000e+00    0.000000e+00

CELL_DATA        5
TENSORS Element_Stress3.500000e+01 double
CELL_DATA        5
SCALARS Stress3.500000e+01 double 1
LOOKUP_TABLE Element_Stress3.500000e+01
-7.679497e+00
-7.046913e+00
-5.592503e+00
-3.588666e+00
-1.235392e+00

SCALARS Force3.500000e+01 double 1
LOOKUP_TABLE Element_Force3.500000e+01
-7.679497e+00
-7.046913e+00
-5.592503e+00
-3.588666e+00
-1.235392e+00

POINT_DATA       6
VECTORS DISPLACEMENT_3.520000e+01 double
0.000000e+00    0.000000e+00    0.000000e+00
-7.087530e-04    0.000000e+00    0.000000e+00
-1.359325e-03    0.000000e+00    0.000000e+00
-1.875994e-03    0.000000e+00    0.000000e+00
-2.207863e-03    0.000000e+00    0.000000e+00
-2.322242e-03    0.000000e+00    0.000000e+00

CELL_DATA        5
TENSORS Element_Stress3.520000e+01 double
CELL_DATA        5
SCALARS Stress3.520000e+01 double 1
LOOKUP_TABLE Element_Stress3.520000e+01
-1.427624e+01
-1.309664e+01
-1.038704e+01
-6.659492e+00
-2.290198e+00

SCALARS Force3.520000e+01 double 1
LOOKUP_TABLE Element_Force3.520000e+01
-1.427624e+01
-1.309664e+01
-1.038704e+01
-6.659492e+00
-2.290198e+00

POINT_DATA       6
VECTORS DISPLACEMENT_3.540000e+01 double
0.000000e+00    0.000000e+00    0.000000e+00
-9.623152e-04    0.000000e+00    0.000000e+00
-1.845633e-03    0.000000e+00    0.000000e+00
-2.547140e-03    0.000000e+00    0.000000e+00
-2.997735e-03    0.000000e+00    0.000000e+00
-3.153032e-03    0.000000e+00    0.000000e+00

CELL_DATA        5
TENSORS Element_Stress3.540000e+01 double
CELL_DATA        5
SCALARS Stress3.540000e+01 double 1
LOOKUP_TABLE Element_Stress3.540000e+01
-1.943331e+01
-1.782380e+01
-1.412926e+01
-9.052684e+00
-3.110775e+00

SCALARS Force3.540000e+01 double 1
LOOKUP_TABLE Element_Force3.540000e+01
-1.943331e+01
-1.782380e+01
-1.412926e+01
-9.052684e+00
-3.110775e+00

POINT_DATA       6
VECTORS DISPLACEMENT_3.560000e+01 double
0.000000e+00    0.000000e+00    0.000000e+00
-1.128111e-03    0.000000e+00    0.000000e+00
-2.163615e-03    0.000000e+00    0.000000e+00
-2.985984e-03    0.000000e+00    0.000000e+00
-3.514211e-03    0.000000e+00    0.000000e+00
-3.696264e-03    0.000000e+00    0.000000e+00

CELL_DATA        5
TENSORS Element_Stress3.560000e+01 double
CELL_DATA        5
SCALARS Stress3.560000e+01 double 1
LOOKUP_TABLE Element_Stress3.560000e+01
-2.281965e+01
-2.092677e+01
-1.658376e+01
-1.062064e+01
-3.647703e+00

SCALARS Force3.560000e+01 double 1
LOOKUP_TABLE Element_Force3.560000e+01
-2.281965e+01
-2.092677e+01
-1.658376e+01
-1.062064e+01
-3.647703e+00

POINT_DATA       6
VECTORS DISPLACEMENT_3.580000e+01 double
0.000000e+00    0.000000e+00    0.000000e+00
-1.198601e-03    0.000000e+00    0.000000e+00
-2.298808e-03    0.000000e+00    0.000000e+00
-3.172565e-03    0.000000e+00    0.000000e+00
-3.733801e-03    0.000000e+00    0.000000e+00
-3.927230e-03    0.000000e+00    0.000000e+00

CELL_DATA        5
TENSORS Element_Stress3.580000e+01 double
CELL_DATA        5
SCALARS Stress3.580000e+01 double 1
LOOKUP_TABLE Element_Stress3.580000e+01
-2.426283e+01
-2.224894e+01
-1.762917e+01
-1.128806e+01
-3.876091e+00

SCALARS Force3.580000e+01 double 1
LOOKUP_TABLE Element_Force3.580000e+01
-2.426283e+01
-2.224894e+01
-1.762917e+01
-1.128806e+01
-3.876091e+00

POINT_DATA       6
VECTORS DISPLACEMENT_3.600000e+01 double
0.000000e+00    0.000000e+00    0.000000e+00
-1.173924e-03    0.000000e+00    0.000000e+00
-2.251481e-03    0.000000e+00    0.000000e+00
-3.107252e-03    0.000000e+00    0.000000e+00
-3.656935e-03    0.000000e+00    0.000000e+00
-3.846384e-03    0.000000e+00    0.000000e+00

CELL_DATA        5
TENSORS Element_Stress3.600000e+01 double
CELL_DATA        5
SCALARS Stress3.600000e+01 double 1
LOOKUP_TABLE Element_Stress3.600000e+01
-2.375737e+01
-2.178590e+01
-1.726314e+01
-1.105443e+01
-3.796161e+00

SCALARS Force3.600000e+01 double 1
LOOKUP_TABLE Element_Force3.600000e+01
-2.375737e+01
-2.178590e+01
-1.726314e+01
-1.105443e+01
-3.796161e+00

POINT_DATA       6
VECTORS DISPLACEMENT_3.620000e+01 double
0.000000e+00    0.000000e+00    0.000000e+00
-1.061445e-03    0.000000e+00    0.000000e+00
-2.035758e-03    0.000000e+00    0.000000e+00
-2.809534e-03    0.000000e+00    0.000000e+00
-3.306552e-03    0.000000e+00    0.000000e+00
-3.477849e-03    0.000000e+00    0.000000e+00

CELL_DATA        5
TENSORS Element_Stress3.620000e+01 double
CELL_DATA        5
SCALARS Stress3.620000e+01 double 1
LOOKUP_TABLE Element_Stress3.620000e+01
-2.145665e+01
-1.967798e+01
-1.559621e+01
-9.990002e+00
-3.431826e+00

SCALARS Force3.620000e+01 double 1
LOOKUP_TABLE Element_Force3.620000e+01
-2.145665e+01
-1.967798e+01
-1.559621e+01
-9.990002e+00
-3.431826e+00

POINT_DATA       6
VECTORS DISPLACEMENT_3.640000e+01 double
0.000000e+00    0.000000e+00    0.000000e+00
-8.747771e-04    0.000000e+00    0.000000e+00
-1.677745e-03    0.000000e+00    0.000000e+00
-2.315444e-03    0.000000e+00    0.000000e+00
-2.725056e-03    0.000000e+00    0.000000e+00
-2.866228e-03    0.000000e+00    0.000000e+00

CELL_DATA        5
TENSORS Element_Stress3.640000e+01 double
CELL_DATA        5
SCALARS Stress3.640000e+01 double 1
LOOKUP_TABLE Element_Stress3.640000e+01
-1.764994e+01
-1.618935e+01
-1.283584e+01
-8.225923e+00
-2.827448e+00

SCALARS Force3.640000e+01 double 1
LOOKUP_TABLE Element_Force3.640000e+01
-1.764994e+01
-1.618935e+01
-1.283584e+01
-8.225923e+00
-2.827448e+00

POINT_DATA       6
VECTORS DISPLACEMENT_3.660000e+01 double
0.000000e+00    0.000000e+00    0.000000e+00
-6.323860e-04    0.000000e+00    0.000000e+00
-1.212860e-03    0.000000e+00    0.000000e+00
-1.673860e-03    0.000000e+00    0.000000e+00
-1.969972e-03    0.000000e+00    0.000000e+00
-2.072027e-03    0.000000e+00    0.000000e+00

CELL_DATA        5
TENSORS Element_Stress3.660000e+01 double
CELL_DATA        5
SCALARS Stress3.660000e+01 double 1
LOOKUP_TABLE Element_Stress3.660000e+01
-1.272821e+01
-1.167727e+01
-9.262686e+00
-5.939831e+00
-2.043189e+00

SCALARS Force3.660000e+01 double 1
LOOKUP_TABLE Element_Force3.660000e+01
-1.272821e+01
-1.167727e+01
-9.262686e+00
-5.939831e+00
-2.043189e+00

POINT_DATA       6
VECTORS DISPLACEMENT_3.680000e+01 double
0.000000e+00    0.000000e+00    0.000000e+00
-3.559082e-04    0.000000e+00    0.000000e+00
-6.826000e-04    0.000000e+00    0.000000e+00
-9.420505e-04    0.000000e+00    0.000000e+00
-1.108702e-03    0.000000e+00    0.000000e+00
-1.166139e-03    0.000000e+00    0.000000e+00

CELL_DATA        5
TENSORS Element_Stress3.680000e+01 double
CELL_DATA        5
SCALARS Stress3.680000e+01 double 1
LOOKUP_TABLE Element_Stress3.680000e+01
-7.143588e+00
-6.555251e+00
-5.202509e+00
-3.338597e+00
-1.149390e+00

SCALARS Force3.680000e+01 double 1
LOOKUP_TABLE Element_Force3.680000e+01
-7.143588e+00
-6.555251e+00
-5.202509e+00
-3.338597e+00
-1.149390e+00

POINT_DATA       6
VECTORS DISPLACEMENT_3.700000e+01 double
0.000000e+00    0.000000e+00    0.000000e+00
-6.832296e-05    0.000000e+00    0.000000e+00
-1.310369e-04    0.000000e+00    0.000000e+00
-1.808422e-04    0.000000e+00    0.000000e+00
-2.128330e-04    0.000000e+00    0.000000e+00
-2.238585e-04    0.000000e+00    0.000000e+00

CELL_DATA        5
TENSORS Element_Stress3.700000e+01 double
CELL_DATA        5
SCALARS Stress3.700000e+01 double 1
LOOKUP_TABLE Element_Stress3.700000e+01
-1.367393e+00
-1.255067e+00
-9.966020e-01
-6.400205e-01
-2.205351e-01

SCALARS Force3.700000e+01 double 1
LOOKUP_TABLE Element_Force3.700000e+01
-1.367393e+00
-1.255067e+00
-9.966020e-01
-6.400205e-01
-2.205351e-01

POINT_DATA       6
VECTORS DISPLACEMENT_3.720000e+01 double
0.000000e+00    0.000000e+00    0.000000e+00
2.078710e-04    0.000000e+00    0.000000e+00
3.986783e-04    0.000000e+00    0.000000e+00
5.502135e-04    0.000000e+00    0.000000e+00
6.475489e-04    0.000000e+00    0.000000e+00
6.810956e-04    0.000000e+00    0.000000e+00

CELL_DATA        5
TENSORS Element_Stress3.720000e+01 double
CELL_DATA        5
SCALARS Stress3.720000e+01 double 1
LOOKUP_TABLE Element_Stress3.720000e+01
4.148795e+00
3.808879e+00
3.026118e+00
1.944815e+00
6.707099e-01

SCALARS Force3.720000e+01 double 1
LOOKUP_TABLE Element_Force3.720000e+01
4.148795e+00
3.808879e+00
3.026118e+00
1.944815e+00
6.707099e-01

POINT_DATA       6
VECTORS DISPLACEMENT_3.740000e+01 double
0.000000e+00    0.000000e+00    0.000000e+00
4.523379e-04    0.000000e+00    0.000000e+00
8.675438e-04    0.000000e+00    0.000000e+00
1.197291e-03    0.000000e+00    0.000000e+00
1.409096e-03    0.000000e+00    0.000000e+00
1.482094e-03    0.000000e+00    0.000000e+00

CELL_DATA        5
TENSORS Element_Stress3.740000e+01 double
CELL_DATA        5
SCALARS Stress3.740000e+01 double 1
LOOKUP_TABLE Element_Stress3.740000e+01
9.006020e+00
8.269781e+00
6.573260e+00
4.227147e+00
1.458909e+00

SCALARS Force3.740000e+01 double 1
LOOKUP_TABLE Element_Force3.740000e+01
9.006020e+00
8.269781e+00
6.573260e+00
4.227147e+00
1.458909e+00

POINT_DATA       6
VECTORS DISPLACEMENT_3.760000e+01 double
0.000000e+00    0.000000e+00    0.000000e+00
6.483262e-04    0.000000e+00    0.000000e+00
1.243432e-03    0.000000e+00    0.000000e+00
1.716050e-03    0.000000e+00    0.000000e+00
2.019625e-03    0.000000e+00    0.000000e+00
2.124252e-03    0.000000e+00    0.000000e+00

CELL_DATA        5
TENSORS Element_Stress3.760000e+01 double
CELL_DATA        5
SCALARS Stress3.760000e+01 double 1
LOOKUP_TABLE Element_Stress3.760000e+01
1.288300e+01
1.183170e+01
9.407901e+00
6.053120e+00
2.090355e+00

SCALARS Force3.760000e+01 double 1
LOOKUP_TABLE Element_Force3.760000e+01
1.288300e+01
1.183170e+01
9.407901e+00
6.053120e+00
2.090355e+00

POINT_DATA       6
VECTORS DISPLACEMENT_3.780000e+01 double
0.000000e+00    0.000000e+00    0.000000e+00
7.837351e-04    0.000000e+00    0.000000e+00
1.503134e-03    0.000000e+00    0.000000e+00
2.074462e-03    0.000000e+00    0.000000e+00
2.441441e-03    0.000000e+00    0.000000e+00
2.567920e-03    0.000000e+00    0.000000e+00

CELL_DATA        5
TENSORS Element_Stress3.780000e+01 double
CELL_DATA        5
SCALARS Stress3.780000e+01 double 1
LOOKUP_TABLE Element_Stress3.780000e+01
1.555281e+01
1.428520e+01
1.136166e+01
7.312741e+00
2.526390e+00

SCALARS Force3.780000e+01 double 1
LOOKUP_TABLE Element_Force3.780000e+01
1.555281e+01
1.428520e+01
1.136166e+01
7.312741e+00
2.526390e+00

POINT_DATA       6
VECTORS DISPLACEMENT_3.800000e+01 double
0.000000e+00    0.000000e+00    0.000000e+00
8.517662e-04    0.000000e+00    0.000000e+00
1.633611e-03    0.000000e+00    0.000000e+00
2.254533e-03    0.000000e+00    0.000000e+00
2.653367e-03    0.000000e+00    0.000000e+00
2.790826e-03    0.000000e+00    0.000000e+00

CELL_DATA        5
TENSORS Element_Stress3.800000e+01 double
CELL_DATA        5
SCALARS Stress3.800000e+01 double 1
LOOKUP_TABLE Element_Stress3.800000e+01
1.689145e+01
1.551559e+01
1.234181e+01
7.944994e+00
2.745390e+00

SCALARS Force3.800000e+01 double 1
LOOKUP_TABLE Element_Force3.800000e+01
1.689145e+01
1.551559e+01
1.234181e+01
7.944994e+00
2.745390e+00

POINT_DATA       6
VECTORS DISPLACEMENT_3.820000e+01 double
0.000000e+00    0.000000e+00    0.000000e+00
8.511343e-04    0.000000e+00    0.000000e+00
1.632399e-03    0.000000e+00    0.000000e+00
2.252861e-03    0.000000e+00    0.000000e+00
2.651400e-03    0.000000e+00    0.000000e+00
2.788756e-03    0.000000e+00    0.000000e+00

CELL_DATA        5
TENSORS Element_Stress3.820000e+01 double
CELL_DATA        5
SCALARS Stress3.820000e+01 double 1
LOOKUP_TABLE Element_Stress3.820000e+01
1.687902e+01
1.550417e+01
1.233272e+01
7.939129e+00
2.743359e+00

SCALARS Force3.820000e+01 double 1
LOOKUP_TABLE Element_Force3.820000e+01
1.687902e+01
1.550417e+01
1.233272e+01
7.939129e+00
2.743359e+00

POINT_DATA       6
VECTORS DISPLACEMENT_3.840000e+01 double
0.000000e+00    0.000000e+00    0.000000e+00
7.858472e-04    0.000000e+00    0.000000e+00
1.507185e-03    0.000000e+00    0.000000e+00
2.080054e-03    0.000000e+00    0.000000e+00
2.448022e-03    0.000000e+00    0.000000e+00
2.574843e-03    0.000000e+00    0.000000e+00

CELL_DATA        5
TENSORS Element_Stress3.840000e+01 double
CELL_DATA        5
SCALARS Stress3.840000e+01 double 1
LOOKUP_TABLE Element_Stress3.840000e+01
1.559440e+01
1.432343e+01
1.139212e+01
7.332389e+00
2.533196e+00

SCALARS Force3.840000e+01 double 1
LOOKUP_TABLE Element_Force3.840000e+01
1.559440e+01
1.432343e+01
1.139212e+01
7.332389e+00
2.533196e+00

POINT_DATA       6
VECTORS DISPLACEMENT_3.860000e+01 double
0.000000e+00    0.000000e+00    0.000000e+00
6.645960e-04    0.000000e+00    0.000000e+00
1.274636e-03    0.000000e+00    0.000000e+00
1.759115e-03    0.000000e+00    0.000000e+00
2.070308e-03    0.000000e+00    0.000000e+00
2.177561e-03    0.000000e+00    0.000000e+00

CELL_DATA        5
TENSORS Element_Stress3.860000e+01 double
CELL_DATA        5
SCALARS Stress3.860000e+01 double 1
LOOKUP_TABLE Element_Stress3.860000e+01
1.320417e+01
1.212682e+01
9.642863e+00
6.204561e+00
2.142760e+00

SCALARS Force3.860000e+01 double 1
LOOKUP_TABLE Element_Force3.860000e+01
1.320417e+01
1.212682e+01
9.642863e+00
6.204561e+00
2.142760e+00

POINT_DATA       6
VECTORS DISPLACEMENT_3.880000e+01 double
0.000000e+00    0.000000e+00    0.000000e+00
4.998238e-04    0.000000e+00    0.000000e+00
9.586174e-04    0.000000e+00    0.000000e+00
1.322980e-03    0.000000e+00    0.000000e+00
1.557020e-03    0.000000e+00    0.000000e+00
1.637682e-03    0.000000e+00    0.000000e+00

CELL_DATA        5
TENSORS Element_Stress3.880000e+01 double
CELL_DATA        5
SCALARS Stress3.880000e+01 double 1
LOOKUP_TABLE Element_Stress3.880000e+01
9.946759e+00
9.133967e+00
7.260803e+00
4.669866e+00
1.611937e+00

SCALARS Force3.880000e+01 double 1
LOOKUP_TABLE Element_Force3.880000e+01
9.946759e+00
9.133967e+00
7.260803e+00
4.669866e+00
1.611937e+00

POINT_DATA       6
VECTORS DISPLACEMENT_3.900000e+01 double
0.000000e+00    0.000000e+00    0.000000e+00
3.065641e-04    0.000000e+00    0.000000e+00
5.879626e-04    0.000000e+00    0.000000e+00
8.114425e-04    0.000000e+00    0.000000e+00
9.549894e-04    0.000000e+00    0.000000e+00
1.004463e-03    0.000000e+00    0.000000e+00

CELL_DATA        5
TENSORS Element_Stress3.900000e+01 double
CELL_DATA        5
SCALARS Stress3.900000e+01 double 1
LOOKUP_TABLE Element_Stress3.900000e+01
6.112543e+00
5.612177e+00
4.459632e+00
2.866823e+00
9.889803e-01

SCALARS Force3.900000e+01 double 1
LOOKUP_TABLE Element_Force3.900000e+01
6.112543e+00
5.612177e+00
4.459632e+00
2.866823e+00
9.889803e-01

POINT_DATA       6
VECTORS DISPLACEMENT_3.920000e+01 double
0.000000e+00    0.000000e+00    0.000000e+00
1.011487e-04    0.000000e+00    0.000000e+00
1.939941e-04    0.000000e+00    0.000000e+00
2.677296e-04    0.000000e+00    0.000000e+00
3.150918e-04    0.000000e+00    0.000000e+00
3.314152e-04    0.000000e+00    0.000000e+00

CELL_DATA        5
TENSORS Element_Stress3.920000e+01 double
CELL_DATA        5
SCALARS Stress3.920000e+01 double 1
LOOKUP_TABLE Element_Stress3.920000e+01
2.020929e+00
1.855186e+00
1.473624e+00
9.467956e-01
3.264144e-01

SCALARS Force3.920000e+01 double 1
LOOKUP_TABLE Element_Force3.920000e+01
2.020929e+00
1.855186e+00
1.473624e+00
9.467956e-01
3.264144e-01

POINT_DATA       6
VECTORS DISPLACEMENT_3.940000e+01 double
0.000000e+00    0.000000e+00    0.000000e+00
-1.001087e-04    0.000000e+00    0.000000e+00
-1.919995e-04    0.000000e+00    0.000000e+00
-2.649771e-04    0.000000e+00    0.000000e+00
-3.118526e-04    0.000000e+00    0.000000e+00
-3.280082e-04    0.000000e+00    0.000000e+00

CELL_DATA        5
TENSORS Element_Stress3.940000e+01 double
CELL_DATA        5
SCALARS Stress3.940000e+01 double 1
LOOKUP_TABLE Element_Stress3.940000e+01
-2.004180e+00
-1.839508e+00
-1.460618e+00
-9.379484e-01
-3.231650e-01

SCALARS Force3.940000e+01 double 1
LOOKUP_TABLE Element_Force3.940000e+01
-2.004180e+00
-1.839508e+00
-1.460618e+00
-9.379484e-01
-3.231650e-01

POINT_DATA       6
VECTORS DISPLACEMENT_3.960000e+01 double
0.000000e+00    0.000000e+00    0.000000e+00
-2.821509e-04    0.000000e+00    0.000000e+00
-5.411403e-04    0.000000e+00    0.000000e+00
-7.468234e-04    0.000000e+00    0.000000e+00
-8.789390e-04    0.000000e+00    0.000000e+00
-9.244727e-04    0.000000e+00    0.000000e+00

CELL_DATA        5
TENSORS Element_Stress3.960000e+01 double
CELL_DATA        5
SCALARS Stress3.960000e+01 double 1
LOOKUP_TABLE Element_Stress3.960000e+01
-5.658985e+00
-5.193237e+00
-4.122142e+00
-2.645808e+00
-9.110885e-01

SCALARS Force3.960000e+01 double 1
LOOKUP_TABLE Element_Force3.960000e+01
-5.658985e+00
-5.193237e+00
-4.122142e+00
-2.645808e+00
-9.110885e-01

POINT_DATA       6
VECTORS DISPLACEMENT_3.980000e+01 double
0.000000e+00    0.000000e+00    0.000000e+00
-4.322498e-04    0.000000e+00    0.000000e+00
-8.290164e-04    0.000000e+00    0.000000e+00
-1.144119e-03    0.000000e+00    0.000000e+00
-1.346517e-03    0.000000e+00    0.000000e+00
-1.416274e-03    0.000000e+00    0.000000e+00

CELL_DATA        5
TENSORS Element_Stress3.980000e+01 double
CELL_DATA        5
SCALARS Stress3.980000e+01 double 1
LOOKUP_TABLE Element_Stress3.980000e+01
-8.682526e+00
-7.966943e+00
-6.321971e+00
-4.056179e+00
-1.396107e+00

SCALARS Force3.980000e+01 double 1
LOOKUP_TABLE Element_Force3.980000e+01
-8.682526e+00
-7.966943e+00
-6.321971e+00
-4.056179e+00
-1.396107e+00

POINT_DATA       6
VECTORS DISPLACEMENT_4.000000e+01 double
0.000000e+00    0.000000e+00    0.000000e+00
-5.408389e-04    0.000000e+00    0.000000e+00
-1.037281e-03    0.000000e+00    0.000000e+00
-1.431543e-03    0.000000e+00    0.000000e+00
-1.684787e-03    0.000000e+00    0.000000e+00
-1.772068e-03    0.000000e+00    0.000000e+00

CELL_DATA        5
TENSORS Element_Stress4.000000e+01 double
CELL_DATA        5
SCALARS Stress4.000000e+01 double 1
LOOKUP_TABLE Element_Stress4.000000e+01
-1.087560e+01
-9.978372e+00
-7.916452e+00
-5.077752e+00
-1.747141e+00

SCALARS Force4.000000e+01 double 1
LOOKUP_TABLE Element_Force4.000000e+01
-1.087560e+01
-9.978372e+00
-7.916452e+00
-5.077752e+00
-1.747141e+00

