# vtk DataFile Version 3.0
"problem CAX8R"
ASCII
DATASET UNSTRUCTURED_GRID

POINTS       8 double
0.000000e+00 0.000000e+00 0.000000e+00
1.000000e+02 0.000000e+00 0.000000e+00
1.000000e+02 1.000000e+02 0.000000e+00
0.000000e+00 1.000000e+02 0.000000e+00
5.000000e+01 0.000000e+00 0.000000e+00
1.000000e+02 5.000000e+01 0.000000e+00
5.000000e+01 1.000000e+02 0.000000e+00
0.000000e+00 5.000000e+01 0.000000e+00
CELLS       1       9
8       0       1       2       3       4       5       6       7
CELL_TYPES       1
23
POINT_DATA       8
VECTORS DISPLACEMENT double
0.000000e+00    0.000000e+00    0.000000e+00
0.000000e+00    0.000000e+00    0.000000e+00
-2.359611e-11    5.081607e-11    0.000000e+00
2.845897e-11    1.457933e-10    0.000000e+00
0.000000e+00    0.000000e+00    0.000000e+00
-9.267448e-12    2.507850e-11    0.000000e+00
-5.664793e-12    4.079503e-11    0.000000e+00
-6.813506e-12    6.597124e-11    0.000000e+00

CELL_DATA        1
TENSORS Element_Stress double
2.088284e-02 -3.542878e-02        0
-3.542878e-02 1.290009e-01        0
       0        0 9.353996e-03

