# vtk DataFile Version 3.0
"CAX8R element in dynamic analysis"
ASCII
DATASET UNSTRUCTURED_GRID

POINTS       8 double
0.000000e+00 0.000000e+00 0.000000e+00
1.000000e+02 0.000000e+00 0.000000e+00
1.000000e+02 1.000000e+02 0.000000e+00
0.000000e+00 1.000000e+02 0.000000e+00
5.000000e+01 0.000000e+00 0.000000e+00
1.000000e+02 5.000000e+01 0.000000e+00
5.000000e+01 1.000000e+02 0.000000e+00
0.000000e+00 5.000000e+01 0.000000e+00
CELLS       1       9
8       0       1       2       3       4       5       6       7
CELL_TYPES       1
23
POINT_DATA       8
VECTORS DISPLACEMENT_2.000000e-02 double
0.000000e+00    0.000000e+00    0.000000e+00
0.000000e+00    0.000000e+00    0.000000e+00
-2.454940e-11    4.044578e-11    0.000000e+00
2.807301e-11    1.269916e-10    0.000000e+00
0.000000e+00    0.000000e+00    0.000000e+00
-5.009795e-12    2.295276e-11    0.000000e+00
-8.416463e-12    3.591024e-11    0.000000e+00
-8.110048e-12    5.521245e-11    0.000000e+00

CELL_DATA        1
TENSORS Element_Stress2.000000e-02 double
1.977613e-02 -3.150344e-02        0
-3.150344e-02 1.098530e-01        0
       0        0 7.578847e-04

POINT_DATA       8
VECTORS DISPLACEMENT_4.000000e-02 double
0.000000e+00    0.000000e+00    0.000000e+00
0.000000e+00    0.000000e+00    0.000000e+00
-4.471819e-11    1.015559e-10    0.000000e+00
5.682778e-11    2.699894e-10    0.000000e+00
0.000000e+00    0.000000e+00    0.000000e+00
-2.247235e-11    5.146898e-11    0.000000e+00
-1.056633e-11    7.678706e-11    0.000000e+00
-1.185644e-11    1.347515e-10    0.000000e+00

CELL_DATA        1
TENSORS Element_Stress4.000000e-02 double
2.445016e-02 -6.816916e-02        0
-6.816916e-02 2.353997e-01        0
       0        0 6.111524e-03

POINT_DATA       8
VECTORS DISPLACEMENT_6.000000e-02 double
0.000000e+00    0.000000e+00    0.000000e+00
0.000000e+00    0.000000e+00    0.000000e+00
-2.699694e-11    6.458755e-11    0.000000e+00
3.711132e-11    2.088786e-10    0.000000e+00
0.000000e+00    0.000000e+00    0.000000e+00
-1.322332e-11    3.242343e-11    0.000000e+00
-3.933590e-12    6.296112e-11    0.000000e+00
-9.816171e-12    9.497916e-11    0.000000e+00

CELL_DATA        1
TENSORS Element_Stress6.000000e-02 double
3.957364e-02 -5.129923e-02        0
-5.129923e-02 1.942012e-01        0
       0        0 2.408524e-02

POINT_DATA       8
VECTORS DISPLACEMENT_8.000000e-02 double
0.000000e+00    0.000000e+00    0.000000e+00
0.000000e+00    0.000000e+00    0.000000e+00
-6.227652e-13    9.769352e-12    0.000000e+00
4.925498e-12    4.161264e-11    0.000000e+00
0.000000e+00    0.000000e+00    0.000000e+00
-2.436312e-12    3.500254e-13    0.000000e+00
2.996007e-12    6.481740e-12    0.000000e+00
-9.541334e-13    9.080763e-12    0.000000e+00

CELL_DATA        1
TENSORS Element_Stress8.000000e-02 double
9.124442e-03 -6.471728e-03        0
-6.471728e-03 3.189006e-02        0
       0        0 1.127694e-02

POINT_DATA       8
VECTORS DISPLACEMENT_1.000000e-01 double
0.000000e+00    0.000000e+00    0.000000e+00
0.000000e+00    0.000000e+00    0.000000e+00
-1.836315e-11    3.255178e-11    0.000000e+00
6.789785e-12    5.918319e-11    0.000000e+00
0.000000e+00    0.000000e+00    0.000000e+00
3.491548e-12    1.055848e-11    0.000000e+00
-7.914358e-12    1.024150e-11    0.000000e+00
-2.225411e-12    1.529934e-11    0.000000e+00

CELL_DATA        1
TENSORS Element_Stress1.000000e-01 double
2.038122e-02 -1.138790e-02        0
-1.138790e-02 5.499303e-02        0
       0        0 1.548337e-02

POINT_DATA       8
VECTORS DISPLACEMENT_1.200000e-01 double
0.000000e+00    0.000000e+00    0.000000e+00
0.000000e+00    0.000000e+00    0.000000e+00
-4.654826e-11    9.303213e-11    0.000000e+00
4.421820e-11    2.266346e-10    0.000000e+00
0.000000e+00    0.000000e+00    0.000000e+00
-1.850903e-11    4.566655e-11    0.000000e+00
-1.409020e-11    6.257598e-11    0.000000e+00
-6.748136e-12    1.033666e-10    0.000000e+00

CELL_DATA        1
TENSORS Element_Stress1.200000e-01 double
1.629418e-02 -5.424274e-02        0
-5.424274e-02 1.977764e-01        0
       0        0 9.659808e-03

POINT_DATA       8
VECTORS DISPLACEMENT_1.400000e-01 double
0.000000e+00    0.000000e+00    0.000000e+00
0.000000e+00    0.000000e+00    0.000000e+00
-2.987767e-11    7.945804e-11    0.000000e+00
4.585954e-11    2.624706e-10    0.000000e+00
0.000000e+00    0.000000e+00    0.000000e+00
-2.069836e-11    4.347914e-11    0.000000e+00
-4.063476e-12    8.226369e-11    0.000000e+00
-1.339295e-11    1.250905e-10    0.000000e+00

CELL_DATA        1
TENSORS Element_Stress1.400000e-01 double
4.339565e-02 -6.535001e-02        0
-6.535001e-02 2.423552e-01        0
       0        0 1.891788e-02

